13
charge=0, multiplicity=1, basis=def2-QZVPP
Cr 0.00000000 0.00000000 0.00000000
C 0.00000000 1.90065470 0.00000000
C 0.00000000 0.00000000 1.90065470
C 1.90065470 0.00000000 0.00000000
C 0.00000000 0.00000000 -1.90065470
C -1.90065470 0.00000000 0.00000000
C 0.00000000 -1.90065470 0.00000000
O 0.00000000 3.05850630 0.00000000
O 0.00000000 0.00000000 3.05850630
O 3.05850630 0.00000000 0.00000000
O 0.00000000 0.00000000 -3.05850630
O -3.05850630 0.00000000 0.00000000
O 0.00000000 -3.05850630 0.00000000
