14
charge=0, multiplicity=1, basis=def2-QZVPP
Bi -1.4906325 -1.4906325 -1.4906325
Bi 1.4906325 1.4906325 -1.4906325
Bi 1.4906325 -1.4906325 1.4906325
Bi -1.4906325 1.4906325 1.4906325
S 0.0000000 -2.9310867 0.0000000
S 0.0000000 0.0000000 -2.9310867
S 2.9310867 0.0000000 0.0000000
S -2.9310867 0.0000000 0.0000000
S 0.0000000 2.9310867 0.0000000
S 0.0000000 0.0000000 2.9310867
S 2.8395887 -2.8395887 2.8395887
S -2.8395887 -2.8395887 -2.8395887
S 2.8395887 2.8395887 -2.8395887
S -2.8395887 2.8395887 2.8395887
