17
charge=1, multiplicity=1, basis=def2-QZVPP
Sn 1.2497485 1.2497485 -1.2497485
N 0.0000000 0.0000000 0.0000000
Sn -1.2497485 -1.2497485 -1.2497485
Sn 1.2497485 -1.2497485 1.2497485
Sn -1.2497485 1.2497485 1.2497485
H -2.1481573 -2.1481573 -0.1258011
H -2.1481573 -0.1258011 -2.1481573
H -0.1258011 -2.1481573 -2.1481573
H 2.1481573 -0.1258011 2.1481573
H 0.1258011 -2.1481573 2.1481573
H 2.1481573 -2.1481573 0.1258011
H 2.1481573 2.1481573 -0.1258011
H 2.1481573 0.1258011 -2.1481573
H 0.1258011 2.1481573 -2.1481573
H -2.1481573 2.1481573 0.1258011
H -2.1481573 0.1258011 2.1481573
H -0.1258011 2.1481573 2.1481573
