14
charge=0, multiplicity=1, basis=def2-QZVPP
Sb -1.4214534 -1.4214534 -1.4214534
Sb 1.4214534 1.4214534 -1.4214534
Sb 1.4214534 -1.4214534 1.4214534
Sb -1.4214534 1.4214534 1.4214534
S 0.0000000 -2.8001994 0.0000000
S 0.0000000 0.0000000 -2.8001994
S 2.8001994 0.0000000 0.0000000
S -2.8001994 0.0000000 0.0000000
S 0.0000000 2.8001994 0.0000000
S 0.0000000 0.0000000 2.8001994
S 2.7055259 -2.7055259 2.7055259
S -2.7055259 -2.7055259 -2.7055259
S 2.7055259 2.7055259 -2.7055259
S -2.7055259 2.7055259 2.7055259
