17
charge=0, multiplicity=1, basis=def2-QZVPP
Xe 0.0000000 0.0000000 0.0000000
B 1.8044997 -1.8044997 1.8044997
B -1.8044997 1.8044997 1.8044997
B 1.8044997 1.8044997 -1.8044997
B -1.8044997 -1.8044997 -1.8044997
H 2.2987755 -0.8386672 2.2987755
H 2.2987755 -2.2987755 0.8386672
H 0.8386672 -2.2987755 2.2987755
H 0.8386672 2.2987755 -2.2987755
H 2.2987755 0.8386672 -2.2987755
H 2.2987755 2.2987755 -0.8386672
H -2.2987755 -2.2987755 -0.8386672
H -0.8386672 -2.2987755 -2.2987755
H -2.2987755 -0.8386672 -2.2987755
H -2.2987755 0.8386672 2.2987755
H -0.8386672 2.2987755 2.2987755
H -2.2987755 2.2987755 0.8386672
