17
charge=0, multiplicity=1, basis=def2-QZVPP
Ar 0.0000000 0.0000000 0.0000000
B 1.7654093 -1.7654093 1.7654093
B -1.7654093 1.7654093 1.7654093
B 1.7654093 1.7654093 -1.7654093
B -1.7654093 -1.7654093 -1.7654093
H 2.2529941 -0.7931634 2.2529941
H 2.2529941 -2.2529941 0.7931634
H 0.7931634 -2.2529941 2.2529941
H 0.7931634 2.2529941 -2.2529941
H 2.2529941 0.7931634 -2.2529941
H 2.2529941 2.2529941 -0.7931634
H -2.2529941 -2.2529941 -0.7931634
H -0.7931634 -2.2529941 -2.2529941
H -2.2529941 -0.7931634 -2.2529941
H -2.2529941 0.7931634 2.2529941
H -0.7931634 2.2529941 2.2529941
H -2.2529941 2.2529941 0.7931634
