16
charge=0, multiplicity=1, basis=def2-QZVPP
Cs 1.6126496 1.6126496 -1.2822253
N 1.4061414 1.4061414 1.6761923
H 2.1292847 2.1292847 1.7277519
H 1.2383685 1.2383685 2.6738762
Cs 1.6126496 -1.6126496 1.2822253
N 1.4061414 -1.4061414 -1.6761923
H 1.2383685 -1.2383685 -2.6738762
H 2.1292847 -2.1292847 -1.7277519
N -1.4061414 1.4061414 -1.6761923
H -2.1292847 2.1292847 -1.7277519
Cs -1.6126496 1.6126496 1.2822253
H -1.2383685 1.2383685 -2.6738762
Cs -1.6126496 -1.6126496 -1.2822253
N -1.4061414 -1.4061414 1.6761923
H -1.2383685 -1.2383685 2.6738762
H -2.1292847 -2.1292847 1.7277519
