17
charge=1, multiplicity=1, basis=def2-QZVPP
Na 0.0000000 0.0000000 0.0000000
N -1.4180350 -1.4180350 -1.4180350
N 1.4180350 1.4180350 -1.4180350
N -1.4180350 1.4180350 1.4180350
N 1.4180350 -1.4180350 1.4180350
H -2.0329253 -0.8919476 -2.0329253
H -0.8919476 -2.0329253 -2.0329253
H -2.0329253 -2.0329253 -0.8919476
H 2.0329253 0.8919476 -2.0329253
H 2.0329253 2.0329253 -0.8919476
H 0.8919476 2.0329253 -2.0329253
H -2.0329253 2.0329253 0.8919476
H -0.8919476 2.0329253 2.0329253
H -2.0329253 0.8919476 2.0329253
H 2.0329253 -2.0329253 0.8919476
H 0.8919476 -2.0329253 2.0329253
H 2.0329253 -0.8919476 2.0329253
