18
charge=0, multiplicity=1, basis=def2-QZVPP
Ag 0.0000000 0.0000000 -1.4226872
Ag 0.0000000 0.0000000 1.4226872
H -3.0002964 3.0002964 0.0000000
H -3.0002964 -3.0002964 0.0000000
H 3.0002964 -3.0002964 0.0000000
H 3.0002964 3.0002964 0.0000000
S -1.7878716 -1.7878716 -1.5535499
S -1.7878716 1.7878716 1.5535499
S -1.7878716 1.7878716 -1.5535499
S -1.7878716 -1.7878716 1.5535499
C -2.2237877 2.2237877 0.0000000
C -2.2237877 -2.2237877 0.0000000
S 1.7878716 1.7878716 1.5535499
S 1.7878716 -1.7878716 -1.5535499
S 1.7878716 -1.7878716 1.5535499
S 1.7878716 1.7878716 -1.5535499
C 2.2237877 -2.2237877 0.0000000
C 2.2237877 2.2237877 0.0000000
