17
charge=0, multiplicity=1, basis=def2-QZVPP
Hg 0.0000000 0.0000000 0.0000000
B 1.4503035 -1.4503035 1.4503035
B -1.4503035 1.4503035 1.4503035
B 1.4503035 1.4503035 -1.4503035
B -1.4503035 -1.4503035 -1.4503035
H 1.9603225 -0.4959606 1.9603225
H 1.9603225 -1.9603225 0.4959606
H 0.4959606 -1.9603225 1.9603225
H 0.4959606 1.9603225 -1.9603225
H 1.9603225 0.4959606 -1.9603225
H 1.9603225 1.9603225 -0.4959606
H -1.9603225 -1.9603225 -0.4959606
H -0.4959606 -1.9603225 -1.9603225
H -1.9603225 -0.4959606 -1.9603225
H -1.9603225 0.4959606 1.9603225
H -0.4959606 1.9603225 1.9603225
H -1.9603225 1.9603225 0.4959606
