17
charge=-1, multiplicity=1, basis=def2-QZVPP
Y -0.0000000 0.0000000 -0.0000000
C -1.4075199 1.4075199 1.4075199
H -0.8203379 2.0679252 2.0679252
H -2.0679252 0.8203379 2.0679252
H -2.0679252 2.0679252 0.8203379
C 1.4075199 -1.4075199 1.4075199
H 2.0679252 -2.0679252 0.8203379
H 0.8203379 -2.0679252 2.0679252
H 2.0679252 -0.8203379 2.0679252
C -1.4075199 -1.4075199 -1.4075199
H -2.0679252 -0.8203379 -2.0679252
H -2.0679252 -2.0679252 -0.8203379
H -0.8203379 -2.0679252 -2.0679252
C 1.4075199 1.4075199 -1.4075199
H 0.8203379 2.0679252 -2.0679252
H 2.0679252 2.0679252 -0.8203379
H 2.0679252 0.8203379 -2.0679252
