8
charge=0, multiplicity=1, basis=def2-QZVPPD
H 0.696895000000000 0.612992000000000 0.012482000000000
H 2.975236000000000 0.733832000000000 0.814850000000000
H 3.001254000000000 0.735651000000000 -0.712056000000000
O -0.276649000000000 0.695620000000000 -0.003812000000000
O -2.002704000000000 -0.732006000000000 -0.035055000000000
O 2.489064000000000 0.427870000000000 0.042528000000000
C -0.815748000000000 -0.533188000000000 -0.014429000000000
H -0.066710000000000 -1.338030000000000 -0.003209000000000
