8
charge=0, multiplicity=1, basis=def2-QZVPPD
H -1.630373000000000 1.885826000000000 -0.030414000000000
H 1.417864000000000 -0.657741000000000 0.025428000000000
H 2.401877000000000 0.494862000000000 0.043936000000000
O -0.880113000000000 1.277535000000000 -0.015726000000000
O -0.589266000000000 -0.935071000000000 -0.010364000000000
O 2.365350000000000 -0.465214000000000 0.042175000000000
C -1.334359000000000 0.007843000000000 -0.024859000000000
H -2.427501000000000 -0.079159000000000 -0.046366000000000
