12
charge=0, multiplicity=1, basis=def2-QZVPPD
H 2.104722000000000 -0.155046000000000 -1.957245000000000
H 2.159469000000000 -1.796209000000000 0.736340000000000
H -1.091181000000000 0.948726000000000 0.562181000000000
O 3.102426000000000 0.327631000000000 0.278913000000000
O 0.709203000000000 0.986576000000000 0.707984000000000
O 1.340036000000000 0.175459000000000 -1.458852000000000
O 1.330456000000000 -1.365287000000000 0.473187000000000
O -2.070097000000000 1.012284000000000 0.484254000000000
O -1.489573000000000 -0.821848000000000 -0.607409000000000
S 1.687722000000000 0.138921000000000 0.087522000000000
O -3.589461000000000 -0.210490000000000 -0.485216000000000
N -2.408401000000000 -0.100127000000000 -0.265408000000000
