20
charge=0, multiplicity=1, basis=def2-QZVPPD
H -0.916923000000000 0.149568000000000 -0.472533000000000
H 2.677932000000000 -0.402012000000000 -1.340984000000000
H -0.995396000000000 -0.630836000000000 1.775807000000000
H -1.751646000000000 0.959842000000000 1.569315000000000
H -2.784992000000000 -0.486138000000000 1.768453000000000
H -1.801804000000000 -1.827321000000000 -1.536990000000000
H -0.947124000000000 -2.175684000000000 -0.017627000000000
H -2.743229000000000 -2.199943000000000 -0.069131000000000
H -2.877477000000000 0.297650000000000 -1.828079000000000
H -3.904495000000000 0.027014000000000 -0.395408000000000
H -2.873924000000000 1.479683000000000 -0.503753000000000
C -1.849790000000000 -0.102813000000000 1.362080000000000
C -1.837488000000000 -1.732996000000000 -0.454566000000000
C -2.955214000000000 0.424643000000000 -0.751504000000000
N -1.843891000000000 -0.298013000000000 -0.105387000000000
O 1.612585000000000 1.316424000000000 1.176303000000000
O 1.065875000000000 -1.013883000000000 0.487616000000000
O 0.318293000000000 0.854507000000000 -0.875726000000000
O 2.735507000000000 0.351522000000000 -0.736649000000000
S 1.353712000000000 0.378176000000000 0.107184000000000
