12
charge=0, multiplicity=1, basis=def2-QZVPPD
H 0.616004000000000 0.552773000000000 0.957535000000000
H -2.394447000000000 1.641521000000000 0.255570000000000
H 2.633214000000000 0.282147000000000 -1.743210000000000
H 2.698438000000000 -1.714830000000000 -0.992962000000000
C 2.350216000000000 0.122194000000000 -0.698435000000000
O -0.454288000000000 -0.601291000000000 -1.004464000000000
O -2.332800000000000 -0.803350000000000 0.670104000000000
O -0.253472000000000 0.233279000000000 1.314755000000000
O -1.701334000000000 1.355111000000000 -0.359614000000000
O 2.472806000000000 -1.130114000000000 -0.257149000000000
O 1.966511000000000 1.014387000000000 0.023647000000000
S -1.213487000000000 -0.099448000000000 0.110764000000000
