12
charge=0, multiplicity=1, basis=def2-QZVPPD
H 0.263211000000000 -0.280463000000000 -1.527636000000000
H 0.170126000000000 -1.409477000000000 0.739139000000000
H -0.995365000000000 1.113545000000000 0.501252000000000
O 2.956207000000000 0.186280000000000 0.230657000000000
O 0.646422000000000 1.086976000000000 0.591769000000000
O 1.230950000000000 -0.204671000000000 -1.428824000000000
O 1.140295000000000 -1.323088000000000 0.786356000000000
O -1.994377000000000 1.138523000000000 0.456348000000000
O -1.436576000000000 -0.787176000000000 -0.471698000000000
S 1.545864000000000 0.050750000000000 0.104245000000000
O -3.530135000000000 -0.196122000000000 -0.293546000000000
N -2.350493000000000 -0.022616000000000 -0.141863000000000
