12
charge=0, multiplicity=1, basis=def2-QZVPPD
H -0.127395000000000 1.075838000000000 -0.849994000000000
H 0.463379000000000 -0.843226000000000 1.590517000000000
H -2.131196000000000 -1.841687000000000 -1.282596000000000
O 2.804226000000000 -0.163245000000000 -0.232713000000000
O 1.403696000000000 1.311103000000000 1.253962000000000
O 0.769830000000000 0.777581000000000 -1.098404000000000
O 0.598771000000000 -0.924538000000000 0.632909000000000
O -1.928529000000000 -0.894066000000000 -1.383874000000000
O -2.578388000000000 -1.165362000000000 0.716964000000000
S 1.535887000000000 0.327432000000000 0.208114000000000
O -1.860330000000000 0.777318000000000 0.006566000000000
N -2.143941000000000 -0.394570000000000 -0.107742000000000
