20
charge=0, multiplicity=1, basis=def2-QZVPPD
H -0.866436000000000 0.455923000000000 0.177135000000000
H 2.538350000000000 -0.076105000000000 1.601555000000000
H -3.825612000000000 0.755145000000000 -0.136937000000000
H -2.784666000000000 1.570359000000000 1.059876000000000
H -2.551047000000000 1.883738000000000 -0.671604000000000
H -2.100741000000000 -0.531708000000000 1.997476000000000
H -3.083829000000000 -1.459673000000000 0.834633000000000
H -1.312897000000000 -1.739090000000000 0.957962000000000
H -1.521004000000000 0.209194000000000 -2.068689000000000
H -1.052070000000000 -1.348765000000000 -1.362052000000000
H -2.788505000000000 -0.966323000000000 -1.611914000000000
C -2.824641000000000 1.133492000000000 0.065519000000000
C -2.111021000000000 -1.005032000000000 1.018857000000000
C -1.806102000000000 -0.566855000000000 -1.362811000000000
N -1.854110000000000 0.025645000000000 -0.007025000000000
O 0.885446000000000 -1.304903000000000 0.152520000000000
O 1.869440000000000 0.231636000000000 -1.542773000000000
O 0.465165000000000 1.084026000000000 0.302147000000000
O 2.750752000000000 0.232825000000000 0.709482000000000
S 1.417078000000000 0.025102000000000 -0.185287000000000
