10
charge=0, multiplicity=1, basis=def2-QZVPPD
H 3.252924000000000 0.139205000000000 0.001805000000000
H -0.670581000000000 1.075645000000000 0.000659000000000
O 1.069976000000000 0.854081000000000 0.000805000000000
O 2.721113000000000 -0.673806000000000 0.000355000000000
O -1.655436000000000 1.166657000000000 0.000577000000000
O -1.564367000000000 -1.096214000000000 -0.001477000000000
C 1.440007000000000 -0.304433000000000 -0.000291000000000
C -2.184330000000000 -0.052553000000000 -0.000641000000000
H 0.764559000000000 -1.159739000000000 -0.001910000000000
H -3.276255000000000 0.003017000000000 -0.000873000000000
