10
charge=0, multiplicity=1, basis=def2-QZVPPD
H 0.493427000000000 -1.112304000000000 -0.000112000000000
H -0.493437000000000 1.112289000000000 0.000677000000000
O 1.167418000000000 1.159860000000000 0.000148000000000
O 1.492490000000000 -1.079929000000000 -0.000136000000000
O -1.492500000000000 1.079914000000000 0.000136000000000
O -1.167429000000000 -1.159875000000000 0.000283000000000
C 1.889004000000000 0.172022000000000 -0.000013000000000
C -1.889014000000000 -0.172038000000000 -0.000112000000000
H 2.977686000000000 0.251073000000000 -0.000078000000000
H -2.977696000000000 -0.251091000000000 -0.000733000000000
