10
charge=0, multiplicity=1, basis=def2-QZVPPD
H 2.892526000000000 -1.823159000000000 0.000364000000000
H -3.533987000000000 0.192302000000000 0.011752000000000
O 1.500349000000000 0.836479000000000 -0.000985000000000
O 2.951760000000000 -0.859306000000000 -0.013910000000000
O -2.896288000000000 0.924312000000000 -0.006740000000000
O -1.466002000000000 -0.824277000000000 0.020695000000000
C 1.700072000000000 -0.350020000000000 0.010172000000000
C -1.673743000000000 0.367908000000000 -0.002142000000000
H 0.899825000000000 -1.098924000000000 0.039311000000000
H -0.895252000000000 1.132305000000000 -0.021728000000000
