10
charge=0, multiplicity=1, basis=def2-QZVPPD
H 1.132587000000000 -0.379486000000000 0.955273000000000
H -0.077846000000000 0.227884000000000 -0.613747000000000
O 1.615908000000000 0.665069000000000 -1.112872000000000
O 2.101423000000000 -0.247581000000000 0.908445000000000
O -0.591894000000000 -0.188701000000000 0.112056000000000
O -2.724261000000000 -0.524882000000000 0.705696000000000
C 2.404125000000000 0.338646000000000 -0.244733000000000
C -1.926292000000000 -0.092734000000000 -0.078874000000000
H 3.480535000000000 0.498041000000000 -0.323652000000000
H -2.191196000000000 0.413903000000000 -1.015631000000000
