18
charge=0, multiplicity=1, basis=def2-QZVPPD
S -1.597619000000000 -0.163555000000000 -0.243016000000000
O -1.119472000000000 -0.405443000000000 -1.589269000000000
O -1.192816000000000 1.096836000000000 0.389583000000000
O -1.221778000000000 -1.359289000000000 0.711400000000000
S 2.174355000000000 0.215379000000000 0.602983000000000
O 1.393399000000000 1.565397000000000 0.848429000000000
H 0.418431000000000 1.423353000000000 0.697024000000000
O 1.333619000000000 -0.903962000000000 1.044043000000000
O 3.481817000000000 0.364557000000000 1.181661000000000
H -0.240428000000000 -1.273415000000000 0.905765000000000
C -3.350191000000000 -0.292231000000000 -0.176796000000000
H -3.624704000000000 -1.273373000000000 -0.552537000000000
H -3.662419000000000 -0.151564000000000 0.853080000000000
H -3.737319000000000 0.494312000000000 -0.818860000000000
C 2.295161000000000 0.130520000000000 -1.157013000000000
H 2.848638000000000 -0.776794000000000 -1.385575000000000
H 1.289570000000000 0.087290000000000 -1.570786000000000
H 2.834518000000000 1.011581000000000 -1.492107000000000
