18
charge=0, multiplicity=1, basis=def2-QZVPPD
S -1.933242000000000 -0.300324000000000 -0.615729000000000
O -2.992015000000000 -0.729415000000000 -1.487834000000000
O -0.878196000000000 0.575457000000000 -1.145712000000000
O -1.259810000000000 -1.588996000000000 -0.008271000000000
S 2.015972000000000 -0.038251000000000 0.377535000000000
O 1.663602000000000 -0.069850000000000 -1.158059000000000
H 0.691819000000000 0.144330000000000 -1.266925000000000
O 3.320639000000000 -0.619070000000000 0.539329000000000
O 0.883913000000000 -0.596916000000000 1.130743000000000
H -0.405193000000000 -1.321683000000000 0.439252000000000
C -2.606275000000000 0.509307000000000 0.803109000000000
H -1.791386000000000 0.712096000000000 1.493397000000000
H -3.066269000000000 1.430287000000000 0.454599000000000
H -3.344648000000000 -0.154705000000000 1.242832000000000
C 2.071352000000000 1.689540000000000 0.742572000000000
H 1.102927000000000 2.117174000000000 0.495692000000000
H 2.284606000000000 1.782969000000000 1.804199000000000
H 2.864485000000000 2.128108000000000 0.144191000000000
