10
charge=0, multiplicity=1, basis=def2-QZVPPD
H 0.538794000000000 -1.047857000000000 -0.000729000000000
H -0.538793000000000 1.047850000000000 -0.000624000000000
O 1.228278000000000 1.019480000000000 0.001548000000000
O 3.231664000000000 0.157093000000000 0.000661000000000
O 1.517631000000000 -1.175974000000000 -0.001141000000000
O -1.517631000000000 1.175964000000000 -0.001126000000000
O -1.228275000000000 -1.019490000000000 0.001712000000000
O -3.231661000000000 -0.157106000000000 0.000505000000000
N -2.031975000000000 -0.090916000000000 0.000453000000000
N 2.031978000000000 0.090906000000000 0.000331000000000
