10
charge=0, multiplicity=1, basis=def2-QZVPPD
H 1.765387000000000 -1.819714000000000 -0.183033000000000
H -0.399025000000000 0.925508000000000 -0.803590000000000
O 2.438210000000000 -0.260036000000000 1.145874000000000
O 1.415898000000000 1.090229000000000 -0.242469000000000
O 1.444765000000000 -1.042883000000000 -0.675685000000000
O -1.347709000000000 0.796240000000000 -1.015860000000000
O -1.001628000000000 -0.257651000000000 0.903060000000000
O -2.981598000000000 -0.257045000000000 -0.032559000000000
N -1.813767000000000 0.028465000000000 0.042475000000000
N 1.800387000000000 0.014878000000000 0.157546000000000
