14
charge=0, multiplicity=1, basis=def2-QZVPPD
H -0.560599000000000 1.300188000000000 -0.868493000000000
H -0.326280000000000 0.195433000000000 1.631159000000000
H 0.404268000000000 -1.551487000000000 -0.703609000000000
H 3.567702000000000 0.096436000000000 -1.224276000000000
O -1.510447000000000 1.344733000000000 -0.612981000000000
O -1.301600000000000 0.327976000000000 1.646141000000000
O -3.308328000000000 0.020264000000000 0.326742000000000
O -1.167067000000000 -1.078642000000000 -0.369308000000000
O 1.399506000000000 -1.492771000000000 -0.762384000000000
O 3.315164000000000 -0.119817000000000 -0.311355000000000
O 1.217460000000000 0.951247000000000 -1.070354000000000
O 1.443317000000000 -0.004923000000000 1.216531000000000
S -1.889634000000000 0.051557000000000 0.208568000000000
S 1.747618000000000 -0.077772000000000 -0.192970000000000
