14
charge=0, multiplicity=1, basis=def2-QZVPPD
H -2.065158000000000 -2.018299000000000 0.094105000000000
H -0.695388000000000 0.866128000000000 1.036035000000000
H 0.573783000000000 -1.489761000000000 0.285184000000000
H 0.566098000000000 1.236185000000000 -0.654838000000000
O -1.399833000000000 -1.456741000000000 -0.337435000000000
O -1.646491000000000 0.612955000000000 1.017917000000000
O -1.158351000000000 0.690412000000000 -1.400862000000000
O -3.414065000000000 -0.026573000000000 -0.505862000000000
O 1.195829000000000 -1.125027000000000 0.942082000000000
O 0.988423000000000 1.236317000000000 0.230745000000000
O 3.057563000000000 0.382771000000000 1.209744000000000
O 2.331637000000000 -0.331378000000000 -1.112876000000000
S -1.989641000000000 0.046395000000000 -0.413952000000000
S 2.061164000000000 0.024225000000000 0.254533000000000
