14
charge=0, multiplicity=1, basis=def2-QZVPPD
H -0.198731000000000 -1.180053000000000 -0.867474000000000
H -0.919216000000000 1.007846000000000 1.221828000000000
H 0.524226000000000 -1.203610000000000 1.275416000000000
H 0.426618000000000 1.294232000000000 -0.573482000000000
O -1.069746000000000 -1.322457000000000 -0.410795000000000
O -1.743252000000000 0.500497000000000 1.109798000000000
O -1.140587000000000 0.989477000000000 -1.237226000000000
O -3.256546000000000 -0.243186000000000 -0.626167000000000
O 1.331326000000000 -0.706420000000000 1.499912000000000
O 1.112052000000000 1.343794000000000 0.144276000000000
O 3.285096000000000 0.257390000000000 0.446268000000000
O 1.488268000000000 -0.815232000000000 -0.964738000000000
S -1.879395000000000 0.043118000000000 -0.411514000000000
S 1.915686000000000 -0.024827000000000 0.182358000000000
