14
charge=0, multiplicity=1, basis=def2-QZVPPD
H -0.655090000000000 -1.138485000000000 -1.375742000000000
H -0.616123000000000 -0.485641000000000 1.326512000000000
H 1.286621000000000 0.776389000000000 2.005395000000000
H 0.356198000000000 0.766914000000000 -0.855719000000000
O -1.620836000000000 -1.159953000000000 -1.243717000000000
O -1.570198000000000 -0.677554000000000 1.190748000000000
O -1.229749000000000 1.141394000000000 -0.431794000000000
O -3.456913000000000 0.001260000000000 -0.179291000000000
O 1.139287000000000 -0.001976000000000 1.442763000000000
O 1.078162000000000 0.094270000000000 -1.004711000000000
O 2.702441000000000 1.488089000000000 0.270632000000000
O 2.933120000000000 -1.017215000000000 0.054216000000000
S -2.035130000000000 -0.051350000000000 -0.183216000000000
S 2.144950000000000 0.168089000000000 0.158695000000000
