14
charge=0, multiplicity=1, basis=def2-QZVPPD
H -0.396651000000000 -1.311146000000000 -0.183332000000000
H -2.974076000000000 -0.541160000000000 1.638686000000000
H 1.090565000000000 -0.840767000000000 1.553835000000000
H 0.434860000000000 0.948315000000000 -0.990087000000000
O -1.326835000000000 -1.356085000000000 -0.516032000000000
O -2.168822000000000 -0.046882000000000 1.413871000000000
O -1.154489000000000 1.106030000000000 -0.428731000000000
O -3.358155000000000 -0.067734000000000 -0.761246000000000
O 1.142110000000000 -0.970928000000000 0.592869000000000
O 1.327978000000000 0.603518000000000 -1.251848000000000
O 2.105894000000000 1.250860000000000 1.030929000000000
O 3.354610000000000 -0.390408000000000 -0.413398000000000
S -2.053227000000000 -0.001269000000000 -0.179575000000000
S 2.140678000000000 0.219399000000000 0.027820000000000
