56
charge=0, multiplicity=1, basis=def2-TZVPPD
C 4.969 4.711 -2.053
C 4.286 3.344 -2.177
C 2.761 3.407 -2.028
C 2.088 2.036 -2.152
C 6.494 4.642 -2.189
C 7.181 6.007 -2.057
C 8.707 5.932 -2.177
C 9.398 7.293 -2.036
C 10.925 7.212 -2.147
C 11.620 8.571 -2.003
C 13.147 8.484 -2.115
C 13.848 9.841 -1.976
C 15.373 9.749 -2.098
C 16.078 11.105 -1.970
C 17.602 11.012 -2.110
C 18.308 12.368 -1.995
C 19.831 12.278 -2.151
C 20.527 13.639 -2.046
H 21.613 13.541 -2.151
H 20.173 14.321 -2.828
H 20.066 11.821 -3.122
H 20.231 11.601 -1.385
H 18.070 12.822 -1.023
H 17.907 13.049 -2.760
H 17.848 10.558 -3.080
H 17.996 10.332 -1.342
H 15.829 11.554 -0.999
H 15.687 11.788 -2.737
H 15.630 9.299 -3.068
H 15.759 9.066 -1.329
H 13.588 10.287 -1.006
H 13.465 10.526 -2.745
H 13.412 8.039 -3.084
H 13.527 7.799 -1.345
H 11.352 9.016 -1.035
H 11.240 9.256 -2.774
H 11.194 6.770 -3.117
H 11.307 6.527 -1.378
H 9.128 7.738 -1.069
H 9.015 7.976 -2.808
H 8.972 5.490 -3.149
H 9.096 5.248 -1.410
H 6.916 6.453 -1.089
H 6.789 6.685 -2.828
H 6.751 4.200 -3.162
H 6.894 3.961 -1.425
H 4.712 5.157 -1.082
H 4.536 2.901 -3.152
H 4.694 2.665 -1.416
H 2.514 3.850 -1.054
H 2.353 4.086 -2.789
H 1.003 2.112 -2.026
H 2.283 1.592 -3.136
H 2.468 1.344 -1.393
H 4.567 5.387 -2.821
H 20.324 14.109 -1.076
