16
charge=0, multiplicity=1, basis=def2-TZVPPD
C -0.5387245 -1.0939244 -3.3942733
C -0.0212031 -1.9551172 -2.4341782
C 0.1561509 -1.5278976 -1.1086726
C -0.1729336 -0.2236990 -0.7497963
C -0.6988926 0.6106328 -1.7193776
C -0.8933254 0.1985158 -3.0391980
F 0.3299407 -3.1875905 -2.8219233
N 0.6650957 -2.4129891 -0.0575683
N -1.0678272 1.9819548 -1.3370778
H -1.3068706 0.8890799 -3.7609821
H -0.0322399 0.1154498 0.2679749
H -0.6541680 -1.4539276 -4.4086042
O 1.0905598 -1.8637403 0.9700142
O 0.6262101 -3.6302864 -0.2353275
O -1.5383126 2.7090137 -2.2206764
O -0.8861728 2.3240247 -0.1659033
