43
charge=0, multiplicity=1, basis=def2-TZVPPD
C 0.69486804632864 0.94865356691502 2.08126431149099
C -0.33585659414291 0.00148764694498 1.71833064603245
C -0.07332195013894 -1.41785544733462 1.76867650640508
C 1.22845914845183 -1.87523307206526 2.19151063407219
C 2.23639481554986 -0.90149538897509 2.53646814358559
C 2.00994627470352 0.45984168560050 2.48988492166599
C -1.08860908676688 -2.37462142484867 1.41028981853452
C -2.40684135670969 -1.88283612678732 0.98124860830029
C -2.66665688034437 -0.47349297659803 0.91798607108713
C -1.62260659678125 0.48811974105364 1.30642929813245
N -3.86510078241654 0.03301529909468 0.50668530389306
C -4.85623856682518 -0.79191530102565 0.14516685488249
C -4.69949511368132 -2.20868563021835 0.19563278953029
C -3.47933830369030 -2.74169168103251 0.60920741830270
C 1.48979942976597 -3.26847268874825 2.25593121247686
C 0.49691856834327 -4.19496513942253 1.90297028234512
C -0.77396145180431 -3.75475793282153 1.48253700903743
C 0.39316429764731 2.33357410564052 2.02661149597283
C -0.87683380342320 2.80996366828237 1.64076699336296
C -1.87237269966417 1.87854213302679 1.27926373016266
C -6.15927472777660 -0.16876699430458 -0.33495375744361
C -1.17226443589903 4.30670406746794 1.65962450826910
C -1.49757166115069 4.84062257016911 3.08131694055298
C 3.11270113374202 1.43816705802758 2.85505416695981
H 3.22887722364796 -1.27718483960242 2.84183965014060
H -5.53184394613756 -2.87169748108185 -0.09779928100592
H -3.35281303698314 -3.83546269968734 0.63896168090799
H 2.48695811201549 -3.61387759564769 2.57869923992728
H 0.70989490616676 -5.27705913278423 1.95006733851282
H -1.52829337564881 -4.50880783958653 1.20866359932581
H 1.17294852773309 3.06665112666131 2.28840236841335
H -2.87126488512968 2.21464173093584 0.96071627271113
H -6.11682882965555 0.93375234707043 -0.22374497670112
H -7.03262503289573 -0.55657135031333 0.23770671267260
H -6.34611880997609 -0.40876709578486 -1.40794655500026
H -2.02975689855982 4.52497199413506 0.98350790719210
H -0.29729246494052 4.86278897555330 1.24847139174649
H -1.70488764666554 5.93447053365027 3.06475749971728
H -0.64963333513589 4.66422372543479 3.78032817285149
H 3.34880836554183 2.12007243154534 2.00728443151645
H 4.04724062994753 0.90406107099975 3.12688594300615
H 2.82625353970878 2.08415102042360 3.71701322274099
H -2.38949303899614 4.32782481276413 3.50524008852246
