20
charge=0, multiplicity=1, basis=def2-TZVPPD
C 0.239321 -0.447581 -1.41575
C 1.41734 -0.814101 -0.680882
C 1.40268 -0.84375 0.674305
C 0.208809 -0.510436 1.39941
C -0.985926 -0.208328 0.663194
C -0.971053 -0.17798 -0.692573
C 0.270837 -0.358367 -2.80773
C 1.46795 -0.590987 -3.53403
N 2.46487 -0.775335 -4.10746
C -0.888129 -0.00941652 -3.54867
N -1.85146 0.279961 -4.13587
C 0.210801 -0.484643 2.79431
C 1.39285 -0.750179 3.53381
N 2.37847 -0.961306 4.11742
C -0.964405 -0.172232 3.5259
N -1.94089 0.0877713 4.10507
H 2.31861 -1.07674 -1.2197
H 2.29227 -1.12989 1.2204
H -1.90127 0.00218481 1.20005
H -1.87449 0.0569473 -1.23938
