16
charge=0, multiplicity=1, basis=def2-TZVPPD
C -0.0395379 -1.6488245 -2.3066129
C 0.0948196 -1.0670552 -1.0199381
C -0.3418297 0.2433535 -0.8043393
C -0.9061153 0.9729622 -1.8509311
C -1.0445110 0.3930941 -3.1376947
C -0.6065226 -0.9180987 -3.3503571
H -0.2408083 0.6916694 0.1760905
H -0.7069082 -1.3679119 -4.3286152
C -1.6211406 1.1344404 -4.2094319
C -1.3343928 2.3095009 -1.6055645
C 0.6700750 -1.7825286 0.0694730
C 0.4038709 -2.9815185 -2.5387935
N -1.6717357 3.3992827 -1.3845204
N -2.0899483 1.7358828 -5.0867513
N 0.7671745 -4.0693264 -2.7274835
N 1.1309503 -2.3181126 0.9908103
