44
charge=0, multiplicity=1, basis=def2-TZVPPD
C 16.30576066853757 9.90100080606988 24.33875982039647
C 16.71079394644297 10.44890021840738 23.06168631593058
C 17.03380652695444 11.85222844444123 22.94517593110019
C 16.95870861874645 12.68996670203071 24.11766490124305
C 16.53976231260850 12.11014296942770 25.36974173108378
C 16.21433716552390 10.77561866955329 25.50506795395979
C 17.44220400033053 12.41913061427617 21.68604480808639
C 17.45104089686257 11.56242558461708 20.48743023293925
C 17.14369086233970 10.16419600353756 20.59972275976844
C 16.80194933745584 9.58443880160288 21.91344018748288
C 17.13745766887748 9.37098226682461 19.41464829672418
C 17.40932098276748 9.89766928683554 18.14351280133305
C 17.70651155318133 11.28622502525641 18.04813690074560
C 17.72754526928118 12.08859714644084 19.19045998302352
C 17.30983195781383 14.06298969111333 24.02163335876335
C 17.73667627785508 14.60121436986461 22.79874878044555
C 17.80189901553829 13.79000438896716 21.64751370674701
C 16.01731739734231 8.51534118632789 24.43063044447685
C 16.13856371673882 7.65947936477368 23.32036545169946
C 16.53131000983136 8.20625679279325 22.08034639099856
C 17.38477239483875 9.02596466498964 16.89666634194867
C 15.89396431221624 6.16166957872964 23.46325287041730
C 17.17521225793567 5.37790551711279 23.85862989323233
C 15.78927861107398 10.21808038020374 26.85285016086760
H 16.48886741323470 12.77270999997396 26.25035432606879
H 17.91855027915039 11.73475461685047 17.06100833613060
H 17.95182681585530 13.15972948360380 19.07118393430257
H 17.25484566429213 14.69601461532509 24.92447358417501
H 18.02221480655709 15.66539845196477 22.73180353132059
H 18.13917599080690 14.24708129833835 20.70487974926903
H 15.68863737086105 8.08960449801571 25.39152484552282
H 16.60635085979129 7.52286430472765 21.22142683690781
H 18.38136041799216 9.00293893925043 16.39750882078030
H 17.10006403050817 7.97759902756593 17.13036853082124
H 16.66161609475700 9.41470974475311 16.14273421681929
H 15.49457296280806 5.75997796569713 22.50405151005421
H 15.10461002314662 5.98922472084253 24.22938480822074
H 17.97757573977504 5.50904788304714 23.09845597187817
H 17.57885455315054 5.73694614317020 24.83161162634453
H 16.50091836045413 9.44298357381982 27.22121338096738
H 14.78995458059371 9.73301537027354 26.79961932348358
H 15.73839633633660 11.02124793615100 27.61793792254727
H 16.96866645779177 4.28791094150354 23.95428597435912
H 16.89052273304359 8.30095243652477 19.48356625630944
