60
charge=0, multiplicity=1, basis=def2-TZVPPD
C -2.702800000 -3.714332000 2.062003000
C -2.995549000 -5.144249000 1.963774000
C -2.027878000 -5.861955000 2.793587000
C -1.136850000 -4.875801000 3.404504000
C -1.554122000 -3.548534000 2.951997000
C -2.841157000 -2.891855000 0.935241000
C -3.414735000 -5.692012000 0.743722000
C -1.519911000 -7.097087000 2.368465000
C 0.224982000 -5.165875000 3.564241000
C -0.591583000 -2.566914000 2.678516000
C -3.278992000 -3.463796000 -0.338656000
C -2.884318000 -6.980934000 0.300019000
C -0.098538000 -7.399716000 2.535266000
C 1.229894000 -4.141480000 3.278935000
C -0.735491000 -1.711286000 1.501687000
C -1.836589000 -1.868616000 0.649785000
C -3.559385000 -4.833836000 -0.432281000
C -1.957260000 -7.668497000 1.094996000
C 0.755199000 -6.454704000 3.120244000
C 0.830491000 -2.870113000 2.845599000
C -2.544591000 -2.792519000 -1.411354000
C -2.700900000 -6.919376000 -1.150012000
C -2.121746000 -3.519619000 -2.532982000
C 0.342544000 -8.158339000 1.365001000
C 2.380598000 -4.797292000 2.658158000
C 0.597666000 -1.487287000 0.941553000
C -1.653375000 -1.807061000 -0.800424000
C -3.118080000 -5.592541000 -1.602603000
C -0.806254000 -8.324463000 0.474826000
C 2.087351000 -6.226909000 2.560377000
C 1.565670000 -2.199437000 1.773079000
C 2.669087000 -2.827517000 1.178846000
C 2.668858000 -6.032577000 -2.033282000
C 1.519943000 -6.198541000 -2.923558000
C 1.103138000 -4.871210000 -3.376074000
C 1.995246000 -3.885067000 -2.766247000
C 2.962555000 -4.602971000 -1.935718000
C 2.807085000 -6.854975000 -0.906748000
C 0.557335000 -7.179439000 -2.649568000
C -0.258792000 -4.581427000 -3.536339000
C 1.487256000 -2.650343000 -2.341260000
C 3.382860000 -4.055237000 -0.715570000
C 1.802344000 -7.878952000 -0.621157000
C -0.864135000 -6.877332000 -2.817007000
C -0.789249000 -3.292431000 -3.092668000
C 1.925136000 -2.080253000 -1.066831000
C 3.526082000 -4.913492000 0.460467000
C 3.244360000 -6.283140000 0.366711000
C 0.701652000 -8.037832000 -1.473967000
C -1.263416000 -5.605735000 -3.250467000
C 0.065005000 -2.347776000 -2.507486000
C 2.853263000 -2.766050000 -0.271538000
C 1.618935000 -7.940425000 0.828835000
C -1.598131000 -7.547976000 -1.744124000
C 0.773350000 -1.432443000 -0.445624000
C 3.085419000 -4.154498000 1.631084000
C 2.510010000 -6.954084000 1.439258000
C -0.630535000 -8.265423000 -0.914286000
C -2.414456000 -4.949427000 -2.630176000
C -0.375549000 -1.595249000 -1.334517000
