60
charge=0, multiplicity=1, basis=def2-TZVPPD
C -3.48233 0.698344 2.9166
C -3.0337 1.42529 1.74055
C -2.30569 2.5983 2.19123
C -2.30629 2.6004 3.64388
C -1.17422 3.02472 1.49514
C -2.60178 0.726898 0.609431
C -3.03258 1.42475 4.09289
C -3.48233 -0.698344 2.9166
C -2.60069 0.72652 5.22277
C -1.17612 3.03241 4.34282
C 0 3.47329 2.22115
C -0.726316 2.30098 0.31951
C 0 3.4786 3.61641
C -0.726897 2.3054 5.51788
C -1.42512 1.17542 5.9491
C -2.60069 -0.72652 5.22277
C -3.03258 -1.42475 4.09289
C -3.0337 -1.42529 1.74055
C -2.60178 -0.726898 0.609431
C -1.42461 1.17389 -0.115961
C 1.17422 3.02472 1.49514
C 0.726316 2.30098 0.31951
C -1.42461 -1.17389 -0.115961
C -0.698892 0 -0.56985
C -2.30629 -2.6004 3.64388
C -2.30569 -2.5983 2.19123
C -1.42512 -1.17542 5.9491
C -0.69827 0 6.39785
C 0.726897 2.3054 5.51788
C 1.17612 3.03241 4.34282
C 2.30629 2.6004 3.64388
C 2.30569 2.5983 2.19123
C 1.42461 1.17389 -0.115961
C 0.698892 0 -0.56985
C -1.17422 -3.02472 1.49514
C -0.726316 -2.30098 0.31951
C -0.726897 -2.3054 5.51788
C -1.17612 -3.03241 4.34282
C 0.69827 0 6.39785
C 1.42512 1.17542 5.9491
C 3.0337 1.42529 1.74055
C 2.60178 0.726898 0.609431
C 1.42461 -1.17389 -0.115961
C 0.726316 -2.30098 0.31951
C 0 -3.47329 2.22115
C 0 -3.4786 3.61641
C 0.726897 -2.3054 5.51788
C 1.42512 -1.17542 5.9491
C 2.60069 0.72652 5.22277
C 3.03258 1.42475 4.09289
C 2.60069 -0.72652 5.22277
C 3.48233 0.698344 2.9166
C 2.60178 -0.726898 0.609431
C 1.17422 -3.02472 1.49514
C 1.17612 -3.03241 4.34282
C 2.30629 -2.6004 3.64388
C 3.03258 -1.42475 4.09289
C 3.48233 -0.698344 2.9166
C 3.0337 -1.42529 1.74055
C 2.30569 -2.5983 2.19123
