72
charge=0, multiplicity=1, basis=def2-TZVPPD
C -4.43498968 4.84818396 -0.00326334
C -5.43089278 3.84285784 -0.00366147
C -3.85193459 5.28074380 -1.21899357
C -3.85171966 5.27950986 1.21280412
C -2.64632983 5.97544200 -1.21280412
C -2.64729099 5.97624511 1.21899357
C -1.98115563 6.26490571 0.00326334
C -6.04345890 2.78186219 -0.00366147
H -4.31742848 4.99255327 -2.16174586
H -4.31701338 4.99032575 2.15534928
H -2.16324219 6.23380613 -2.15534928
H -2.16496372 6.23527938 2.16174586
C 1.98115563 6.26490571 0.00326334
C 0.61256612 6.62472003 0.00366147
C 2.64632983 5.97544200 -1.21280412
C 2.64729099 5.97624511 1.21899357
C 3.85193459 5.28074380 -1.21899357
C 3.85171966 5.27950986 1.21280412
C 4.43498968 4.84818396 -0.00326334
C -0.61256612 6.62472003 0.00366147
H 2.16324219 6.23380613 -2.15534928
H 2.16496372 6.23527938 2.16174586
H 4.31742848 4.99255327 -2.16174586
H 4.31701338 4.99032575 2.15534928
C 6.41614531 1.41672175 -0.00326334
C 6.04345890 2.78186219 -0.00366147
C 6.49922558 0.69550131 -1.21899357
C 6.49804949 0.69593214 1.21280412
C 6.49804949 -0.69593214 -1.21280412
C 6.49922558 -0.69550131 1.21899357
C 6.41614531 -1.41672175 0.00326334
C 5.43089278 3.84285784 -0.00366147
H 6.48239220 1.24272611 -2.16174586
H 6.48025557 1.24348038 2.15534928
H 6.48025557 -1.24348038 -2.15534928
H 6.48239220 -1.24272611 2.16174586
C 4.43498968 -4.84818396 0.00326334
C 5.43089278 -3.84285784 0.00366147
C 3.85171966 -5.27950986 -1.21280412
C 3.85193459 -5.28074380 1.21899357
C 2.64729099 -5.97624511 -1.21899357
C 2.64632983 -5.97544200 1.21280412
C 1.98115563 -6.26490571 -0.00326334
C 6.04345890 -2.78186219 0.00366147
H 4.31701338 -4.99032575 -2.15534928
H 4.31742848 -4.99255327 2.16174586
H 2.16496372 -6.23527938 -2.16174586
H 2.16324219 -6.23380613 2.15534928
C -1.98115563 -6.26490571 -0.00326334
C -0.61256612 -6.62472003 -0.00366147
C -2.64729099 -5.97624511 -1.21899357
C -2.64632983 -5.97544200 1.21280412
C -3.85171966 -5.27950986 -1.21280412
C -3.85193459 -5.28074380 1.21899357
C -4.43498968 -4.84818396 0.00326334
C 0.61256612 -6.62472003 -0.00366147
H -2.16496372 -6.23527938 -2.16174586
H -2.16324219 -6.23380613 2.15534928
H -4.31701338 -4.99032575 -2.15534928
H -4.31742848 -4.99255327 2.16174586
C -6.41614531 -1.41672175 0.00326334
C -6.04345890 -2.78186219 0.00366147
C -6.49804949 -0.69593214 -1.21280412
C -6.49922558 -0.69550131 1.21899357
C -6.49922558 0.69550131 -1.21899357
C -6.49804949 0.69593214 1.21280412
C -6.41614531 1.41672175 -0.00326334
C -5.43089278 -3.84285784 0.00366147
H -6.48025557 -1.24348038 -2.15534928
H -6.48239220 -1.24272611 2.16174586
H -6.48239220 1.24272611 -2.16174586
H -6.48025557 1.24348038 2.15534928
