80
charge=0, multiplicity=1, basis=def2-TZVPPD
O 1.63457 3.46401 3.87097
O -1.72832 4.77785 0.68901
N 0.84818 4.59586 2.04792
H 0.99986 4.79999 1.05410
N -2.38743 3.64506 2.53487
C 1.75627 3.84587 2.71239
C -0.38587 5.04144 2.66929
H -0.38281 4.63020 3.68786
C -1.56270 4.47017 1.87493
C -3.53491 3.01501 1.90989
H -3.27233 2.72057 0.88682
C -4.75037 3.94865 1.84201
H -5.08928 4.21433 2.85520
H -5.57141 3.45865 1.30124
H -4.47803 4.86688 1.30310
O 3.47200 -1.62590 3.87123
O 4.79117 1.73040 0.68809
N 4.61008 -0.84702 2.04881
H 4.81459 -1.00106 1.05540
N 3.65448 2.38471 2.53318
C 3.85551 -1.75112 2.71358
C 5.05747 0.38760 2.66782
H 4.64899 0.38553 3.68750
C 4.48334 1.56336 1.87380
C 3.01976 3.52928 1.90754
H 2.72515 3.26461 0.88504
C 3.94892 4.74805 1.83753
H 4.21415 5.08903 2.85015
H 3.45545 5.56668 1.29628
H 4.86769 4.47847 1.29818
O -3.47151 1.62666 3.87126
O -4.79132 -1.73043 0.68908
N -4.60978 0.84754 2.04906
H -4.81422 1.00134 1.05560
N -3.65378 -2.38360 2.53399
C -3.85501 1.75165 2.71359
C -5.05740 -0.38687 2.66835
H -4.64902 -0.38459 3.68807
C -4.48326 -1.56286 1.87467
C -3.01897 -3.52813 1.90840
H -2.72417 -3.26336 0.88598
C -3.94811 -4.74691 1.83814
H -4.21340 -5.08805 2.85069
H -3.45459 -5.56543 1.29678
H -4.86685 -4.47725 1.29878
O -1.63380 -3.46297 3.87188
O 1.72883 -4.77750 0.68962
N -0.84761 -4.59491 2.04876
H -0.99956 -4.79899 1.05496
N 2.38815 -3.64470 2.53537
C -1.75554 -3.84477 2.71330
C 0.38639 -5.04077 2.66999
H 0.38353 -4.62953 3.68856
C 1.56330 -4.46978 1.87554
C 3.53557 -3.01472 1.91020
H 3.27297 -2.72057 0.88705
C 4.75110 -3.94826 1.84260
H 5.09006 -4.21361 2.85587
H 5.57209 -3.45837 1.30167
H 4.47884 -4.86669 1.30398
H -2.20197 3.34989 3.49266
H -3.35913 -2.19713 3.49177
H 2.20266 -3.34922 3.49306
H 3.35984 2.19843 3.49099
C 6.58418 0.47916 2.70479
H 6.99943 -0.37429 3.26008
H 6.98675 0.47168 1.68083
H 6.90732 1.41092 3.19479
C 0.47765 -6.56750 2.71163
H -0.37616 -6.98086 3.26776
H 0.47054 -6.97311 1.68886
H 1.40910 -6.88934 3.20311
C -6.58411 -0.47821 2.70514
H -6.99933 0.37545 3.26014
H -6.98654 -0.47097 1.68112
H -6.90746 -1.40980 3.19535
C -0.47747 6.56814 2.71092
H 0.37632 6.98172 3.26694
H -0.47057 6.97375 1.68815
H -1.40892 6.88979 3.20251
