11
charge=0, multiplicity=1, basis=def2-QZVPPD
C 0.0000000000 1.2653657101 -0.2597843803
H -0.8814051365 1.2983973237 -0.9038746287
H 0.8814051365 1.2983973237 -0.9038746287
H 0.0000000000 2.1657924787 0.3559278185
C 0.0000000000 0.0000000000 0.5926770471
H 0.8754639340 0.0000000000 1.2473258007
H -0.8754639340 0.0000000000 1.2473258007
C 0.0000000000 -1.2653657101 -0.2597843803
H 0.8814051365 -1.2983973237 -0.9038746287
H 0.0000000000 -2.1657924787 0.3559278185
H -0.8814051365 -1.2983973237 -0.9038746287
