$molecule
0 1
O 0.0000000000 -0.0580794266 -1.8194167752
H 0.0000000000 0.8227201234 -2.1950384852
H 0.0000000000 0.0792819534 -0.8589662752
N 0.0000000000 0.0145188071 1.7204862866
H 0.0000000000 -0.9808937029 1.9093877966
H -0.8134835100 0.3989226271 2.1852804966
H 0.8134835100 0.3989226271 2.1852804966
$end


$rem
N_FROZEN_CORE FC
MEM_TOTAL 3750
MEM_STATIC 1500
AUX_BASIS_CORR rimp2-def2-QZVPPD
SCF_CONVERGENCE 7
SCF_ALGORITHM  GDM
method DSD-PBEPBE-D3
GEN_SCFMAN TRUE
UNRESTRICTED True
THRESH  14
SYMMETRY FALSE
SYM_IGNORE TRUE
max_scf_cycles 200

XC_GRID 000099000590
BASIS DEF2-QZVPPD


$end










