$molecule
0 1
O 0.0000000000 -0.0584480102 -2.4149805269
H 0.0000000000 0.8223515398 -2.7906022369
H 0.0000000000 0.0789133698 -1.4545300269
N 0.0000000000 0.0148873907 2.3160500383
H 0.0000000000 -0.9805251193 2.5049515483
H -0.8134835100 0.3992912107 2.7808442483
H 0.8134835100 0.3992912107 2.7808442483
$end


$rem
N_FROZEN_CORE FC
MEM_TOTAL 3750
MEM_STATIC 1500
AUX_BASIS_CORR rimp2-def2-QZVPPD
SCF_CONVERGENCE 7
SCF_ALGORITHM  GDM
method DSD-PBEPBE-D3
GEN_SCFMAN TRUE
UNRESTRICTED True
THRESH  14
SYMMETRY FALSE
SYM_IGNORE TRUE
max_scf_cycles 200

XC_GRID 000099000590
BASIS DEF2-QZVPPD


$end










