$molecule
0 1
O 0.0000000000 -0.0578951348 -1.5216348993
H 0.0000000000 0.8229044152 -1.8972566093
H 0.0000000000 0.0794662452 -0.5611843993
N 0.0000000000 0.0143345152 1.4227044107
H 0.0000000000 -0.9810779948 1.6116059207
H -0.8134835100 0.3987383352 1.8874986207
H 0.8134835100 0.3987383352 1.8874986207
$end


$rem
N_FROZEN_CORE FC
MEM_TOTAL 3750
MEM_STATIC 1500
AUX_BASIS_CORR rimp2-def2-QZVPPD
SCF_CONVERGENCE 7
SCF_ALGORITHM  GDM
method DSD-PBEPBE-D3
GEN_SCFMAN TRUE
UNRESTRICTED True
THRESH  14
SYMMETRY FALSE
SYM_IGNORE TRUE
max_scf_cycles 200

XC_GRID 000099000590
BASIS DEF2-QZVPPD


$end










