$molecule
0 1
O 0.0000000000 -0.0588165938 -3.0105442787
H 0.0000000000 0.8219829562 -3.3861659887
H 0.0000000000 0.0785447862 -2.0500937787
N 0.0000000000 0.0152559743 2.9116137900
H 0.0000000000 -0.9801565357 3.1005153000
H -0.8134835100 0.3996597943 3.3764080000
H 0.8134835100 0.3996597943 3.3764080000
$end


$rem
N_FROZEN_CORE FC
MEM_TOTAL 3750
MEM_STATIC 1500
AUX_BASIS_CORR rimp2-def2-QZVPPD
SCF_CONVERGENCE 7
SCF_ALGORITHM  GDM
method DSD-PBEPBE-D3
GEN_SCFMAN TRUE
UNRESTRICTED True
THRESH  14
SYMMETRY FALSE
SYM_IGNORE TRUE
max_scf_cycles 200

XC_GRID 000099000590
BASIS DEF2-QZVPPD


$end










