$molecule
0 1
O 0.0000000000 -0.0578029888 -1.3727439614
H 0.0000000000 0.8229965612 -1.7483656714
H 0.0000000000 0.0795583912 -0.4122934614
N 0.0000000000 0.0142423693 1.2738134728
H 0.0000000000 -0.9811701407 1.4627149828
H -0.8134835100 0.3986461893 1.7386076828
H 0.8134835100 0.3986461893 1.7386076828
$end


$rem
N_FROZEN_CORE FC
MEM_TOTAL 3750
MEM_STATIC 1500
AUX_BASIS_CORR rimp2-def2-QZVPPD
SCF_CONVERGENCE 7
SCF_ALGORITHM  GDM
method DSD-PBEPBE-D3
GEN_SCFMAN TRUE
UNRESTRICTED True
THRESH  14
SYMMETRY FALSE
SYM_IGNORE TRUE
max_scf_cycles 200

XC_GRID 000099000590
BASIS DEF2-QZVPPD


$end










