$molecule
0 1
O 0.0000000000 -0.0582637184 -2.1171986511
H 0.0000000000 0.8225358316 -2.4928203611
H 0.0000000000 0.0790976616 -1.1567481510
N 0.0000000000 0.0147030989 2.0182681624
H 0.0000000000 -0.9807094111 2.2071696724
H -0.8134835100 0.3991069189 2.4830623724
H 0.8134835100 0.3991069189 2.4830623724
$end


$rem
N_FROZEN_CORE FC
MEM_TOTAL 3750
MEM_STATIC 1500
AUX_BASIS_CORR rimp2-def2-QZVPPD
SCF_CONVERGENCE 7
SCF_ALGORITHM  GDM
method DSD-PBEPBE-D3
GEN_SCFMAN TRUE
UNRESTRICTED True
THRESH  14
SYMMETRY FALSE
SYM_IGNORE TRUE
max_scf_cycles 200

XC_GRID 000099000590
BASIS DEF2-QZVPPD


$end










