$molecule
0 1
O 4.4229450000 -0.0260010000 -0.0071960000
H 4.4465750000 -0.9551280000 0.3209490000
H 4.4455320000 -0.0841100000 -0.9919620000
O 2.2017710000 1.3067080000 0.9699790000
H 2.9897290000 0.8444040000 0.5986840000
H 2.2748310000 1.2688520000 1.9529360000
$end


$rem
N_FROZEN_CORE FC
MEM_TOTAL 3750
MEM_STATIC 1500
AUX_BASIS_CORR rimp2-def2-QZVPPD
SCF_CONVERGENCE 7
SCF_ALGORITHM  GDM
method DSD-PBEPBE-D3
GEN_SCFMAN TRUE
UNRESTRICTED True
THRESH  14
SYMMETRY FALSE
SYM_IGNORE TRUE
max_scf_cycles 200

XC_GRID 000099000590
BASIS DEF2-QZVPPD


$end










