$molecule
0 1
O -0.0848890000 0.0568040000 0.0552050000
H 0.7103750000 0.5177290000 0.4139710000
H -0.8909580000 0.4985880000 0.4142740000
O -0.0173660000 -2.5850190000 0.9192690000
H -0.0399680000 -1.6549020000 0.5953420000
H 0.0355740000 -2.5259850000 1.9025740000
$end


$rem
N_FROZEN_CORE FC
MEM_TOTAL 3750
MEM_STATIC 1500
AUX_BASIS_CORR rimp2-def2-QZVPPD
SCF_CONVERGENCE 7
SCF_ALGORITHM  GDM
method DSD-PBEPBE-D3
GEN_SCFMAN TRUE
UNRESTRICTED True
THRESH  14
SYMMETRY FALSE
SYM_IGNORE TRUE
max_scf_cycles 200

XC_GRID 000099000590
BASIS DEF2-QZVPPD


$end










