$molecule
0 1
O -1.2061080000 0.8933120000 0.0660930000
H -1.8720430000 1.1479490000 -0.5796180000
H -1.0705810000 -0.0725760000 -0.0240840000
O -0.0144430000 -1.6147190000 -0.0099380000
H -0.0270390000 -2.1010170000 0.8206090000
H 0.8103700000 -1.0917220000 -0.0268180000
$end


$rem
N_FROZEN_CORE FC
MEM_TOTAL 3750
MEM_STATIC 1500
AUX_BASIS_CORR rimp2-def2-QZVPPD
SCF_CONVERGENCE 7
SCF_ALGORITHM  GDM
method DSD-PBEPBE-D3
GEN_SCFMAN TRUE
UNRESTRICTED True
THRESH  14
SYMMETRY FALSE
SYM_IGNORE TRUE
max_scf_cycles 200

XC_GRID 000099000590
BASIS DEF2-QZVPPD


$end










