$molecule
0 1
O -1.2061080000 0.8933120000 0.0660930000
H -1.8720430000 1.1479490000 -0.5796180000
H -1.0705810000 -0.0725760000 -0.0240840000
O 1.6020830000 0.6798710000 0.0311680000
H 2.0645620000 1.0657460000 -0.7194430000
H 0.7192980000 1.0976550000 0.0539300000
$end


$rem
N_FROZEN_CORE FC
MEM_TOTAL 3750
MEM_STATIC 1500
AUX_BASIS_CORR rimp2-def2-QZVPPD
SCF_CONVERGENCE 7
SCF_ALGORITHM  GDM
method DSD-PBEPBE-D3
GEN_SCFMAN TRUE
UNRESTRICTED True
THRESH  14
SYMMETRY FALSE
SYM_IGNORE TRUE
max_scf_cycles 200

XC_GRID 000099000590
BASIS DEF2-QZVPPD


$end










