$molecule
0 1
O 2.0740880000 0.4988550000 6.1095150000
C 2.1694540000 0.1542800000 7.2671630000
H 2.9702260000 -0.5230670000 7.5982390000
H 1.4703400000 0.5029630000 8.0383020000
$end


$rem
N_FROZEN_CORE FC
MEM_TOTAL 3750
MEM_STATIC 1500
AUX_BASIS_CORR rimp2-def2-QZVPPD
SCF_CONVERGENCE 7
SCF_ALGORITHM  GDM
method DSD-PBEPBE-D3
GEN_SCFMAN TRUE
UNRESTRICTED True
THRESH  14
SYMMETRY FALSE
SYM_IGNORE TRUE
max_scf_cycles 200

XC_GRID 000099000590
BASIS DEF2-QZVPPD


$end










