$molecule
0 1
O 11.0375620000 13.6105050000 5.0754850000
C 10.9421960000 13.2659300000 3.9178370000
H 10.1414240000 12.5885830000 3.5867610000
H 11.6413100000 13.6146130000 3.1466980000
$end


$rem
N_FROZEN_CORE FC
MEM_TOTAL 3750
MEM_STATIC 1500
AUX_BASIS_CORR rimp2-def2-QZVPPD
SCF_CONVERGENCE 7
SCF_ALGORITHM  GDM
method DSD-PBEPBE-D3
GEN_SCFMAN TRUE
UNRESTRICTED True
THRESH  14
SYMMETRY FALSE
SYM_IGNORE TRUE
max_scf_cycles 200

XC_GRID 000099000590
BASIS DEF2-QZVPPD


$end










