$molecule
0 1
O 10.8151880000 9.2399550000 1.6355150000
C 10.9105540000 8.8953800000 2.7931630000
H 11.7113260000 8.2180330000 3.1242390000
H 10.2114400000 9.2440630000 3.5643020000
$end


$rem
N_FROZEN_CORE FC
MEM_TOTAL 3750
MEM_STATIC 1500
AUX_BASIS_CORR rimp2-def2-QZVPPD
SCF_CONVERGENCE 7
SCF_ALGORITHM  GDM
method DSD-PBEPBE-D3
GEN_SCFMAN TRUE
UNRESTRICTED True
THRESH  14
SYMMETRY FALSE
SYM_IGNORE TRUE
max_scf_cycles 200

XC_GRID 000099000590
BASIS DEF2-QZVPPD


$end










