$molecule
0 1
O 10.8151880000 9.2399550000 6.1095150000
C 10.9105540000 8.8953800000 7.2671630000
H 11.7113260000 8.2180330000 7.5982390000
H 10.2114400000 9.2440630000 8.0383020000
$end


$rem
N_FROZEN_CORE FC
MEM_TOTAL 3750
MEM_STATIC 1500
AUX_BASIS_CORR rimp2-def2-QZVPPD
SCF_CONVERGENCE 7
SCF_ALGORITHM  GDM
method DSD-PBEPBE-D3
GEN_SCFMAN TRUE
UNRESTRICTED True
THRESH  14
SYMMETRY FALSE
SYM_IGNORE TRUE
max_scf_cycles 200

XC_GRID 000099000590
BASIS DEF2-QZVPPD


$end










