$molecule
0 1
H 0.0000000000 0.0000000000 3.6325910702
C 0.0000000000 0.0000000000 2.5638777702
N 0.0000000000 0.0000000000 1.4088859202
H 0.0000000000 0.0000000000 -0.3708460380
C 0.0000000000 0.0000000000 -1.4451693581
N 0.0000000000 0.0000000000 -2.6023216781
$end


$rem
N_FROZEN_CORE FC
MEM_TOTAL 3750
MEM_STATIC 1500
AUX_BASIS_CORR rimp2-def2-QZVPPD
SCF_CONVERGENCE 7
SCF_ALGORITHM  GDM
method DSD-PBEPBE-D3
GEN_SCFMAN TRUE
UNRESTRICTED True
THRESH  14
SYMMETRY FALSE
SYM_IGNORE TRUE
max_scf_cycles 200

XC_GRID 000099000590
BASIS DEF2-QZVPPD


$end










