$molecule
0 1
H 0.0000000000 0.0000000000 6.0831208649
C 0.0000000000 0.0000000000 5.0144075649
N 0.0000000000 0.0000000000 3.8594157149
H 0.0000000000 0.0000000000 -2.8213758328
C 0.0000000000 0.0000000000 -3.8956991528
N 0.0000000000 0.0000000000 -5.0528514728
$end


$rem
N_FROZEN_CORE FC
MEM_TOTAL 3750
MEM_STATIC 1500
AUX_BASIS_CORR rimp2-def2-QZVPPD
SCF_CONVERGENCE 7
SCF_ALGORITHM  GDM
method DSD-PBEPBE-D3
GEN_SCFMAN TRUE
UNRESTRICTED True
THRESH  14
SYMMETRY FALSE
SYM_IGNORE TRUE
max_scf_cycles 200

XC_GRID 000099000590
BASIS DEF2-QZVPPD


$end










