$molecule
0 1
O 0.9290230000 13.5036920000 13.2378020000
H 1.7832260000 13.0064130000 13.2567600000
C 1.1433960000 14.7587740000 12.5784990000
H 1.7713110000 15.4065020000 13.1947530000
H 0.1738810000 15.2355010000 12.4465860000
H 1.6119020000 14.6307060000 11.6007350000
$end


$rem
N_FROZEN_CORE FC
MEM_TOTAL 3750
MEM_STATIC 1500
AUX_BASIS_CORR rimp2-def2-QZVPPD
SCF_CONVERGENCE 7
SCF_ALGORITHM  GDM
method DSD-PBEPBE-D3
GEN_SCFMAN TRUE
UNRESTRICTED True
THRESH  14
SYMMETRY FALSE
SYM_IGNORE TRUE
max_scf_cycles 200

XC_GRID 000099000590
BASIS DEF2-QZVPPD


$end










