$molecule
0 1
C 5.3442910000 11.2318900000 17.3498900000
H 4.6932310000 10.6041300000 17.9226990000
C 6.0789820000 11.9508570000 16.7306090000
H 6.7196800000 12.6020950000 16.1820230000
$end


$rem
N_FROZEN_CORE FC
MEM_TOTAL 3750
MEM_STATIC 1500
AUX_BASIS_CORR rimp2-def2-QZVPPD
SCF_CONVERGENCE 7
SCF_ALGORITHM  GDM
method DSD-PBEPBE-D3
GEN_SCFMAN TRUE
UNRESTRICTED True
THRESH  14
SYMMETRY FALSE
SYM_IGNORE TRUE
max_scf_cycles 200

XC_GRID 000099000590
BASIS DEF2-QZVPPD


$end










