$molecule
0 1
O 3.2115230000 4.7813080000 13.0921980000
H 4.0657260000 5.2785870000 13.0732400000
C 3.4258960000 3.5262260000 13.7515010000
H 4.0538110000 2.8784980000 13.1352470000
H 2.4563810000 3.0494990000 13.8834140000
H 3.8944020000 3.6542940000 14.7292650000
$end


$rem
N_FROZEN_CORE FC
MEM_TOTAL 3750
MEM_STATIC 1500
AUX_BASIS_CORR rimp2-def2-QZVPPD
SCF_CONVERGENCE 7
SCF_ALGORITHM  GDM
method DSD-PBEPBE-D3
GEN_SCFMAN TRUE
UNRESTRICTED True
THRESH  14
SYMMETRY FALSE
SYM_IGNORE TRUE
max_scf_cycles 200

XC_GRID 000099000590
BASIS DEF2-QZVPPD


$end










