$molecule
0 1
H 0.0000000000 0.8023604150 1.8311199715
F 0.0000000000 -0.0462860650 1.4761748615
H 0.0000000000 -0.1200845441 -0.6266481588
F 0.0000000000 0.0100927759 -1.5400695388
$end


$rem
N_FROZEN_CORE FC
MEM_TOTAL 3750
MEM_STATIC 1500
AUX_BASIS_CORR rimp2-def2-QZVPPD
SCF_CONVERGENCE 7
SCF_ALGORITHM  GDM
method DSD-PBEPBE-D3
GEN_SCFMAN TRUE
UNRESTRICTED True
THRESH  14
SYMMETRY FALSE
SYM_IGNORE TRUE
max_scf_cycles 200

XC_GRID 000099000590
BASIS DEF2-QZVPPD


$end










