$molecule
0 1
H 0.0000000000 0.8013963186 2.2385896319
F 0.0000000000 -0.0472501614 1.8836445219
H 0.0000000000 -0.1191204478 -1.0341178192
F 0.0000000000 0.0110568722 -1.9475391992
$end


$rem
N_FROZEN_CORE FC
MEM_TOTAL 3750
MEM_STATIC 1500
AUX_BASIS_CORR rimp2-def2-QZVPPD
SCF_CONVERGENCE 7
SCF_ALGORITHM  GDM
method DSD-PBEPBE-D3
GEN_SCFMAN TRUE
UNRESTRICTED True
THRESH  14
SYMMETRY FALSE
SYM_IGNORE TRUE
max_scf_cycles 200

XC_GRID 000099000590
BASIS DEF2-QZVPPD


$end










