$molecule
0 1
H 0.0000000000 0.8007535877 2.5102360722
F 0.0000000000 -0.0478928923 2.1552909622
H 0.0000000000 -0.1184777169 -1.3057642595
F 0.0000000000 0.0116996031 -2.2191856395
$end


$rem
N_FROZEN_CORE FC
MEM_TOTAL 3750
MEM_STATIC 1500
AUX_BASIS_CORR rimp2-def2-QZVPPD
SCF_CONVERGENCE 7
SCF_ALGORITHM  GDM
method DSD-PBEPBE-D3
GEN_SCFMAN TRUE
UNRESTRICTED True
THRESH  14
SYMMETRY FALSE
SYM_IGNORE TRUE
max_scf_cycles 200

XC_GRID 000099000590
BASIS DEF2-QZVPPD


$end










