$molecule
0 1
H 0.0000000000 0.8030031459 1.5594735312
F 0.0000000000 -0.0456433341 1.2045284212
H 0.0000000000 -0.1207272750 -0.3550017185
F 0.0000000000 0.0094500450 -1.2684230985
$end


$rem
N_FROZEN_CORE FC
MEM_TOTAL 3750
MEM_STATIC 1500
AUX_BASIS_CORR rimp2-def2-QZVPPD
SCF_CONVERGENCE 7
SCF_ALGORITHM  GDM
method DSD-PBEPBE-D3
GEN_SCFMAN TRUE
UNRESTRICTED True
THRESH  14
SYMMETRY FALSE
SYM_IGNORE TRUE
max_scf_cycles 200

XC_GRID 000099000590
BASIS DEF2-QZVPPD


$end










