$molecule
0 1
H 0.0000000000 0.8020390495 1.9669431916
F 0.0000000000 -0.0466074305 1.6119980816
H 0.0000000000 -0.1197631787 -0.7624713789
F 0.0000000000 0.0104141413 -1.6758927589
$end


$rem
N_FROZEN_CORE FC
MEM_TOTAL 3750
MEM_STATIC 1500
AUX_BASIS_CORR rimp2-def2-QZVPPD
SCF_CONVERGENCE 7
SCF_ALGORITHM  GDM
method DSD-PBEPBE-D3
GEN_SCFMAN TRUE
UNRESTRICTED True
THRESH  14
SYMMETRY FALSE
SYM_IGNORE TRUE
max_scf_cycles 200

XC_GRID 000099000590
BASIS DEF2-QZVPPD


$end










