$molecule
0 1
C 2.6748520000 12.7797140000 5.9041780000
C 1.9444370000 13.6394630000 4.9895460000
N 1.3708560000 14.3170240000 4.2552030000
H 3.3008560000 13.3846640000 6.5616020000
H 1.9787520000 12.1923780000 6.5035990000
H 3.3049110000 12.1004990000 5.3300310000
$end


$rem
N_FROZEN_CORE FC
MEM_TOTAL 3750
MEM_STATIC 1500
AUX_BASIS_CORR rimp2-def2-QZVPPD
SCF_CONVERGENCE 7
SCF_ALGORITHM  GDM
method DSD-PBEPBE-D3
GEN_SCFMAN TRUE
UNRESTRICTED True
THRESH  14
SYMMETRY FALSE
SYM_IGNORE TRUE
max_scf_cycles 200

XC_GRID 000099000590
BASIS DEF2-QZVPPD


$end










