$molecule
0 1
C 4.1046050000 12.0302860000 1.9447220000
C 4.8350200000 11.1705370000 2.8593540000
N 5.4086010000 10.4929760000 3.5936980000
H 3.4786010000 11.4253360000 1.2872980000
H 4.8007050000 12.6176220000 1.3453020000
H 3.4745470000 12.7095010000 2.5188690000
$end


$rem
N_FROZEN_CORE FC
MEM_TOTAL 3750
MEM_STATIC 1500
AUX_BASIS_CORR rimp2-def2-QZVPPD
SCF_CONVERGENCE 7
SCF_ALGORITHM  GDM
method DSD-PBEPBE-D3
GEN_SCFMAN TRUE
UNRESTRICTED True
THRESH  14
SYMMETRY FALSE
SYM_IGNORE TRUE
max_scf_cycles 200

XC_GRID 000099000590
BASIS DEF2-QZVPPD


$end










