$molecule
0 1
C 7.4943340000 0.3747140000 5.8691720000
C 8.2247490000 1.2344630000 6.7838050000
N 8.7983300000 1.9120240000 7.5181480000
H 6.8683300000 0.9796640000 5.2117480000
H 8.1904340000 -0.2126220000 5.2697520000
H 6.8642750000 -0.3045010000 6.4433190000
$end


$rem
N_FROZEN_CORE FC
MEM_TOTAL 3750
MEM_STATIC 1500
AUX_BASIS_CORR rimp2-def2-QZVPPD
SCF_CONVERGENCE 7
SCF_ALGORITHM  GDM
method DSD-PBEPBE-D3
GEN_SCFMAN TRUE
UNRESTRICTED True
THRESH  14
SYMMETRY FALSE
SYM_IGNORE TRUE
max_scf_cycles 200

XC_GRID 000099000590
BASIS DEF2-QZVPPD


$end










