$molecule
0 1
N 0.0000000000 7.6153760000 7.1714120000
C 0.0000000000 5.6499970000 8.8794210000
C 0.0000000000 6.7490230000 7.9311670000
H 0.0000000000 4.7029340000 8.3397930000
H 0.8892580000 5.7052990000 9.5069110000
H -0.8892580000 5.7052990000 9.5069110000
$end


$rem
N_FROZEN_CORE FC
MEM_TOTAL 3750
MEM_STATIC 1500
AUX_BASIS_CORR rimp2-def2-QZVPPD
SCF_CONVERGENCE 7
SCF_ALGORITHM  GDM
method DSD-PBEPBE-D3
GEN_SCFMAN TRUE
UNRESTRICTED True
THRESH  14
SYMMETRY FALSE
SYM_IGNORE TRUE
max_scf_cycles 200

XC_GRID 000099000590
BASIS DEF2-QZVPPD


$end










