$molecule
0 1
N 0.0000000000 2.9486240000 3.2279120000
C 0.0000000000 4.9140030000 4.9359210000
C 0.0000000000 3.8149770000 3.9876670000
H 0.0000000000 5.8610660000 4.3962930000
H -0.8892580000 4.8587010000 5.5634110000
H 0.8892580000 4.8587010000 5.5634110000
$end


$rem
N_FROZEN_CORE FC
MEM_TOTAL 3750
MEM_STATIC 1500
AUX_BASIS_CORR rimp2-def2-QZVPPD
SCF_CONVERGENCE 7
SCF_ALGORITHM  GDM
method DSD-PBEPBE-D3
GEN_SCFMAN TRUE
UNRESTRICTED True
THRESH  14
SYMMETRY FALSE
SYM_IGNORE TRUE
max_scf_cycles 200

XC_GRID 000099000590
BASIS DEF2-QZVPPD


$end










