$molecule
0 1
N -0.0512323209 -1.4257913619 0.0000000000
H 0.1217116191 -2.0071583119 0.8110597600
H 0.1217116191 -2.0071583119 -0.8110597600
H 0.6586347691 -0.7010511119 0.0000000000
N 0.0512323209 1.4257913619 0.0000000000
H -0.1217116191 2.0071583119 0.8110597600
H -0.6586347691 0.7010511119 0.0000000000
H -0.1217116191 2.0071583119 -0.8110597600
$end


$rem
N_FROZEN_CORE FC
MEM_TOTAL 3750
MEM_STATIC 1500
AUX_BASIS_CORR rimp2-def2-QZVPPD
SCF_CONVERGENCE 7
SCF_ALGORITHM  GDM
method DSD-PBEPBE-D3
GEN_SCFMAN TRUE
UNRESTRICTED True
THRESH  14
SYMMETRY FALSE
SYM_IGNORE TRUE
max_scf_cycles 200

XC_GRID 000099000590
BASIS DEF2-QZVPPD


$end










