$molecule
0 1
N -0.0449771662 -2.2323007024 0.0000000000
H 0.1279667738 -2.8136676524 0.8110597600
H 0.1279667738 -2.8136676524 -0.8110597600
H 0.6648899238 -1.5075604524 0.0000000000
N 0.0449771662 2.2323007024 0.0000000000
H -0.1279667738 2.8136676524 0.8110597600
H -0.6648899238 1.5075604524 0.0000000000
H -0.1279667738 2.8136676524 -0.8110597600
$end


$rem
N_FROZEN_CORE FC
MEM_TOTAL 3750
MEM_STATIC 1500
AUX_BASIS_CORR rimp2-def2-QZVPPD
SCF_CONVERGENCE 7
SCF_ALGORITHM  GDM
method DSD-PBEPBE-D3
GEN_SCFMAN TRUE
UNRESTRICTED True
THRESH  14
SYMMETRY FALSE
SYM_IGNORE TRUE
max_scf_cycles 200

XC_GRID 000099000590
BASIS DEF2-QZVPPD


$end










