$molecule
0 1
N -0.0487302591 -1.7483950981 0.0000000000
H 0.1242136809 -2.3297620481 0.8110597600
H 0.1242136809 -2.3297620481 -0.8110597600
H 0.6611368309 -1.0236548481 0.0000000000
N 0.0487302591 1.7483950981 0.0000000000
H -0.1242136809 2.3297620481 0.8110597600
H -0.6611368309 1.0236548481 0.0000000000
H -0.1242136809 2.3297620481 -0.8110597600
$end


$rem
N_FROZEN_CORE FC
MEM_TOTAL 3750
MEM_STATIC 1500
AUX_BASIS_CORR rimp2-def2-QZVPPD
SCF_CONVERGENCE 7
SCF_ALGORITHM  GDM
method DSD-PBEPBE-D3
GEN_SCFMAN TRUE
UNRESTRICTED True
THRESH  14
SYMMETRY FALSE
SYM_IGNORE TRUE
max_scf_cycles 200

XC_GRID 000099000590
BASIS DEF2-QZVPPD


$end










