$molecule
0 1
C 4.4936840000 9.7331500000 9.5884950000
N 3.3163780000 8.8175590000 9.5813490000
O 2.5249390000 8.8900330000 8.6460040000
O 3.2106040000 8.0168530000 10.4973830000
H 4.7077730000 9.9725260000 10.6219250000
H 5.3211060000 9.1772470000 9.1515750000
H 4.2581290000 10.6013410000 8.9877310000
$end


$rem
N_FROZEN_CORE FC
MEM_TOTAL 3750
MEM_STATIC 1500
AUX_BASIS_CORR rimp2-def2-QZVPPD
SCF_CONVERGENCE 7
SCF_ALGORITHM  GDM
method DSD-PBEPBE-D3
GEN_SCFMAN TRUE
UNRESTRICTED True
THRESH  14
SYMMETRY FALSE
SYM_IGNORE TRUE
max_scf_cycles 200

XC_GRID 000099000590
BASIS DEF2-QZVPPD


$end










