$molecule
0 1
C 3.2838160000 2.7408500000 5.3349950000
N 4.4611220000 3.6564410000 5.3278490000
O 5.2525610000 3.5839670000 4.3925040000
O 4.5668960000 4.4571470000 6.2438830000
H 3.0697270000 2.5014740000 6.3684250000
H 2.4563940000 3.2967530000 4.8980750000
H 3.5193710000 1.8726590000 4.7342310000
$end


$rem
N_FROZEN_CORE FC
MEM_TOTAL 3750
MEM_STATIC 1500
AUX_BASIS_CORR rimp2-def2-QZVPPD
SCF_CONVERGENCE 7
SCF_ALGORITHM  GDM
method DSD-PBEPBE-D3
GEN_SCFMAN TRUE
UNRESTRICTED True
THRESH  14
SYMMETRY FALSE
SYM_IGNORE TRUE
max_scf_cycles 200

XC_GRID 000099000590
BASIS DEF2-QZVPPD


$end










