$molecule
0 1
C 0.6913160000 6.6146500000 11.6790050000
N 1.8686220000 5.6990590000 11.6861510000
O 2.6600610000 5.7715330000 12.6214960000
O 1.9743960000 4.8983530000 10.7701170000
H 0.4772270000 6.8540260000 10.6455750000
H -0.1361060000 6.0587470000 12.1159250000
H 0.9268710000 7.4828410000 12.2797690000
$end


$rem
N_FROZEN_CORE FC
MEM_TOTAL 3750
MEM_STATIC 1500
AUX_BASIS_CORR rimp2-def2-QZVPPD
SCF_CONVERGENCE 7
SCF_ALGORITHM  GDM
method DSD-PBEPBE-D3
GEN_SCFMAN TRUE
UNRESTRICTED True
THRESH  14
SYMMETRY FALSE
SYM_IGNORE TRUE
max_scf_cycles 200

XC_GRID 000099000590
BASIS DEF2-QZVPPD


$end










