$molecule
0 1
C 0.0000000000 0.0000000000 2.5535003986
H 0.5159337800 -0.8936235200 2.2030349186
H 0.0000000000 0.0000000000 3.6408428986
H 0.5159337800 0.8936235200 2.2030349186
H -1.0318675600 0.0000000000 2.2030349186
H 0.0000000000 0.0000000000 -1.6828091113
F 0.0000000000 0.0000000000 -2.6020683913
$end


$rem
N_FROZEN_CORE FC
MEM_TOTAL 3750
MEM_STATIC 1500
AUX_BASIS_CORR rimp2-def2-QZVPPD
SCF_CONVERGENCE 7
SCF_ALGORITHM  GDM
method DSD-PBEPBE-D3
GEN_SCFMAN TRUE
UNRESTRICTED True
THRESH  14
SYMMETRY FALSE
SYM_IGNORE TRUE
max_scf_cycles 200

XC_GRID 000099000590
BASIS DEF2-QZVPPD


$end










