$molecule
0 1
O 3.1985000000 14.6829470000 5.2181890000
C 2.3973410000 15.1681100000 6.1511350000
O 2.0141450000 16.3335940000 6.1313670000
C 1.9905840000 14.1568760000 7.1762770000
H 3.4478340000 15.3786420000 4.5389660000
H 1.2004990000 13.5383070000 6.7463280000
H 2.8217420000 13.4983110000 7.4163140000
H 1.6034760000 14.6455560000 8.0641670000
$end


$rem
N_FROZEN_CORE FC
MEM_TOTAL 3750
MEM_STATIC 1500
AUX_BASIS_CORR rimp2-def2-QZVPPD
SCF_CONVERGENCE 7
SCF_ALGORITHM  GDM
method DSD-PBEPBE-D3
GEN_SCFMAN TRUE
UNRESTRICTED True
THRESH  14
SYMMETRY FALSE
SYM_IGNORE TRUE
max_scf_cycles 200

XC_GRID 000099000590
BASIS DEF2-QZVPPD


$end










