$molecule
0 1
N 0.0000000000 0.0000000000 3.8828086830
H 0.9373097900 0.0000000000 4.2665395030
H -0.4686548900 -0.8117340900 4.2665395030
H -0.4686548900 0.8117340900 4.2665395030
H -0.0000000006 0.0000000000 -2.8614490067
C -0.0000000006 0.0000000000 -3.9501147867
H 0.5125143894 0.8877009600 -4.3174285167
H 0.5125143894 -0.8877009600 -4.3174285167
H -1.0250287806 0.0000000000 -4.3174285167
$end


$rem
N_FROZEN_CORE FC
MEM_TOTAL 3750
MEM_STATIC 1500
AUX_BASIS_CORR rimp2-def2-QZVPPD
SCF_CONVERGENCE 7
SCF_ALGORITHM  GDM
method DSD-PBEPBE-D3
GEN_SCFMAN TRUE
UNRESTRICTED True
THRESH  14
SYMMETRY FALSE
SYM_IGNORE TRUE
max_scf_cycles 200

XC_GRID 000099000590
BASIS DEF2-QZVPPD


$end










