$molecule
0 1
N -0.0000000002 0.0000000000 2.6975238751
H 0.9373097898 0.0000000000 3.0812546951
H -0.4686548902 -0.8117340900 3.0812546951
H -0.4686548902 0.8117340900 3.0812546951
H -0.0000000004 0.0000000000 -1.6761641988
C -0.0000000004 0.0000000000 -2.7648299788
H 0.5125143896 0.8877009600 -3.1321437088
H 0.5125143896 -0.8877009600 -3.1321437088
H -1.0250287804 0.0000000000 -3.1321437088
$end


$rem
N_FROZEN_CORE FC
MEM_TOTAL 3750
MEM_STATIC 1500
AUX_BASIS_CORR rimp2-def2-QZVPPD
SCF_CONVERGENCE 7
SCF_ALGORITHM  GDM
method DSD-PBEPBE-D3
GEN_SCFMAN TRUE
UNRESTRICTED True
THRESH  14
SYMMETRY FALSE
SYM_IGNORE TRUE
max_scf_cycles 200

XC_GRID 000099000590
BASIS DEF2-QZVPPD


$end










