$molecule
0 1
N -0.0000000003 0.0000000000 2.1048814711
H 0.9373097897 0.0000000000 2.4886122911
H -0.4686548903 -0.8117340900 2.4886122911
H -0.4686548903 0.8117340900 2.4886122911
H -0.0000000003 0.0000000000 -1.0835217948
C -0.0000000003 0.0000000000 -2.1721875748
H 0.5125143897 0.8877009600 -2.5395013048
H 0.5125143897 -0.8877009600 -2.5395013048
H -1.0250287803 0.0000000000 -2.5395013048
$end


$rem
N_FROZEN_CORE FC
MEM_TOTAL 3750
MEM_STATIC 1500
AUX_BASIS_CORR rimp2-def2-QZVPPD
SCF_CONVERGENCE 7
SCF_ALGORITHM  GDM
method DSD-PBEPBE-D3
GEN_SCFMAN TRUE
UNRESTRICTED True
THRESH  14
SYMMETRY FALSE
SYM_IGNORE TRUE
max_scf_cycles 200

XC_GRID 000099000590
BASIS DEF2-QZVPPD


$end










