$molecule
0 1
N -0.0000000001 0.0000000000 3.0926188111
H 0.9373097899 0.0000000000 3.4763496311
H -0.4686548901 -0.8117340900 3.4763496311
H -0.4686548901 0.8117340900 3.4763496311
H -0.0000000005 0.0000000000 -2.0712591348
C -0.0000000005 0.0000000000 -3.1599249148
H 0.5125143895 0.8877009600 -3.5272386448
H 0.5125143895 -0.8877009600 -3.5272386448
H -1.0250287805 0.0000000000 -3.5272386448
$end


$rem
N_FROZEN_CORE FC
MEM_TOTAL 3750
MEM_STATIC 1500
AUX_BASIS_CORR rimp2-def2-QZVPPD
SCF_CONVERGENCE 7
SCF_ALGORITHM  GDM
method DSD-PBEPBE-D3
GEN_SCFMAN TRUE
UNRESTRICTED True
THRESH  14
SYMMETRY FALSE
SYM_IGNORE TRUE
max_scf_cycles 200

XC_GRID 000099000590
BASIS DEF2-QZVPPD


$end










