$molecule
0 1
C -4.3214820000 3.0176050000 7.3346430000
H -5.8220690000 2.3711730000 6.3816050000
O -4.9532650000 3.6371500000 8.1707410000
O -4.8228990000 2.3332790000 6.3439300000
C -2.7839540000 2.9973950000 7.3440370000
O -2.1521700000 2.3778500000 6.5079400000
O -2.2825370000 3.6817210000 8.3347500000
H -1.2833660000 3.6438270000 8.2970750000
$end


$rem
N_FROZEN_CORE FC
MEM_TOTAL 3750
MEM_STATIC 1500
AUX_BASIS_CORR rimp2-def2-QZVPPD
SCF_CONVERGENCE 7
SCF_ALGORITHM  GDM
method DSD-PBEPBE-D3
GEN_SCFMAN TRUE
UNRESTRICTED True
THRESH  14
SYMMETRY FALSE
SYM_IGNORE TRUE
max_scf_cycles 200

XC_GRID 000099000590
BASIS DEF2-QZVPPD


$end










