$molecule
0 1
O -1.0619670000 -1.3936980000 11.7183720000
O -0.2192810000 -0.2726460000 13.4810000000
C -0.3936300000 -0.5081790000 12.2087540000
H -0.6885400000 -0.9147090000 14.0734640000
O 1.0619670000 1.3936980000 11.8388280000
O 0.2192810000 0.2726460000 10.0762000000
C 0.3936300000 0.5081790000 11.3484460000
H 0.6885400000 0.9147090000 9.4837360000
$end


$rem
N_FROZEN_CORE FC
MEM_TOTAL 3750
MEM_STATIC 1500
AUX_BASIS_CORR rimp2-def2-QZVPPD
SCF_CONVERGENCE 7
SCF_ALGORITHM  GDM
method DSD-PBEPBE-D3
GEN_SCFMAN TRUE
UNRESTRICTED True
THRESH  14
SYMMETRY FALSE
SYM_IGNORE TRUE
max_scf_cycles 200

XC_GRID 000099000590
BASIS DEF2-QZVPPD


$end










