$molecule
0 1
O -1.0619670000 -1.3936980000 3.8659720000
O -0.2192810000 -0.2726460000 5.6286000000
C -0.3936300000 -0.5081790000 4.3563540000
H -0.6885400000 -0.9147090000 6.2210640000
O 1.0619670000 1.3936980000 3.9864280000
O 0.2192810000 0.2726460000 2.2238000000
C 0.3936300000 0.5081790000 3.4960460000
H 0.6885400000 0.9147090000 1.6313360000
$end


$rem
N_FROZEN_CORE FC
MEM_TOTAL 3750
MEM_STATIC 1500
AUX_BASIS_CORR rimp2-def2-QZVPPD
SCF_CONVERGENCE 7
SCF_ALGORITHM  GDM
method DSD-PBEPBE-D3
GEN_SCFMAN TRUE
UNRESTRICTED True
THRESH  14
SYMMETRY FALSE
SYM_IGNORE TRUE
max_scf_cycles 200

XC_GRID 000099000590
BASIS DEF2-QZVPPD


$end










