$molecule
0 1
O 15.3365330000 4.4406980000 11.8388280000
O 16.1792190000 3.3196460000 10.0762000000
C 16.0048700000 3.5551790000 11.3484460000
H 15.7099600000 3.9617090000 9.4837360000
O 17.4604670000 1.6533020000 11.7183720000
O 16.6177810000 2.7743540000 13.4810000000
C 16.7921300000 2.5388210000 12.2087540000
H 17.0870400000 2.1322910000 14.0734640000
$end


$rem
N_FROZEN_CORE FC
MEM_TOTAL 3750
MEM_STATIC 1500
AUX_BASIS_CORR rimp2-def2-QZVPPD
SCF_CONVERGENCE 7
SCF_ALGORITHM  GDM
method DSD-PBEPBE-D3
GEN_SCFMAN TRUE
UNRESTRICTED True
THRESH  14
SYMMETRY FALSE
SYM_IGNORE TRUE
max_scf_cycles 200

XC_GRID 000099000590
BASIS DEF2-QZVPPD


$end










