$molecule
0 1
O 17.4604670000 7.4876980000 15.6445720000
O 16.6177810000 6.3666460000 17.4072000000
C 16.7921300000 6.6021790000 16.1349540000
H 17.0870400000 7.0087090000 17.9996640000
O 15.3365330000 4.7003020000 15.7650280000
O 16.1792190000 5.8213540000 14.0024000000
C 16.0048700000 5.5858210000 15.2746460000
H 15.7099600000 5.1792910000 13.4099360000
$end


$rem
N_FROZEN_CORE FC
MEM_TOTAL 3750
MEM_STATIC 1500
AUX_BASIS_CORR rimp2-def2-QZVPPD
SCF_CONVERGENCE 7
SCF_ALGORITHM  GDM
method DSD-PBEPBE-D3
GEN_SCFMAN TRUE
UNRESTRICTED True
THRESH  14
SYMMETRY FALSE
SYM_IGNORE TRUE
max_scf_cycles 200

XC_GRID 000099000590
BASIS DEF2-QZVPPD


$end










