$molecule
0 1
O -0.0048295674 0.0000000000 2.0145916273
H 0.0320204326 0.7575500000 2.6003416273
H 0.0320204326 -0.7575500000 2.6003416273
C 0.0007187062 0.0000000000 -2.0794466935
H -0.5073912938 0.8875900000 -2.4524966935
H 1.0305587061 0.0000000000 -2.4324166935
H -0.0131112938 0.0000000000 -0.9914966935
H -0.5073912938 -0.8875900000 -2.4524966935
$end


$rem
N_FROZEN_CORE FC
MEM_TOTAL 3750
MEM_STATIC 1500
AUX_BASIS_CORR rimp2-def2-QZVPPD
SCF_CONVERGENCE 7
SCF_ALGORITHM  GDM
method DSD-PBEPBE-D3
GEN_SCFMAN TRUE
UNRESTRICTED True
THRESH  14
SYMMETRY FALSE
SYM_IGNORE TRUE
max_scf_cycles 200

XC_GRID 000099000590
BASIS DEF2-QZVPPD


$end










