$molecule
0 1
O -0.0047012938 0.0000000000 1.6363833065
H 0.0321487062 0.7575500000 2.2221333065
H 0.0321487062 -0.7575500000 2.2221333065
C 0.0005904326 0.0000000000 -1.7012383727
H -0.5075195674 0.8875900000 -2.0742883727
H 1.0304304327 0.0000000000 -2.0542083727
H -0.0132395674 0.0000000000 -0.6132883727
H -0.5075195674 -0.8875900000 -2.0742883727
$end


$rem
N_FROZEN_CORE FC
MEM_TOTAL 3750
MEM_STATIC 1500
AUX_BASIS_CORR rimp2-def2-QZVPPD
SCF_CONVERGENCE 7
SCF_ALGORITHM  GDM
method DSD-PBEPBE-D3
GEN_SCFMAN TRUE
UNRESTRICTED True
THRESH  14
SYMMETRY FALSE
SYM_IGNORE TRUE
max_scf_cycles 200

XC_GRID 000099000590
BASIS DEF2-QZVPPD


$end










