$molecule
0 1
O -0.0047654306 0.0000000000 1.8254874669
H 0.0320845694 0.7575500000 2.4112374669
H 0.0320845694 -0.7575500000 2.4112374669
C 0.0006545694 0.0000000000 -1.8903425331
H -0.5074554306 0.8875900000 -2.2633925331
H 1.0304945694 0.0000000000 -2.2433125331
H -0.0131754306 0.0000000000 -0.8023925331
H -0.5074554306 -0.8875900000 -2.2633925331
$end


$rem
N_FROZEN_CORE FC
MEM_TOTAL 3750
MEM_STATIC 1500
AUX_BASIS_CORR rimp2-def2-QZVPPD
SCF_CONVERGENCE 7
SCF_ALGORITHM  GDM
method DSD-PBEPBE-D3
GEN_SCFMAN TRUE
UNRESTRICTED True
THRESH  14
SYMMETRY FALSE
SYM_IGNORE TRUE
max_scf_cycles 200

XC_GRID 000099000590
BASIS DEF2-QZVPPD


$end










