$molecule
0 1
C 7.0610720000 10.0342110000 7.9070660000
C 6.4424080000 9.4380300000 6.9014220000
C 6.9748680000 7.8711440000 8.3764200000
H 7.3227400000 11.0507030000 8.1292070000
H 6.0168710000 9.7727820000 5.9763380000
O 7.3973940000 9.0655100000 8.8535310000
O 6.3617180000 8.0734930000 7.1852010000
O 7.1243230000 6.8077040000 8.9084050000
$end


$rem
N_FROZEN_CORE FC
MEM_TOTAL 3750
MEM_STATIC 1500
AUX_BASIS_CORR rimp2-def2-QZVPPD
SCF_CONVERGENCE 7
SCF_ALGORITHM  GDM
method DSD-PBEPBE-D3
GEN_SCFMAN TRUE
UNRESTRICTED True
THRESH  14
SYMMETRY FALSE
SYM_IGNORE TRUE
max_scf_cycles 200

XC_GRID 000099000590
BASIS DEF2-QZVPPD


$end










