$molecule
0 1
C 0.8459270000 15.3092110000 1.5538060000
C 1.4645900000 14.7130300000 2.5594500000
C 0.9321310000 13.1461440000 1.0844520000
H 0.5842580000 16.3257030000 1.3316650000
H 1.8901280000 15.0477820000 3.4845340000
O 0.5096040000 14.3405100000 0.6073410000
O 1.5452810000 13.3484930000 2.2756710000
O 0.7826760000 12.0827040000 0.5524680000
$end


$rem
N_FROZEN_CORE FC
MEM_TOTAL 3750
MEM_STATIC 1500
AUX_BASIS_CORR rimp2-def2-QZVPPD
SCF_CONVERGENCE 7
SCF_ALGORITHM  GDM
method DSD-PBEPBE-D3
GEN_SCFMAN TRUE
UNRESTRICTED True
THRESH  14
SYMMETRY FALSE
SYM_IGNORE TRUE
max_scf_cycles 200

XC_GRID 000099000590
BASIS DEF2-QZVPPD


$end










