$molecule
0 1
C 0.0000000000 0.6018829486 -1.6445211900
O 0.0000000000 -0.5923749914 -1.8427716400
H 0.9354225000 1.1749193886 -1.5558327500
H -0.9354225000 1.1749193886 -1.5558327500
C 0.0000000000 -0.6026482062 1.8430163022
O 0.0000000000 0.5917429338 1.6458409222
H 0.0000000000 -1.0100232662 2.8659739922
H 0.0000000000 -1.3206725062 1.0076776122
$end


$rem
N_FROZEN_CORE FC
MEM_TOTAL 3750
MEM_STATIC 1500
AUX_BASIS_CORR rimp2-def2-QZVPPD
SCF_CONVERGENCE 7
SCF_ALGORITHM  GDM
method DSD-PBEPBE-D3
GEN_SCFMAN TRUE
UNRESTRICTED True
THRESH  14
SYMMETRY FALSE
SYM_IGNORE TRUE
max_scf_cycles 200

XC_GRID 000099000590
BASIS DEF2-QZVPPD


$end










