$molecule
0 1
C 0.0000000000 0.6025262460 -1.9352257261
O 0.0000000000 -0.5917316940 -2.1334761761
H 0.9354225000 1.1755626860 -1.8465372861
H -0.9354225000 1.1755626860 -1.8465372861
C 0.0000000000 -0.6032915037 2.1337208383
O 0.0000000000 0.5910996363 1.9365454583
H 0.0000000000 -1.0106665637 3.1566785283
H 0.0000000000 -1.3213158037 1.2983821483
$end


$rem
N_FROZEN_CORE FC
MEM_TOTAL 3750
MEM_STATIC 1500
AUX_BASIS_CORR rimp2-def2-QZVPPD
SCF_CONVERGENCE 7
SCF_ALGORITHM  GDM
method DSD-PBEPBE-D3
GEN_SCFMAN TRUE
UNRESTRICTED True
THRESH  14
SYMMETRY FALSE
SYM_IGNORE TRUE
max_scf_cycles 200

XC_GRID 000099000590
BASIS DEF2-QZVPPD


$end










