$molecule
0 1
C 0.0000000000 0.6015612999 -1.4991689219
O 0.0000000000 -0.5926966401 -1.6974193719
H 0.9354225000 1.1745977399 -1.4104804819
H -0.9354225000 1.1745977399 -1.4104804819
C 0.0000000000 -0.6023265575 1.6976640342
O 0.0000000000 0.5920645825 1.5004886542
H 0.0000000000 -1.0097016175 2.7206217242
H 0.0000000000 -1.3203508575 0.8623253442
$end


$rem
N_FROZEN_CORE FC
MEM_TOTAL 3750
MEM_STATIC 1500
AUX_BASIS_CORR rimp2-def2-QZVPPD
SCF_CONVERGENCE 7
SCF_ALGORITHM  GDM
method DSD-PBEPBE-D3
GEN_SCFMAN TRUE
UNRESTRICTED True
THRESH  14
SYMMETRY FALSE
SYM_IGNORE TRUE
max_scf_cycles 200

XC_GRID 000099000590
BASIS DEF2-QZVPPD


$end










