$molecule
0 1
C 0.0000000000 0.6012396512 -1.3538166539
O 0.0000000000 -0.5930182888 -1.5520671039
H 0.9354225000 1.1742760912 -1.2651282139
H -0.9354225000 1.1742760912 -1.2651282139
C 0.0000000000 -0.6020049088 1.5523117661
O 0.0000000000 0.5923862312 1.3551363861
H 0.0000000000 -1.0093799688 2.5752694561
H 0.0000000000 -1.3200292088 0.7169730761
$end


$rem
N_FROZEN_CORE FC
MEM_TOTAL 3750
MEM_STATIC 1500
AUX_BASIS_CORR rimp2-def2-QZVPPD
SCF_CONVERGENCE 7
SCF_ALGORITHM  GDM
method DSD-PBEPBE-D3
GEN_SCFMAN TRUE
UNRESTRICTED True
THRESH  14
SYMMETRY FALSE
SYM_IGNORE TRUE
max_scf_cycles 200

XC_GRID 000099000590
BASIS DEF2-QZVPPD


$end










