$molecule
0 1
C -1.0049180000 11.2517780000 13.3638900000
C -1.8288370000 9.9860030000 13.3914360000
O -2.9558570000 9.9475870000 12.8540980000
N -1.3156040000 8.9449860000 14.0458340000
H -1.8885950000 8.1253090000 14.2563600000
H -0.3871650000 9.0116000000 14.4686060000
H -1.2349880000 11.8204560000 14.2671040000
H 0.0649300000 11.0540240000 13.3557680000
H -1.2711880000 11.8551560000 12.5011150000
$end


$rem
N_FROZEN_CORE FC
MEM_TOTAL 3750
MEM_STATIC 1500
AUX_BASIS_CORR rimp2-def2-QZVPPD
SCF_CONVERGENCE 7
SCF_ALGORITHM  GDM
method DSD-PBEPBE-D3
GEN_SCFMAN TRUE
UNRESTRICTED True
THRESH  14
SYMMETRY FALSE
SYM_IGNORE TRUE
max_scf_cycles 200

XC_GRID 000099000590
BASIS DEF2-QZVPPD


$end










