$molecule
0 1
C 3.4958660000 10.0911000000 15.5125570000
C 1.9877140000 10.0104530000 15.5401030000
O 1.3909340000 9.0536320000 15.0027640000
N 1.3427830000 10.9754340000 16.1945010000
H 0.3464260000 10.8890470000 16.4050270000
H 1.8646920000 11.7461780000 16.6172720000
H 3.8733210000 9.6075150000 16.4157700000
H 3.8595310000 11.1164920000 15.5044350000
H 3.8852730000 9.5588140000 14.6497810000
$end


$rem
N_FROZEN_CORE FC
MEM_TOTAL 3750
MEM_STATIC 1500
AUX_BASIS_CORR rimp2-def2-QZVPPD
SCF_CONVERGENCE 7
SCF_ALGORITHM  GDM
method DSD-PBEPBE-D3
GEN_SCFMAN TRUE
UNRESTRICTED True
THRESH  14
SYMMETRY FALSE
SYM_IGNORE TRUE
max_scf_cycles 200

XC_GRID 000099000590
BASIS DEF2-QZVPPD


$end










