$molecule
0 1
C 10.2467840000 1.8793050000 9.0665570000
C 9.5625510000 3.2257270000 9.0941030000
O 10.0927920000 4.2209630000 8.5567640000
N 8.4043870000 3.3017630000 9.7485010000
H 7.9810220000 4.2078260000 9.9590270000
H 7.9978570000 2.4644040000 10.1712720000
H 10.8543090000 1.7942120000 9.9697700000
H 9.5406010000 1.0516660000 9.0584350000
H 10.9024600000 1.8082120000 8.2037810000
$end


$rem
N_FROZEN_CORE FC
MEM_TOTAL 3750
MEM_STATIC 1500
AUX_BASIS_CORR rimp2-def2-QZVPPD
SCF_CONVERGENCE 7
SCF_ALGORITHM  GDM
method DSD-PBEPBE-D3
GEN_SCFMAN TRUE
UNRESTRICTED True
THRESH  14
SYMMETRY FALSE
SYM_IGNORE TRUE
max_scf_cycles 200

XC_GRID 000099000590
BASIS DEF2-QZVPPD


$end










