$molecule
0 1
C 14.9878660000 3.4561910000 6.9178900000
C 13.4797140000 3.3755430000 6.9454360000
O 12.8829340000 2.4187230000 6.4080980000
N 12.8347830000 4.3405240000 7.5998340000
H 11.8384260000 4.2541380000 7.8103600000
H 13.3566920000 5.1112690000 8.0226060000
H 15.3653210000 2.9726050000 7.8211040000
H 15.3515310000 4.4815830000 6.9097680000
H 15.3772730000 2.9239050000 6.0551150000
$end


$rem
N_FROZEN_CORE FC
MEM_TOTAL 3750
MEM_STATIC 1500
AUX_BASIS_CORR rimp2-def2-QZVPPD
SCF_CONVERGENCE 7
SCF_ALGORITHM  GDM
method DSD-PBEPBE-D3
GEN_SCFMAN TRUE
UNRESTRICTED True
THRESH  14
SYMMETRY FALSE
SYM_IGNORE TRUE
max_scf_cycles 200

XC_GRID 000099000590
BASIS DEF2-QZVPPD


$end










