$molecule
0 1
C 12.4969180000 4.6168680000 11.2152240000
C 13.3208370000 3.3510940000 11.2427690000
O 14.4478570000 3.3126780000 10.7054310000
N 12.8076040000 2.3100760000 11.8971670000
H 13.3805950000 1.4904000000 12.1076940000
H 11.8791650000 2.3766910000 12.3199390000
H 12.7269880000 5.1855470000 12.1184370000
H 11.4270700000 4.4191150000 11.2071020000
H 12.7631880000 5.2202470000 10.3524480000
$end


$rem
N_FROZEN_CORE FC
MEM_TOTAL 3750
MEM_STATIC 1500
AUX_BASIS_CORR rimp2-def2-QZVPPD
SCF_CONVERGENCE 7
SCF_ALGORITHM  GDM
method DSD-PBEPBE-D3
GEN_SCFMAN TRUE
UNRESTRICTED True
THRESH  14
SYMMETRY FALSE
SYM_IGNORE TRUE
max_scf_cycles 200

XC_GRID 000099000590
BASIS DEF2-QZVPPD


$end










