$molecule
0 1
C 7.9961340000 3.4561910000 13.3638900000
C 9.5042860000 3.3755430000 13.3914360000
O 10.1010660000 2.4187230000 12.8540980000
N 10.1492170000 4.3405240000 14.0458340000
H 11.1455740000 4.2541380000 14.2563600000
H 9.6273080000 5.1112690000 14.4686060000
H 7.6186790000 2.9726050000 14.2671040000
H 7.6324690000 4.4815830000 13.3557680000
H 7.6067270000 2.9239050000 12.5011150000
$end


$rem
N_FROZEN_CORE FC
MEM_TOTAL 3750
MEM_STATIC 1500
AUX_BASIS_CORR rimp2-def2-QZVPPD
SCF_CONVERGENCE 7
SCF_ALGORITHM  GDM
method DSD-PBEPBE-D3
GEN_SCFMAN TRUE
UNRESTRICTED True
THRESH  14
SYMMETRY FALSE
SYM_IGNORE TRUE
max_scf_cycles 200

XC_GRID 000099000590
BASIS DEF2-QZVPPD


$end










