$molecule
0 1
C 13.7421340000 0.1387360000 9.0665570000
C 15.2502860000 0.0580890000 9.0941030000
O 15.8470660000 -0.8987320000 8.5567640000
N 15.8952170000 1.0230700000 9.7485010000
H 16.8915740000 0.9366830000 9.9590270000
H 15.3733080000 1.7938140000 10.1712720000
H 13.3646790000 -0.3448490000 9.9697700000
H 13.3784690000 1.1641280000 9.0584350000
H 13.3527270000 -0.3935500000 8.2037810000
$end


$rem
N_FROZEN_CORE FC
MEM_TOTAL 3750
MEM_STATIC 1500
AUX_BASIS_CORR rimp2-def2-QZVPPD
SCF_CONVERGENCE 7
SCF_ALGORITHM  GDM
method DSD-PBEPBE-D3
GEN_SCFMAN TRUE
UNRESTRICTED True
THRESH  14
SYMMETRY FALSE
SYM_IGNORE TRUE
max_scf_cycles 200

XC_GRID 000099000590
BASIS DEF2-QZVPPD


$end










