$molecule
0 1
C 0.0272389818 -0.6680624600 3.3201478409
C 0.0272389818 0.6680624600 3.3201478409
H 0.8852828918 1.2326793300 2.9762079009
H -0.8294321182 1.2325849500 3.6671936009
H -0.8294321182 -1.2325849500 3.6671936009
H 0.8852828918 -1.2326793300 2.9762079009
H -0.8075432348 0.0000000000 -3.8075418006
O 0.0327874852 0.0000000000 -3.3467719606
H -0.2013624248 0.0000000000 -2.4142008606
$end


$rem
N_FROZEN_CORE FC
MEM_TOTAL 3750
MEM_STATIC 1500
AUX_BASIS_CORR rimp2-def2-QZVPPD
SCF_CONVERGENCE 7
SCF_ALGORITHM  GDM
method DSD-PBEPBE-D3
GEN_SCFMAN TRUE
UNRESTRICTED True
THRESH  14
SYMMETRY FALSE
SYM_IGNORE TRUE
max_scf_cycles 200

XC_GRID 000099000590
BASIS DEF2-QZVPPD


$end










