$molecule
0 1
C 0.0135701335 -0.6680624600 1.6599622552
C 0.0135701335 0.6680624600 1.6599622552
H 0.8716140435 1.2326793300 1.3160223152
H -0.8431009665 1.2325849500 2.0070080152
H -0.8431009665 -1.2325849500 2.0070080152
H 0.8716140435 -1.2326793300 1.3160223152
H -0.7938743865 0.0000000000 -2.1473562148
O 0.0464563335 0.0000000000 -1.6865863748
H -0.1876935765 0.0000000000 -0.7540152748
$end


$rem
N_FROZEN_CORE FC
MEM_TOTAL 3750
MEM_STATIC 1500
AUX_BASIS_CORR rimp2-def2-QZVPPD
SCF_CONVERGENCE 7
SCF_ALGORITHM  GDM
method DSD-PBEPBE-D3
GEN_SCFMAN TRUE
UNRESTRICTED True
THRESH  14
SYMMETRY FALSE
SYM_IGNORE TRUE
max_scf_cycles 200

XC_GRID 000099000590
BASIS DEF2-QZVPPD


$end










