$molecule
0 1
C 0.0190376728 -0.6680624600 2.3240364895
C 0.0190376728 0.6680624600 2.3240364895
H 0.8770815828 1.2326793300 1.9800965495
H -0.8376334272 1.2325849500 2.6710822494
H -0.8376334272 -1.2325849500 2.6710822494
H 0.8770815828 -1.2326793300 1.9800965495
H -0.7993419258 0.0000000000 -2.8114304491
O 0.0409887942 0.0000000000 -2.3506606091
H -0.1931611158 0.0000000000 -1.4180895091
$end


$rem
N_FROZEN_CORE FC
MEM_TOTAL 3750
MEM_STATIC 1500
AUX_BASIS_CORR rimp2-def2-QZVPPD
SCF_CONVERGENCE 7
SCF_ALGORITHM  GDM
method DSD-PBEPBE-D3
GEN_SCFMAN TRUE
UNRESTRICTED True
THRESH  14
SYMMETRY FALSE
SYM_IGNORE TRUE
max_scf_cycles 200

XC_GRID 000099000590
BASIS DEF2-QZVPPD


$end










