$molecule
0 1
C 0.0149370183 -0.6680624600 1.8259808137
C 0.0149370183 0.6680624600 1.8259808137
H 0.8729809283 1.2326793300 1.4820408737
H -0.8417340817 1.2325849500 2.1730265737
H -0.8417340817 -1.2325849500 2.1730265737
H 0.8729809283 -1.2326793300 1.4820408737
H -0.7952412714 0.0000000000 -2.3133747734
O 0.0450894486 0.0000000000 -1.8526049334
H -0.1890604614 0.0000000000 -0.9200338334
$end


$rem
N_FROZEN_CORE FC
MEM_TOTAL 3750
MEM_STATIC 1500
AUX_BASIS_CORR rimp2-def2-QZVPPD
SCF_CONVERGENCE 7
SCF_ALGORITHM  GDM
method DSD-PBEPBE-D3
GEN_SCFMAN TRUE
UNRESTRICTED True
THRESH  14
SYMMETRY FALSE
SYM_IGNORE TRUE
max_scf_cycles 200

XC_GRID 000099000590
BASIS DEF2-QZVPPD


$end










