$molecule
0 1
C 0.0217714425 -0.6680624600 2.6560736066
C 0.0217714425 0.6680624600 2.6560736066
H 0.8798153525 1.2326793300 2.3121336666
H -0.8348996575 1.2325849500 3.0031193666
H -0.8348996575 -1.2325849500 3.0031193666
H 0.8798153525 -1.2326793300 2.3121336666
H -0.8020756955 0.0000000000 -3.1434675663
O 0.0382550245 0.0000000000 -2.6826977263
H -0.1958948855 0.0000000000 -1.7501266263
$end


$rem
N_FROZEN_CORE FC
MEM_TOTAL 3750
MEM_STATIC 1500
AUX_BASIS_CORR rimp2-def2-QZVPPD
SCF_CONVERGENCE 7
SCF_ALGORITHM  GDM
method DSD-PBEPBE-D3
GEN_SCFMAN TRUE
UNRESTRICTED True
THRESH  14
SYMMETRY FALSE
SYM_IGNORE TRUE
max_scf_cycles 200

XC_GRID 000099000590
BASIS DEF2-QZVPPD


$end










