$molecule
0 1
N 1.5880370000 3.5759020000 7.7578550000
C 2.4986250000 4.1743190000 6.9611950000
N 2.7142200000 3.4731970000 5.8587330000
C 1.8949120000 2.3704310000 5.9587000000
C 1.1904350000 2.4227490000 7.1288050000
H 1.1940420000 3.9556540000 8.6447330000
H 2.9786550000 5.1077880000 7.1977300000
H 1.8459410000 1.6214440000 5.1906880000
H 0.4554120000 1.7559160000 7.5392780000
$end


$rem
N_FROZEN_CORE FC
MEM_TOTAL 3750
MEM_STATIC 1500
AUX_BASIS_CORR rimp2-def2-QZVPPD
SCF_CONVERGENCE 7
SCF_ALGORITHM  GDM
method DSD-PBEPBE-D3
GEN_SCFMAN TRUE
UNRESTRICTED True
THRESH  14
SYMMETRY FALSE
SYM_IGNORE TRUE
max_scf_cycles 200

XC_GRID 000099000590
BASIS DEF2-QZVPPD


$end










