$molecule
0 1
N 3.9659410000 4.4730980000 3.4820940000
C 4.8765290000 3.8746810000 2.6854340000
N 5.0921230000 4.5758030000 1.5829720000
C 4.2728160000 5.6785700000 1.6829390000
C 3.5683390000 5.6262510000 2.8530440000
H 3.5719450000 4.0933460000 4.3689720000
H 5.3565580000 2.9412120000 2.9219690000
H 4.2238450000 6.4275560000 0.9149270000
H 2.8333160000 6.2930840000 3.2635170000
$end


$rem
N_FROZEN_CORE FC
MEM_TOTAL 3750
MEM_STATIC 1500
AUX_BASIS_CORR rimp2-def2-QZVPPD
SCF_CONVERGENCE 7
SCF_ALGORITHM  GDM
method DSD-PBEPBE-D3
GEN_SCFMAN TRUE
UNRESTRICTED True
THRESH  14
SYMMETRY FALSE
SYM_IGNORE TRUE
max_scf_cycles 200

XC_GRID 000099000590
BASIS DEF2-QZVPPD


$end










