$molecule
0 1
N -3.5306510000 1.7900980000 9.3451890000
C -4.4412390000 1.1916810000 10.1418480000
N -4.6568340000 1.8928030000 11.2443110000
C -3.8375260000 2.9955700000 11.1443430000
C -3.1330490000 2.9432510000 9.9742380000
H -3.1366560000 1.4103460000 8.4583100000
H -4.9212690000 0.2582120000 9.9053130000
H -3.7885550000 3.7445560000 11.9123550000
H -2.3980260000 3.6100840000 9.5637650000
$end


$rem
N_FROZEN_CORE FC
MEM_TOTAL 3750
MEM_STATIC 1500
AUX_BASIS_CORR rimp2-def2-QZVPPD
SCF_CONVERGENCE 7
SCF_ALGORITHM  GDM
method DSD-PBEPBE-D3
GEN_SCFMAN TRUE
UNRESTRICTED True
THRESH  14
SYMMETRY FALSE
SYM_IGNORE TRUE
max_scf_cycles 200

XC_GRID 000099000590
BASIS DEF2-QZVPPD


$end










