$molecule
0 1
C 13.0320000000 29.0790000000 6.9860000000
H 12.3080000000 29.2510000000 7.7900000000
H 13.4720000000 28.0810000000 7.0800000000
H 13.8270000000 29.8410000000 7.0350000000
H 12.5077200000 29.1674600000 6.0230300000
$end


$rem
N_FROZEN_CORE FC
MEM_TOTAL 3750
MEM_STATIC 1500
AUX_BASIS_CORR rimp2-def2-QZVPPD
SCF_CONVERGENCE 7
SCF_ALGORITHM  GDM
method DSD-PBEPBE-D3
GEN_SCFMAN TRUE
UNRESTRICTED True
THRESH  14
SYMMETRY FALSE
SYM_IGNORE TRUE
max_scf_cycles 200

XC_GRID 000099000590
BASIS DEF2-QZVPPD


$end










