$molecule
0 1
N 0.0000000000 0.0000000000 0.0002840000
F 1.2299600000 0.0000000000 -0.5917860000
F -0.6149800000 -1.0651770000 -0.5917860000
F -0.6149800000 1.0651770000 -0.5917860000
$end


$rem
N_FROZEN_CORE FC
MEM_TOTAL 3750
MEM_STATIC 1500
AUX_BASIS_CORR rimp2-def2-QZVPPD
SCF_CONVERGENCE 7
SCF_ALGORITHM  GDM
method DSD-PBEPBE-D3
GEN_SCFMAN TRUE
UNRESTRICTED True
THRESH  14
SYMMETRY FALSE
SYM_IGNORE TRUE
max_scf_cycles 200

XC_GRID 000099000590
BASIS DEF2-QZVPPD


$end










