$molecule
0 1
C 0.0000000000 1.2082040000 0.4627740000
C -1.1490700000 0.3733560000 0.4627740000
C 1.1490700000 0.3733560000 0.4627740000
C -0.7101640000 -0.9774570000 0.4627740000
C 0.7101640000 -0.9774570000 0.4627740000
C 0.0000000000 2.5552150000 0.0126000000
C -2.4301540000 0.7896050000 0.0126000000
C 2.4301540000 0.7896050000 0.0126000000
C -1.5019180000 -2.0672120000 0.0126000000
C 1.5019180000 -2.0672120000 0.0126000000
C 1.3431820000 2.9012100000 -0.2376870000
C -3.1742810000 -0.3809190000 -0.2376870000
C 2.3441480000 2.1739650000 -0.2376870000
C -2.7919450000 -1.5576250000 -0.2376870000
C 3.1742810000 -0.3809190000 -0.2376870000
C -0.6186310000 -3.1366310000 -0.2376870000
C 2.7919450000 -1.5576250000 -0.2376870000
C 0.6186310000 -3.1366310000 -0.2376870000
C -1.3431820000 2.9012100000 -0.2376870000
C -2.3441480000 2.1739650000 -0.2376870000
$end




$rem
N_FROZEN_CORE FC
MEM_TOTAL 30000
MEM_STATIC 8000
AUX_BASIS_CORR rimp2-def2-QZVPPD
SCF_CONVERGENCE 7
method DSD-PBEPBE-D3
GEN_SCFMAN TRUE
UNRESTRICTED True
THRESH  14
SYMMETRY FALSE
SYM_IGNORE TRUE
max_scf_cycles 200
scf_algorithm gdm

XC_GRID 000099000590
NL_GRID 1
BASIS def2-QZVPPD


$end




