$molecule
0 1
O -0.4319550000 1.7777780000 0.0000000000
C 0.3110980000 2.9828270000 0.0000000000
H -0.4030020000 3.8015740000 0.0000000000
H 0.9414150000 3.0823790000 0.8861880000
H 0.9414150000 3.0823790000 -0.8861880000
H 0.2009850000 1.0461610000 0.0000000000
$end


$rem
N_FROZEN_CORE FC
MEM_TOTAL 3750
MEM_STATIC 1500
AUX_BASIS_CORR rimp2-def2-QZVPPD
SCF_CONVERGENCE 7
SCF_ALGORITHM  GDM
method DSD-PBEPBE-D3
GEN_SCFMAN TRUE
UNRESTRICTED True
THRESH  14
SYMMETRY FALSE
SYM_IGNORE TRUE
max_scf_cycles 200

XC_GRID 000099000590
BASIS DEF2-QZVPPD


$end










