$molecule
0 1
S 0.6918310000 -1.3042470000 0.0000000000
C -0.4862070000 -1.3874750000 1.3609410000
C -0.4862070000 -1.3874750000 -1.3609410000
H -1.0353400000 -2.3261360000 1.3322610000
H 0.0806050000 -1.3382050000 2.2873190000
H -1.1753490000 -0.5466250000 1.3193820000
H -1.0353400000 -2.3261360000 -1.3322610000
H -1.1753490000 -0.5466250000 -1.3193820000
H 0.0806050000 -1.3382050000 -2.2873190000
$end


$rem
N_FROZEN_CORE FC
MEM_TOTAL 3750
MEM_STATIC 1500
AUX_BASIS_CORR rimp2-def2-QZVPPD
SCF_CONVERGENCE 7
SCF_ALGORITHM  GDM
method DSD-PBEPBE-D3
GEN_SCFMAN TRUE
UNRESTRICTED True
THRESH  14
SYMMETRY FALSE
SYM_IGNORE TRUE
max_scf_cycles 200

XC_GRID 000099000590
BASIS DEF2-QZVPPD


$end










