$molecule
0 1
Cl 0.0000000000 0.0000000004 1.2111084889
H 0.0000000000 -0.0000000005 -0.1088333184
N 0.0000000000 0.0000000000 -1.9016555878
H 0.0000000000 0.9407197431 -2.2764242049
H 0.8146870799 -0.4703598713 -2.2764241889
H -0.8146870799 -0.4703598713 -2.2764241889
$end


$rem
N_FROZEN_CORE FC
MEM_TOTAL 3750
MEM_STATIC 1500
AUX_BASIS_CORR rimp2-def2-QZVPPD
SCF_CONVERGENCE 7
SCF_ALGORITHM  GDM
method DSD-PBEPBE-D3
GEN_SCFMAN TRUE
UNRESTRICTED True
THRESH  14
SYMMETRY FALSE
SYM_IGNORE TRUE
max_scf_cycles 200

XC_GRID 000099000590
BASIS DEF2-QZVPPD


$end










