$molecule
0 1
O 0.0000000000 -0.5072461105 -2.0756915968
C 0.0000000000 0.6976838895 -1.9843215968
H 0.0000000000 1.2005538895 -1.0036815968
H 0.0000000000 1.3422938895 -2.8790915968
C 0.0000000000 -0.6035406608 1.5993140232
C 0.0000000000 0.4157393392 2.4614640232
H 0.9211300000 -1.0351406608 1.2284240232
H -0.9211300000 -1.0351406608 1.2284240232
H -0.9239400000 0.8456793392 2.8288340232
H 0.9239400000 0.8456793392 2.8288340232
$end


$rem
N_FROZEN_CORE FC
MEM_TOTAL 3750
MEM_STATIC 1500
AUX_BASIS_CORR rimp2-def2-QZVPPD
SCF_CONVERGENCE 7
SCF_ALGORITHM  GDM
method DSD-PBEPBE-D3
GEN_SCFMAN TRUE
UNRESTRICTED True
THRESH  14
SYMMETRY FALSE
SYM_IGNORE TRUE
max_scf_cycles 200

XC_GRID 000099000590
BASIS DEF2-QZVPPD


$end










