$molecule
0 1
O 0.0000000000 -0.5157933856 -1.8911337868
C 0.0000000000 0.6891366144 -1.7997637868
H 0.0000000000 1.1920066144 -0.8191237868
H 0.0000000000 1.3337466144 -2.6945337868
C 0.0000000000 -0.5949933856 1.4147562132
C 0.0000000000 0.4242866144 2.2769062132
H 0.9211300000 -1.0265933856 1.0438662132
H -0.9211300000 -1.0265933856 1.0438662132
H -0.9239400000 0.8542266144 2.6442762132
H 0.9239400000 0.8542266144 2.6442762132
$end


$rem
N_FROZEN_CORE FC
MEM_TOTAL 3750
MEM_STATIC 1500
AUX_BASIS_CORR rimp2-def2-QZVPPD
SCF_CONVERGENCE 7
SCF_ALGORITHM  GDM
method DSD-PBEPBE-D3
GEN_SCFMAN TRUE
UNRESTRICTED True
THRESH  14
SYMMETRY FALSE
SYM_IGNORE TRUE
max_scf_cycles 200

XC_GRID 000099000590
BASIS DEF2-QZVPPD


$end










