$molecule
0 1
O 0.0000000000 -0.4645097348 -2.9984806469
C 0.0000000000 0.7404202652 -2.9071106469
H 0.0000000000 1.2432902652 -1.9264706469
H 0.0000000000 1.3850302652 -3.8018806469
C 0.0000000000 -0.6462770365 2.5221030733
C 0.0000000000 0.3730029635 3.3842530733
H 0.9211300000 -1.0778770365 2.1512130733
H -0.9211300000 -1.0778770365 2.1512130733
H -0.9239400000 0.8029429635 3.7516230733
H 0.9239400000 0.8029429635 3.7516230733
$end


$rem
N_FROZEN_CORE FC
MEM_TOTAL 3750
MEM_STATIC 1500
AUX_BASIS_CORR rimp2-def2-QZVPPD
SCF_CONVERGENCE 7
SCF_ALGORITHM  GDM
method DSD-PBEPBE-D3
GEN_SCFMAN TRUE
UNRESTRICTED True
THRESH  14
SYMMETRY FALSE
SYM_IGNORE TRUE
max_scf_cycles 200

XC_GRID 000099000590
BASIS DEF2-QZVPPD


$end










