$molecule
0 1
O 0.0000000000 -0.4816042851 -2.6293650269
C 0.0000000000 0.7233257149 -2.5379950269
H 0.0000000000 1.2261957149 -1.5573550269
H 0.0000000000 1.3679357149 -3.4327650269
C 0.0000000000 -0.6291824862 2.1529874532
C 0.0000000000 0.3900975138 3.0151374532
H 0.9211300000 -1.0607824862 1.7820974532
H -0.9211300000 -1.0607824862 1.7820974532
H -0.9239400000 0.8200375138 3.3825074532
H 0.9239400000 0.8200375138 3.3825074532
$end


$rem
N_FROZEN_CORE FC
MEM_TOTAL 3750
MEM_STATIC 1500
AUX_BASIS_CORR rimp2-def2-QZVPPD
SCF_CONVERGENCE 7
SCF_ALGORITHM  GDM
method DSD-PBEPBE-D3
GEN_SCFMAN TRUE
UNRESTRICTED True
THRESH  14
SYMMETRY FALSE
SYM_IGNORE TRUE
max_scf_cycles 200

XC_GRID 000099000590
BASIS DEF2-QZVPPD


$end










