$molecule
0 1
O 0.0000000000 -0.4303206342 -3.7367118869
C 0.0000000000 0.7746093658 -3.6453418869
H 0.0000000000 1.2774793658 -2.6647018869
H 0.0000000000 1.4192193658 -4.5401118869
C 0.0000000000 -0.6804661371 3.2603343133
C 0.0000000000 0.3388138629 4.1224843133
H 0.9211300000 -1.1120661371 2.8894443133
H -0.9211300000 -1.1120661371 2.8894443133
H -0.9239400000 0.7687538629 4.4898543133
H 0.9239400000 0.7687538629 4.4898543133
$end


$rem
N_FROZEN_CORE FC
MEM_TOTAL 3750
MEM_STATIC 1500
AUX_BASIS_CORR rimp2-def2-QZVPPD
SCF_CONVERGENCE 7
SCF_ALGORITHM  GDM
method DSD-PBEPBE-D3
GEN_SCFMAN TRUE
UNRESTRICTED True
THRESH  14
SYMMETRY FALSE
SYM_IGNORE TRUE
max_scf_cycles 200

XC_GRID 000099000590
BASIS DEF2-QZVPPD


$end










