$molecule
0 1
C -1.4353960000 0.0555900000 0.0000000000
O -2.3032390000 0.9003830000 0.0000000000
H -1.6967780000 -1.0229480000 0.0000000000
C 0.0000000000 0.3370280000 0.0000000000
H 0.2956140000 1.3797930000 0.0000000000
C 0.8954340000 -0.6533240000 0.0000000000
C 2.3747280000 -0.4888710000 0.0000000000
H 2.8147750000 -0.9738400000 0.8750340000
H 2.8147750000 -0.9738400000 -0.8750340000
H 0.5225220000 -1.6747120000 0.0000000000
H 2.6664050000 0.5599490000 0.0000000000
$end


$rem
N_FROZEN_CORE FC
MEM_TOTAL 3750
MEM_STATIC 1500
AUX_BASIS_CORR rimp2-def2-QZVPPD
SCF_CONVERGENCE 7
SCF_ALGORITHM  GDM
method DSD-PBEPBE-D3
GEN_SCFMAN TRUE
UNRESTRICTED True
THRESH  14
SYMMETRY FALSE
SYM_IGNORE TRUE
max_scf_cycles 200

XC_GRID 000099000590
BASIS DEF2-QZVPPD


$end










