$molecule
0 1
O 0.4478320000 18.9761360000 6.0801580000
N 1.7539520000 19.3553770000 6.4196220000
C 2.4268790000 18.2304720000 6.5604090000
O 3.7042610000 18.1973870000 6.9147520000
C 1.6122040000 17.0947530000 6.2947760000
C 0.4079010000 17.6333330000 6.0092330000
H 4.0100410000 19.1112020000 7.2096480000
H 1.8894690000 16.0568480000 6.3327540000
H -0.5480590000 17.2170010000 5.7513940000
$end


$rem
N_FROZEN_CORE FC
MEM_TOTAL 3750
MEM_STATIC 1500
AUX_BASIS_CORR rimp2-def2-QZVPPD
SCF_CONVERGENCE 7
SCF_ALGORITHM  GDM
method DSD-PBEPBE-D3
GEN_SCFMAN TRUE
UNRESTRICTED True
THRESH  14
SYMMETRY FALSE
SYM_IGNORE TRUE
max_scf_cycles 200

XC_GRID 000099000590
BASIS DEF2-QZVPPD


$end










