$molecule
0 1
O 6.7089320000 2.9541360000 6.0801580000
N 8.0150520000 3.3333770000 6.4196220000
C 8.6879790000 2.2084720000 6.5604090000
O 9.9653610000 2.1753870000 6.9147520000
C 7.8733040000 1.0727530000 6.2947760000
C 6.6690010000 1.6113330000 6.0092330000
H 10.2711410000 3.0892020000 7.2096480000
H 8.1505690000 0.0348480000 6.3327540000
H 5.7130410000 1.1950010000 5.7513940000
$end


$rem
N_FROZEN_CORE FC
MEM_TOTAL 3750
MEM_STATIC 1500
AUX_BASIS_CORR rimp2-def2-QZVPPD
SCF_CONVERGENCE 7
SCF_ALGORITHM  GDM
method DSD-PBEPBE-D3
GEN_SCFMAN TRUE
UNRESTRICTED True
THRESH  14
SYMMETRY FALSE
SYM_IGNORE TRUE
max_scf_cycles 200

XC_GRID 000099000590
BASIS DEF2-QZVPPD


$end










