$molecule
-1 1
H 0.7140760193 -2.1841293213 0.0000000000
O -0.2329411248 -2.0366761605 0.0000000000
H -0.2806598667 -1.0454263671 0.0000000000
C -0.0983084938 0.8729199829 0.0000000000
N 0.0815329460 2.0369178661 0.0000000000
$end


$rem
N_FROZEN_CORE FC
MEM_TOTAL 3750
MEM_STATIC 1500
AUX_BASIS_CORR rimp2-def2-QZVPPD
SCF_CONVERGENCE 7
SCF_ALGORITHM  GDM
method DSD-PBEPBE-D3
GEN_SCFMAN TRUE
UNRESTRICTED True
THRESH  14
SYMMETRY FALSE
SYM_IGNORE TRUE
max_scf_cycles 200

XC_GRID 000099000590
BASIS DEF2-QZVPPD


$end










