$molecule
0 2
C -0.0105750245 -0.6958574487 0.0000000000
C -0.0105750245 0.7951840111 0.0000000000
H 1.0090827315 -1.0996831618 0.0000000000
H -0.5086202637 -1.0954814947 0.8834190193
H -0.5086202637 -1.0954814947 -0.8834190193
H 0.0675288330 1.3473433882 -0.9243191259
H 0.0675288330 1.3473433882 0.9243191259
$end


$rem
N_FROZEN_CORE FC
MEM_TOTAL 3750
MEM_STATIC 1500
AUX_BASIS_CORR rimp2-def2-QZVPPD
SCF_CONVERGENCE 7
SCF_ALGORITHM  GDM
method DSD-PBEPBE-D3
GEN_SCFMAN TRUE
UNRESTRICTED True
THRESH  14
SYMMETRY FALSE
SYM_IGNORE TRUE
max_scf_cycles 200

XC_GRID 000099000590
BASIS DEF2-QZVPPD


$end










