$molecule
0 1
C 0.0000000000 1.3929950000 1.8670310000
C -1.2070160000 0.6964890000 1.8677220000
C -1.2070160000 -0.6964890000 1.8677220000
C 0.0000000000 -1.3929950000 1.8670310000
C 1.2070160000 -0.6964890000 1.8677220000
C 1.2070160000 0.6964890000 1.8677220000
H -2.1437280000 1.2369970000 1.8646660000
H -2.1437280000 -1.2369970000 1.8646660000
H 0.0000000000 -2.4747470000 1.8670300000
H 2.1437280000 -1.2369970000 1.8646660000
H 2.1437280000 1.2369970000 1.8646660000
H 0.0000000000 2.4747470000 1.8670300000
$end


$rem
N_FROZEN_CORE FC
MEM_TOTAL 3750
MEM_STATIC 1500
AUX_BASIS_CORR rimp2-def2-QZVPPD
SCF_CONVERGENCE 7
SCF_ALGORITHM  GDM
method DSD-PBEPBE-D3
GEN_SCFMAN TRUE
UNRESTRICTED True
THRESH  14
SYMMETRY FALSE
SYM_IGNORE TRUE
max_scf_cycles 200

XC_GRID 000099000590
BASIS DEF2-QZVPPD


$end










