$molecule
0 1
C 0.0004860000 1.9211570000 0.0000000000
H 0.5123550000 2.2867260000 0.8858380000
H 0.5123550000 2.2867260000 -0.8858380000
H -1.0226020000 2.2866030000 0.0000000000
H 0.0005420000 0.8350220000 0.0000000000
O 0.0004860000 -1.8040340000 0.0000000000
H -0.0047270000 -2.3948730000 -0.7586310000
H -0.0047270000 -2.3948730000 0.7586310000
$end


$rem
N_FROZEN_CORE FC
MEM_TOTAL 3750
MEM_STATIC 1500
AUX_BASIS_CORR rimp2-def2-QZVPPD
SCF_CONVERGENCE 7
SCF_ALGORITHM  GDM
method DSD-PBEPBE-D3
GEN_SCFMAN TRUE
UNRESTRICTED True
THRESH  14
SYMMETRY FALSE
SYM_IGNORE TRUE
max_scf_cycles 200

XC_GRID 000099000590
BASIS DEF2-QZVPPD


$end










