$molecule
0 1
S 0.0000000000 0.0000000000 -1.6398620000
C 0.0000000000 -1.3574440000 -2.8229620000
C 0.0000000000 1.3574440000 -2.8229620000
H -0.8897120000 1.3302590000 -3.4497800000
H 0.0000000000 2.2842550000 -2.2540480000
H 0.8897120000 1.3302590000 -3.4497800000
H 0.8897120000 -1.3302590000 -3.4497800000
H 0.0000000000 -2.2842550000 -2.2540480000
H -0.8897120000 -1.3302590000 -3.4497800000
$end


$rem
N_FROZEN_CORE FC
MEM_TOTAL 3750
MEM_STATIC 1500
AUX_BASIS_CORR rimp2-def2-QZVPPD
SCF_CONVERGENCE 7
SCF_ALGORITHM  GDM
method DSD-PBEPBE-D3
GEN_SCFMAN TRUE
UNRESTRICTED True
THRESH  14
SYMMETRY FALSE
SYM_IGNORE TRUE
max_scf_cycles 200

XC_GRID 000099000590
BASIS DEF2-QZVPPD


$end










