$molecule
0 1
C 0.0000000000 0.8768010000 0.7781350000
C -0.7593320000 -0.4384010000 0.7781350000
C 0.7593320000 -0.4384010000 0.7781350000
C 0.0000000000 0.8768010000 -0.7781350000
C -0.7593320000 -0.4384010000 -0.7781350000
C 0.7593320000 -0.4384010000 -0.7781350000
H 0.0000000000 1.6695330000 -1.5101340000
H 0.0000000000 1.6695330000 1.5101340000
H 1.4458580000 -0.8347670000 1.5101340000
H 1.4458580000 -0.8347670000 -1.5101340000
H -1.4458580000 -0.8347670000 -1.5101340000
H -1.4458580000 -0.8347670000 1.5101340000
$end


$rem
N_FROZEN_CORE FC
MEM_TOTAL 3750
MEM_STATIC 1500
AUX_BASIS_CORR rimp2-def2-QZVPPD
SCF_CONVERGENCE 7
SCF_ALGORITHM  GDM
method DSD-PBEPBE-D3
GEN_SCFMAN TRUE
UNRESTRICTED True
THRESH  14
SYMMETRY FALSE
SYM_IGNORE TRUE
max_scf_cycles 200

XC_GRID 000099000590
BASIS DEF2-QZVPPD


$end










