$molecule
0 1
C 0.0000000000 0.6035640000 -4.3636670357
H 0.0000000000 1.6684758100 -4.3662287557
C 0.0000000000 -0.6035640000 -4.3636670357
H 0.0000000000 -1.6684758100 -4.3662287557
C 0.0000000000 -0.0000000000 3.7602279879
H 0.0000000000 -0.0000000000 2.6932947879
C 0.0000000000 -0.0000000000 4.9676982879
H 0.0000000000 -0.0000000000 6.0321114479
$end


$rem
N_FROZEN_CORE FC
MEM_TOTAL 3750
MEM_STATIC 1500
AUX_BASIS_CORR rimp2-def2-QZVPPD
SCF_CONVERGENCE 7
SCF_ALGORITHM  GDM
method DSD-PBEPBE-D3
GEN_SCFMAN TRUE
UNRESTRICTED True
THRESH  14
SYMMETRY FALSE
SYM_IGNORE TRUE
max_scf_cycles 200

XC_GRID 000099000590
BASIS DEF2-QZVPPD


$end










