$molecule
0 1
C 0.0000000000 0.6035640000 -1.9635410032
H 0.0000000000 1.6684758100 -1.9661027232
C 0.0000000000 -0.6035640000 -1.9635410032
H 0.0000000000 -1.6684758100 -1.9661027232
C 0.0000000000 -0.0000000000 1.3601019554
H 0.0000000000 -0.0000000000 0.2931687554
C 0.0000000000 -0.0000000000 2.5675722554
H 0.0000000000 -0.0000000000 3.6319854154
$end


$rem
N_FROZEN_CORE FC
MEM_TOTAL 3750
MEM_STATIC 1500
AUX_BASIS_CORR rimp2-def2-QZVPPD
SCF_CONVERGENCE 7
SCF_ALGORITHM  GDM
method DSD-PBEPBE-D3
GEN_SCFMAN TRUE
UNRESTRICTED True
THRESH  14
SYMMETRY FALSE
SYM_IGNORE TRUE
max_scf_cycles 200

XC_GRID 000099000590
BASIS DEF2-QZVPPD


$end










