$molecule
0 1
C 0.0000000000 0.6035640000 -3.0545073816
H 0.0000000000 1.6684758100 -3.0570691016
C 0.0000000000 -0.6035640000 -3.0545073816
H 0.0000000000 -1.6684758100 -3.0570691016
C 0.0000000000 -0.0000000000 2.4510683338
H 0.0000000000 -0.0000000000 1.3841351338
C 0.0000000000 -0.0000000000 3.6585386338
H 0.0000000000 -0.0000000000 4.7229517938
$end


$rem
N_FROZEN_CORE FC
MEM_TOTAL 3750
MEM_STATIC 1500
AUX_BASIS_CORR rimp2-def2-QZVPPD
SCF_CONVERGENCE 7
SCF_ALGORITHM  GDM
method DSD-PBEPBE-D3
GEN_SCFMAN TRUE
UNRESTRICTED True
THRESH  14
SYMMETRY FALSE
SYM_IGNORE TRUE
max_scf_cycles 200

XC_GRID 000099000590
BASIS DEF2-QZVPPD


$end










