$molecule
0 1
C 0.0000000000 0.6035640000 -3.4908939330
H 0.0000000000 1.6684758100 -3.4934556530
C 0.0000000000 -0.6035640000 -3.4908939330
H 0.0000000000 -1.6684758100 -3.4934556530
C 0.0000000000 -0.0000000000 2.8874548852
H 0.0000000000 -0.0000000000 1.8205216852
C 0.0000000000 -0.0000000000 4.0949251852
H 0.0000000000 -0.0000000000 5.1593383452
$end


$rem
N_FROZEN_CORE FC
MEM_TOTAL 3750
MEM_STATIC 1500
AUX_BASIS_CORR rimp2-def2-QZVPPD
SCF_CONVERGENCE 7
SCF_ALGORITHM  GDM
method DSD-PBEPBE-D3
GEN_SCFMAN TRUE
UNRESTRICTED True
THRESH  14
SYMMETRY FALSE
SYM_IGNORE TRUE
max_scf_cycles 200

XC_GRID 000099000590
BASIS DEF2-QZVPPD


$end










