$molecule
0 1
C 0.0000000000 0.6035640000 -2.6181208303
H 0.0000000000 1.6684758100 -2.6206825503
C 0.0000000000 -0.6035640000 -2.6181208303
H 0.0000000000 -1.6684758100 -2.6206825503
C 0.0000000000 -0.0000000000 2.0146817824
H 0.0000000000 -0.0000000000 0.9477485824
C 0.0000000000 -0.0000000000 3.2221520824
H 0.0000000000 -0.0000000000 4.2865652424
$end


$rem
N_FROZEN_CORE FC
MEM_TOTAL 3750
MEM_STATIC 1500
AUX_BASIS_CORR rimp2-def2-QZVPPD
SCF_CONVERGENCE 7
SCF_ALGORITHM  GDM
method DSD-PBEPBE-D3
GEN_SCFMAN TRUE
UNRESTRICTED True
THRESH  14
SYMMETRY FALSE
SYM_IGNORE TRUE
max_scf_cycles 200

XC_GRID 000099000590
BASIS DEF2-QZVPPD


$end










