$molecule
0 1
C 0.0000000000 0.6035640000 -2.3999275546
H 0.0000000000 1.6684758100 -2.4024892746
C 0.0000000000 -0.6035640000 -2.3999275546
H 0.0000000000 -1.6684758100 -2.4024892746
C 0.0000000000 -0.0000000000 1.7964885068
H 0.0000000000 -0.0000000000 0.7295553068
C 0.0000000000 -0.0000000000 3.0039588068
H 0.0000000000 -0.0000000000 4.0683719668
$end


$rem
N_FROZEN_CORE FC
MEM_TOTAL 3750
MEM_STATIC 1500
AUX_BASIS_CORR rimp2-def2-QZVPPD
SCF_CONVERGENCE 7
SCF_ALGORITHM  GDM
method DSD-PBEPBE-D3
GEN_SCFMAN TRUE
UNRESTRICTED True
THRESH  14
SYMMETRY FALSE
SYM_IGNORE TRUE
max_scf_cycles 200

XC_GRID 000099000590
BASIS DEF2-QZVPPD


$end










