$molecule
0 1
C 2.4370160000 5.5790020000 5.9690450000
C 3.2860740000 4.8438620000 6.8114030000
C 2.4982780000 3.8171850000 7.2950630000
H 0.4393120000 3.3640170000 6.8435750000
H 2.7275160000 3.0111750000 7.9676890000
H 4.3200610000 5.0343190000 7.0316610000
H 2.6506120000 6.4586510000 5.3864310000
N 1.2713340000 3.9727730000 6.7574220000
N 1.2149050000 5.0437600000 5.9366700000
$end


$rem
N_FROZEN_CORE FC
MEM_TOTAL 3750
MEM_STATIC 1500
AUX_BASIS_CORR rimp2-def2-QZVPPD
SCF_CONVERGENCE 7
SCF_ALGORITHM  GDM
method DSD-PBEPBE-D3
GEN_SCFMAN TRUE
UNRESTRICTED True
THRESH  14
SYMMETRY FALSE
SYM_IGNORE TRUE
max_scf_cycles 200

XC_GRID 000099000590
BASIS DEF2-QZVPPD


$end










