$molecule
0 1
N 0.0000000000 -0.0128697876 -2.5983086131
H -0.8112300000 -0.4686897876 -2.9977786131
H 0.0000000000 -0.2313497876 -1.6086186131
H 0.8112300000 -0.4686897876 -2.9977786131
C 0.0000000000 -0.5599008412 2.7781773048
C 0.0000000000 0.7192991588 2.3959073048
H 0.9231200000 1.2609591588 2.2315773048
H -0.9231200000 1.2609591588 2.2315773048
H -0.9238900000 -1.1006708412 2.9421673048
H 0.9238900000 -1.1006708412 2.9421673048
$end


$rem
N_FROZEN_CORE FC
MEM_TOTAL 3750
MEM_STATIC 1500
AUX_BASIS_CORR rimp2-def2-QZVPPD
SCF_CONVERGENCE 7
SCF_ALGORITHM  GDM
method DSD-PBEPBE-D3
GEN_SCFMAN TRUE
UNRESTRICTED True
THRESH  14
SYMMETRY FALSE
SYM_IGNORE TRUE
max_scf_cycles 200

XC_GRID 000099000590
BASIS DEF2-QZVPPD


$end










