$molecule
0 1
N 0.0000000000 -0.0470539973 -3.7070305516
H -0.8112300000 -0.5028739973 -4.1065005516
H 0.0000000000 -0.2655339973 -2.7173405516
H 0.8112300000 -0.5028739973 -4.1065005516
C 0.0000000000 -0.5257166314 3.8868992432
C 0.0000000000 0.7534833686 3.5046292432
H 0.9231200000 1.2951433686 3.3402992432
H -0.9231200000 1.2951433686 3.3402992432
H -0.9238900000 -1.0664866314 4.0508892432
H 0.9238900000 -1.0664866314 4.0508892432
$end


$rem
N_FROZEN_CORE FC
MEM_TOTAL 3750
MEM_STATIC 1500
AUX_BASIS_CORR rimp2-def2-QZVPPD
SCF_CONVERGENCE 7
SCF_ALGORITHM  GDM
method DSD-PBEPBE-D3
GEN_SCFMAN TRUE
UNRESTRICTED True
THRESH  14
SYMMETRY FALSE
SYM_IGNORE TRUE
max_scf_cycles 200

XC_GRID 000099000590
BASIS DEF2-QZVPPD


$end










