$molecule
0 1
N 0.0000000000 0.0099196856 -1.8591606542
H -0.8112300000 -0.4459003144 -2.2586306542
H 0.0000000000 -0.2085603144 -0.8694706542
H 0.8112300000 -0.4459003144 -2.2586306542
C 0.0000000000 -0.5826903144 2.0390293458
C 0.0000000000 0.6965096856 1.6567593458
H 0.9231200000 1.2381696856 1.4924293458
H -0.9231200000 1.2381696856 1.4924293458
H -0.9238900000 -1.1234603144 2.2030193458
H 0.9238900000 -1.1234603144 2.2030193458
$end


$rem
N_FROZEN_CORE FC
MEM_TOTAL 3750
MEM_STATIC 1500
AUX_BASIS_CORR rimp2-def2-QZVPPD
SCF_CONVERGENCE 7
SCF_ALGORITHM  GDM
method DSD-PBEPBE-D3
GEN_SCFMAN TRUE
UNRESTRICTED True
THRESH  14
SYMMETRY FALSE
SYM_IGNORE TRUE
max_scf_cycles 200

XC_GRID 000099000590
BASIS DEF2-QZVPPD


$end










