$molecule
0 1
N 0.0000000000 0.0156170539 -1.6743736644
H -0.8112300000 -0.4402029461 -2.0738436644
H 0.0000000000 -0.2028629461 -0.6846836644
H 0.8112300000 -0.4402029461 -2.0738436644
C 0.0000000000 -0.5883876827 1.8542423561
C 0.0000000000 0.6908123173 1.4719723561
H 0.9231200000 1.2324723173 1.3076423561
H -0.9231200000 1.2324723173 1.3076423561
H -0.9238900000 -1.1291576827 2.0182323561
H 0.9238900000 -1.1291576827 2.0182323561
$end


$rem
N_FROZEN_CORE FC
MEM_TOTAL 3750
MEM_STATIC 1500
AUX_BASIS_CORR rimp2-def2-QZVPPD
SCF_CONVERGENCE 7
SCF_ALGORITHM  GDM
method DSD-PBEPBE-D3
GEN_SCFMAN TRUE
UNRESTRICTED True
THRESH  14
SYMMETRY FALSE
SYM_IGNORE TRUE
max_scf_cycles 200

XC_GRID 000099000590
BASIS DEF2-QZVPPD


$end










