$molecule
0 1
N 0.0000000000 -0.0014750510 -2.2287346337
H -0.8112300000 -0.4572950510 -2.6282046337
H 0.0000000000 -0.2199550510 -1.2390446337
H 0.8112300000 -0.4572950510 -2.6282046337
C 0.0000000000 -0.5712955778 2.4086033253
C 0.0000000000 0.7079044222 2.0263333253
H 0.9231200000 1.2495644222 1.8620033253
H -0.9231200000 1.2495644222 1.8620033253
H -0.9238900000 -1.1120655778 2.5725933253
H 0.9238900000 -1.1120655778 2.5725933253
$end


$rem
N_FROZEN_CORE FC
MEM_TOTAL 3750
MEM_STATIC 1500
AUX_BASIS_CORR rimp2-def2-QZVPPD
SCF_CONVERGENCE 7
SCF_ALGORITHM  GDM
method DSD-PBEPBE-D3
GEN_SCFMAN TRUE
UNRESTRICTED True
THRESH  14
SYMMETRY FALSE
SYM_IGNORE TRUE
max_scf_cycles 200

XC_GRID 000099000590
BASIS DEF2-QZVPPD


$end










