$molecule
0 1
Br -0.9276650000 -1.6749340000 0.0000000000
Br 0.0000000000 0.4398310000 0.0000000000
O 1.3621370000 2.8164610000 0.0000000000
C 2.5554380000 2.6111560000 0.0000000000
H 3.2763780000 3.4418500000 0.0000000000
H 2.9621550000 1.5881420000 0.0000000000
$end


$rem
N_FROZEN_CORE FC
MEM_TOTAL 3750
MEM_STATIC 1500
AUX_BASIS_CORR rimp2-def2-QZVPPD
SCF_CONVERGENCE 7
SCF_ALGORITHM  GDM
method DSD-PBEPBE-D3
GEN_SCFMAN TRUE
UNRESTRICTED True
THRESH  14
SYMMETRY FALSE
SYM_IGNORE TRUE
max_scf_cycles 200

XC_GRID 000099000590
BASIS DEF2-QZVPPD


$end










