$molecule
0 1
C 0.7832680000 0.7832680000 0.7832680000
C -0.7832680000 0.7832680000 0.7832680000
C -0.7832680000 0.7832680000 -0.7832680000
C 0.7832680000 0.7832680000 -0.7832680000
C 0.7832680000 -0.7832680000 0.7832680000
C -0.7832680000 -0.7832680000 0.7832680000
C -0.7832680000 -0.7832680000 -0.7832680000
C 0.7832680000 -0.7832680000 -0.7832680000
H 1.4102050000 -1.4102050000 1.4102050000
H 1.4102050000 1.4102050000 1.4102050000
H -1.4102050000 1.4102050000 1.4102050000
H -1.4102050000 -1.4102050000 1.4102050000
H -1.4102050000 1.4102050000 -1.4102050000
H -1.4102050000 -1.4102050000 -1.4102050000
H 1.4102050000 -1.4102050000 -1.4102050000
H 1.4102050000 1.4102050000 -1.4102050000
$end


$rem
N_FROZEN_CORE FC
MEM_TOTAL 7500
MEM_STATIC 3000
AUX_BASIS_CORR rimp2-def2-QZVPPD
SCF_CONVERGENCE 7
SCF_ALGORITHM  GDM
method DSD-PBEPBE-D3
GEN_SCFMAN TRUE
UNRESTRICTED True
THRESH  14
SYMMETRY FALSE
SYM_IGNORE TRUE
max_scf_cycles 200

XC_GRID 000099000590
BASIS DEF2-QZVPPD


$end










