$molecule
0 1
C -1.0752470000 1.0229700000 0.0000000000
C -1.2426790000 -0.4925420000 0.0000000000
H -1.5396430000 1.4660740000 0.8794130000
H -0.7893880000 -0.9409140000 0.8849590000
H -0.0239280000 1.3054320000 0.0000000000
H -0.7893880000 -0.9409140000 -0.8849590000
H -1.5396430000 1.4660740000 -0.8794130000
H -2.2935660000 -0.7778080000 0.0000000000
O 2.1532130000 -0.3642260000 0.0000000000
H 1.3035680000 -0.8161750000 0.0000000000
H 2.8005650000 -1.0752240000 0.0000000000
$end


$rem
N_FROZEN_CORE FC
MEM_TOTAL 3750
MEM_STATIC 1500
AUX_BASIS_CORR rimp2-def2-QZVPPD
SCF_CONVERGENCE 7
SCF_ALGORITHM  GDM
method DSD-PBEPBE-D3
GEN_SCFMAN TRUE
UNRESTRICTED True
THRESH  14
SYMMETRY FALSE
SYM_IGNORE TRUE
max_scf_cycles 200

XC_GRID 000099000590
BASIS DEF2-QZVPPD


$end










