$molecule
0 2
C -0.5678759402 0.0000510000 -0.2189581837
C 0.7511405919 -0.0000360000 0.0419320022
H -1.4938831414 -0.0004880003 1.5317669379
H -1.1016940352 0.9206519278 -0.4086264088
H -1.1020221250 -0.9202338778 -0.4091100767
H 1.2991300525 -0.9223452949 0.1737632748
H 1.2988972145 0.9223241278 0.1743628326
$end


$rem
N_FROZEN_CORE FC
MEM_TOTAL 3750
MEM_STATIC 1500
AUX_BASIS_CORR rimp2-def2-QZVPPD
SCF_CONVERGENCE 7
SCF_ALGORITHM  GDM
method DSD-PBEPBE-D3
GEN_SCFMAN TRUE
UNRESTRICTED True
THRESH  14
SYMMETRY FALSE
SYM_IGNORE TRUE
max_scf_cycles 200

XC_GRID 000099000590
BASIS DEF2-QZVPPD


$end










