$molecule
0 1
S 0.7795150000 2.2579720000 0.0000000000
C -1.0155710000 2.4889970000 0.0000000000
H 0.7549130000 0.9233500000 0.0000000000
H -1.1906270000 3.5618040000 0.0000000000
H -1.4663540000 2.0587130000 -0.8892640000
H -1.4663540000 2.0587130000 0.8892640000
$end


$rem
N_FROZEN_CORE FC
MEM_TOTAL 3750
MEM_STATIC 1500
AUX_BASIS_CORR rimp2-def2-QZVPPD
SCF_CONVERGENCE 7
SCF_ALGORITHM  GDM
method DSD-PBEPBE-D3
GEN_SCFMAN TRUE
UNRESTRICTED True
THRESH  14
SYMMETRY FALSE
SYM_IGNORE TRUE
max_scf_cycles 200

XC_GRID 000099000590
BASIS DEF2-QZVPPD


$end










