$molecule
0 1
C 0.0000000000 0.0000000000 1.4421770000
C 0.0000000000 0.0000000000 -1.4421770000
C 0.0000000000 1.2357820000 0.6715020000
C 0.0000000000 -1.2357820000 0.6715020000
C 0.0000000000 1.2357820000 -0.6715020000
C 0.0000000000 -1.2357820000 -0.6715020000
C 0.0000000000 0.0000000000 2.7905520000
C 0.0000000000 0.0000000000 -2.7905520000
H 0.0000000000 2.1704090000 1.2183420000
H 0.0000000000 -2.1704090000 1.2183420000
H 0.0000000000 2.1704090000 -1.2183420000
H 0.0000000000 -2.1704090000 -1.2183420000
H 0.0000000000 0.9228700000 3.3540530000
H 0.0000000000 -0.9228700000 3.3540530000
H 0.0000000000 -0.9228700000 -3.3540530000
H 0.0000000000 0.9228700000 -3.3540530000
$end


$rem
N_FROZEN_CORE FC
MEM_TOTAL 7500
MEM_STATIC 3000
AUX_BASIS_CORR rimp2-def2-QZVPPD
SCF_CONVERGENCE 7
SCF_ALGORITHM  GDM
method DSD-PBEPBE-D3
GEN_SCFMAN TRUE
UNRESTRICTED True
THRESH  14
SYMMETRY FALSE
SYM_IGNORE TRUE
max_scf_cycles 200

XC_GRID 000099000590
BASIS DEF2-QZVPPD


$end










