$molecule
0 1
C 0.0000000000 1.2735300000 -0.2591150000
H -0.8805310000 1.3176890000 -0.9033530000
H 0.8805310000 1.3176890000 -0.9033530000
H 0.0000000000 2.1682800000 0.3647950000
C 0.0000000000 0.0000000000 0.5847940000
H 0.8733490000 0.0000000000 1.2422190000
H -0.8733490000 0.0000000000 1.2422190000
C 0.0000000000 -1.2735300000 -0.2591150000
H 0.8805310000 -1.3176890000 -0.9033530000
H 0.0000000000 -2.1682800000 0.3647950000
H -0.8805310000 -1.3176890000 -0.9033530000
$end


$rem
N_FROZEN_CORE FC
MEM_TOTAL 3750
MEM_STATIC 1500
AUX_BASIS_CORR rimp2-def2-QZVPPD
SCF_CONVERGENCE 7
SCF_ALGORITHM  GDM
method DSD-PBEPBE-D3
GEN_SCFMAN TRUE
UNRESTRICTED True
THRESH  14
SYMMETRY FALSE
SYM_IGNORE TRUE
max_scf_cycles 200

XC_GRID 000099000590
BASIS DEF2-QZVPPD


$end










