$molecule
0 1
C -0.8503850000 -0.6866430000 0.0000000000
O -0.3839890000 -1.8096460000 0.0000000000
C 0.0000000000 0.5308890000 0.0000000000
H -0.5019120000 1.4922830000 0.0000000000
C 1.3308440000 0.4605710000 0.0000000000
C 2.2587640000 1.6241460000 0.0000000000
H 2.9137980000 1.5918210000 0.8745520000
H 2.9137980000 1.5918210000 -0.8745520000
H 1.7737960000 -0.5306570000 0.0000000000
H 1.7258910000 2.5741080000 0.0000000000
C -2.3429310000 -0.4487340000 0.0000000000
H -2.6285930000 0.1362880000 0.8772820000
H -2.6285930000 0.1362880000 -0.8772820000
H -2.8740250000 -1.3961540000 0.0000000000
$end


$rem
N_FROZEN_CORE FC
MEM_TOTAL 7500
MEM_STATIC 3000
AUX_BASIS_CORR rimp2-def2-QZVPPD
SCF_CONVERGENCE 7
SCF_ALGORITHM  GDM
method DSD-PBEPBE-D3
GEN_SCFMAN TRUE
UNRESTRICTED True
THRESH  14
SYMMETRY FALSE
SYM_IGNORE TRUE
max_scf_cycles 200

XC_GRID 000099000590
BASIS DEF2-QZVPPD


$end










