$molecule
0 1
C -0.1102740000 0.5294760000 0.0464170000
H -0.2958080000 1.6012220000 0.1242940000
O -1.1063940000 -0.2685780000 -0.0202970000
C 1.1041160000 -0.1756580000 -0.0471980000
H 1.2713590000 -0.8242250000 0.8119420000
H -0.0984020000 -1.0283340000 -0.3389690000
H 2.0109500000 0.2770490000 -0.4302050000
$end


$rem
N_FROZEN_CORE FC
MEM_TOTAL 3750
MEM_STATIC 1500
AUX_BASIS_CORR rimp2-def2-QZVPPD
SCF_CONVERGENCE 7
SCF_ALGORITHM  GDM
method DSD-PBEPBE-D3
GEN_SCFMAN TRUE
UNRESTRICTED True
THRESH  14
SYMMETRY FALSE
SYM_IGNORE TRUE
max_scf_cycles 200

XC_GRID 000099000590
BASIS DEF2-QZVPPD


$end










