$molecule
0 1
C -4.1734850000 7.2286880000 5.4607500000
N -3.4557480000 8.3545470000 5.4607500000
H -3.6324330000 6.2915590000 5.4607500000
C -6.1235300000 8.3545470000 5.4607500000
N -5.5073760000 7.1700390000 5.4607500000
H -7.2056340000 8.3545470000 5.4607500000
C -4.1734850000 9.4804060000 5.4607500000
N -5.5073760000 9.5390550000 5.4607500000
H -3.6324330000 10.4175350000 5.4607500000
$end


$rem
N_FROZEN_CORE FC
MEM_TOTAL 3750
MEM_STATIC 1500
AUX_BASIS_CORR rimp2-def2-QZVPPD
SCF_CONVERGENCE 7
SCF_ALGORITHM  GDM
method DSD-PBEPBE-D3
GEN_SCFMAN TRUE
UNRESTRICTED True
THRESH  14
SYMMETRY FALSE
SYM_IGNORE TRUE
max_scf_cycles 200

XC_GRID 000099000590
BASIS DEF2-QZVPPD


$end










