$molecule
0 1
C -3.5234700000 8.3545470000 9.1012500000
N -4.1396240000 7.1700390000 9.1012500000
H -2.4413660000 8.3545470000 9.1012500000
C -5.4735150000 9.4804060000 9.1012500000
N -4.1396240000 9.5390550000 9.1012500000
H -6.0145670000 10.4175350000 9.1012500000
C -5.4735150000 7.2286880000 9.1012500000
N -6.1912520000 8.3545470000 9.1012500000
H -6.0145670000 6.2915590000 9.1012500000
$end


$rem
N_FROZEN_CORE FC
MEM_TOTAL 3750
MEM_STATIC 1500
AUX_BASIS_CORR rimp2-def2-QZVPPD
SCF_CONVERGENCE 7
SCF_ALGORITHM  GDM
method DSD-PBEPBE-D3
GEN_SCFMAN TRUE
UNRESTRICTED True
THRESH  14
SYMMETRY FALSE
SYM_IGNORE TRUE
max_scf_cycles 200

XC_GRID 000099000590
BASIS DEF2-QZVPPD


$end










