$molecule
0 1
C -3.5234700000 13.9242450000 6.6742500000
N -4.1396240000 12.7397370000 6.6742500000
H -2.4413660000 13.9242450000 6.6742500000
C -5.4735150000 15.0501040000 6.6742500000
N -4.1396240000 15.1087530000 6.6742500000
H -6.0145670000 15.9872330000 6.6742500000
C -5.4735150000 12.7983860000 6.6742500000
N -6.1912520000 13.9242450000 6.6742500000
H -6.0145670000 11.8612570000 6.6742500000
C 0.6500150000 10.0135370000 7.8877500000
N 1.3677520000 11.1393960000 7.8877500000
H 1.1910670000 9.0764080000 7.8877500000
C -1.3000300000 11.1393960000 7.8877500000
N -0.6838760000 9.9548880000 7.8877500000
H -2.3821340000 11.1393960000 7.8877500000
C 0.6500150000 12.2652550000 7.8877500000
N -0.6838760000 12.3239040000 7.8877500000
H 1.1910670000 13.2023840000 7.8877500000
$end


$rem
N_FROZEN_CORE FC
MEM_TOTAL 15000
MEM_STATIC 6000
AUX_BASIS_CORR rimp2-def2-QZVPPD
SCF_CONVERGENCE 7
SCF_ALGORITHM  GDM
method DSD-PBEPBE-D3
GEN_SCFMAN TRUE
UNRESTRICTED True
THRESH  14
SYMMETRY FALSE
SYM_IGNORE TRUE
max_scf_cycles 200

XC_GRID 000099000590
BASIS DEF2-QZVPPD


$end










