$molecule
0 1
C -4.1734850000 12.7983860000 10.3147500000
N -3.4557480000 13.9242450000 10.3147500000
H -3.6324330000 11.8612570000 10.3147500000
C -6.1235300000 13.9242450000 10.3147500000
N -5.5073760000 12.7397370000 10.3147500000
H -7.2056340000 13.9242450000 10.3147500000
C -4.1734850000 15.0501040000 10.3147500000
N -5.5073760000 15.1087530000 10.3147500000
H -3.6324330000 15.9872330000 10.3147500000
$end


$rem
N_FROZEN_CORE FC
MEM_TOTAL 3750
MEM_STATIC 1500
AUX_BASIS_CORR rimp2-def2-QZVPPD
SCF_CONVERGENCE 7
SCF_ALGORITHM  GDM
method DSD-PBEPBE-D3
GEN_SCFMAN TRUE
UNRESTRICTED True
THRESH  14
SYMMETRY FALSE
SYM_IGNORE TRUE
max_scf_cycles 200

XC_GRID 000099000590
BASIS DEF2-QZVPPD


$end










