$molecule
0 1
C 0.6500150000 10.0135370000 7.8877500000
N 1.3677520000 11.1393960000 7.8877500000
H 1.1910670000 9.0764080000 7.8877500000
C -1.3000300000 11.1393960000 7.8877500000
N -0.6838760000 9.9548880000 7.8877500000
H -2.3821340000 11.1393960000 7.8877500000
C 0.6500150000 12.2652550000 7.8877500000
N -0.6838760000 12.3239040000 7.8877500000
H 1.1910670000 13.2023840000 7.8877500000
$end


$rem
N_FROZEN_CORE FC
MEM_TOTAL 3750
MEM_STATIC 1500
AUX_BASIS_CORR rimp2-def2-QZVPPD
SCF_CONVERGENCE 7
SCF_ALGORITHM  GDM
method DSD-PBEPBE-D3
GEN_SCFMAN TRUE
UNRESTRICTED True
THRESH  14
SYMMETRY FALSE
SYM_IGNORE TRUE
max_scf_cycles 200

XC_GRID 000099000590
BASIS DEF2-QZVPPD


$end










