$molecule
0 1
C -3.5234700000 13.9242450000 6.6742500000
N -4.1396240000 12.7397370000 6.6742500000
H -2.4413660000 13.9242450000 6.6742500000
C -5.4735150000 15.0501040000 6.6742500000
N -4.1396240000 15.1087530000 6.6742500000
H -6.0145670000 15.9872330000 6.6742500000
C -5.4735150000 12.7983860000 6.6742500000
N -6.1912520000 13.9242450000 6.6742500000
H -6.0145670000 11.8612570000 6.6742500000
$end


$rem
N_FROZEN_CORE FC
MEM_TOTAL 3750
MEM_STATIC 1500
AUX_BASIS_CORR rimp2-def2-QZVPPD
SCF_CONVERGENCE 7
SCF_ALGORITHM  GDM
method DSD-PBEPBE-D3
GEN_SCFMAN TRUE
UNRESTRICTED True
THRESH  14
SYMMETRY FALSE
SYM_IGNORE TRUE
max_scf_cycles 200

XC_GRID 000099000590
BASIS DEF2-QZVPPD


$end










