$molecule
0 1
C -0.1143330000 -0.7773140000 0.0000000000
S -0.3671070000 -2.3407370000 0.0000000000
N 0.0000000000 0.4011720000 0.0000000000
C 0.7998100000 1.5916030000 0.0000000000
H 1.4459510000 1.5702240000 0.8810490000
H 1.4459510000 1.5702240000 -0.8810490000
C -0.0557330000 2.8514470000 0.0000000000
H 0.5871280000 3.7317370000 0.0000000000
H -0.6918940000 2.8884970000 -0.8835040000
H -0.6918940000 2.8884970000 0.8835040000
$end


$rem
N_FROZEN_CORE FC
MEM_TOTAL 3750
MEM_STATIC 1500
AUX_BASIS_CORR rimp2-def2-QZVPPD
SCF_CONVERGENCE 7
SCF_ALGORITHM  GDM
method DSD-PBEPBE-D3
GEN_SCFMAN TRUE
UNRESTRICTED True
THRESH  14
SYMMETRY FALSE
SYM_IGNORE TRUE
max_scf_cycles 200

XC_GRID 000099000590
BASIS DEF2-QZVPPD


$end










