$molecule
0 1
N 0.0000000000 0.0000000000 4.6000000000
H 0.0000000000 0.0000000000 3.5890000000
H -0.6580357547 0.4683015807 5.2081147713
H -0.3526402981 -0.9366031613 4.4566809909
$end


$rem
N_FROZEN_CORE FC
MEM_TOTAL 3750
MEM_STATIC 1500
AUX_BASIS_CORR rimp2-def2-QZVPPD
SCF_CONVERGENCE 7
SCF_ALGORITHM  GDM
method DSD-PBEPBE-D3
GEN_SCFMAN TRUE
UNRESTRICTED True
THRESH  14
SYMMETRY FALSE
SYM_IGNORE TRUE
max_scf_cycles 200

XC_GRID 000099000590
BASIS DEF2-QZVPPD


$end










