$molecule
0 1
C 0.7020830000 1.8299680000 0.0000000000
C 0.7020830000 0.3024330000 0.0000000000
C -0.7020830000 -0.3024330000 0.0000000000
C -0.7020830000 -1.8299680000 0.0000000000
H 1.7169820000 2.2300090000 0.0000000000
H -1.7169820000 -2.2300090000 0.0000000000
H 0.1902620000 2.2231970000 0.8808850000
H 0.1902620000 2.2231970000 -0.8808850000
H -0.1902620000 -2.2231970000 0.8808850000
H -0.1902620000 -2.2231970000 -0.8808850000
H 1.2496260000 -0.0630800000 -0.8742330000
H 1.2496260000 -0.0630800000 0.8742330000
H -1.2496260000 0.0630800000 -0.8742330000
H -1.2496260000 0.0630800000 0.8742330000
$end


$rem
N_FROZEN_CORE FC
MEM_TOTAL 3750
MEM_STATIC 1500
AUX_BASIS_CORR rimp2-def2-QZVPPD
SCF_CONVERGENCE 7
SCF_ALGORITHM  GDM
method DSD-PBEPBE-D3
GEN_SCFMAN TRUE
UNRESTRICTED True
THRESH  14
SYMMETRY FALSE
SYM_IGNORE TRUE
max_scf_cycles 200

XC_GRID 000099000590
BASIS DEF2-QZVPPD


$end










