$molecule
0 1
C 0.0340330000 0.0000000000 0.1563770000
C -0.0476520000 0.0000000000 1.6788180000
H -0.9627570000 0.0000000000 -0.2853020000
H -0.5752460000 0.8795690000 2.0436780000
H 0.5631650000 0.8819240000 -0.2044970000
H 0.9457960000 0.0000000000 2.1238070000
H 0.5631650000 -0.8819240000 -0.2044970000
H -0.5752460000 -0.8795690000 2.0436780000
$end


$rem
N_FROZEN_CORE FC
MEM_TOTAL 3750
MEM_STATIC 1500
AUX_BASIS_CORR rimp2-def2-QZVPPD
SCF_CONVERGENCE 7
SCF_ALGORITHM  GDM
method DSD-PBEPBE-D3
GEN_SCFMAN TRUE
UNRESTRICTED True
THRESH  14
SYMMETRY FALSE
SYM_IGNORE TRUE
max_scf_cycles 200

XC_GRID 000099000590
BASIS DEF2-QZVPPD


$end










