$molecule
0 1
C 0.8968020000 -1.7904140000 0.8000790000
S -0.4304470000 -1.9113300000 -0.4264670000
H 0.5306840000 -2.2848040000 1.6958620000
H 1.1207990000 -0.7530080000 1.0293950000
H 1.7928230000 -2.3007820000 0.4611950000
H 0.1770210000 -1.2011730000 -1.3774990000
$end


$rem
N_FROZEN_CORE FC
MEM_TOTAL 3750
MEM_STATIC 1500
AUX_BASIS_CORR rimp2-def2-QZVPPD
SCF_CONVERGENCE 7
SCF_ALGORITHM  GDM
method DSD-PBEPBE-D3
GEN_SCFMAN TRUE
UNRESTRICTED True
THRESH  14
SYMMETRY FALSE
SYM_IGNORE TRUE
max_scf_cycles 200

XC_GRID 000099000590
BASIS DEF2-QZVPPD


$end










