$molecule
0 1
C -0.9839540000 1.7687210000 0.7165230000
S 0.4230290000 1.8128990000 -0.4223740000
H -1.4174060000 0.7779110000 0.6086580000
H -1.7278770000 2.5135260000 0.4523240000
H -0.6632310000 1.9053160000 1.7446430000
H 0.8287540000 3.0491710000 -0.1322480000
$end


$rem
N_FROZEN_CORE FC
MEM_TOTAL 3750
MEM_STATIC 1500
AUX_BASIS_CORR rimp2-def2-QZVPPD
SCF_CONVERGENCE 7
SCF_ALGORITHM  GDM
method DSD-PBEPBE-D3
GEN_SCFMAN TRUE
UNRESTRICTED True
THRESH  14
SYMMETRY FALSE
SYM_IGNORE TRUE
max_scf_cycles 200

XC_GRID 000099000590
BASIS DEF2-QZVPPD


$end










