$molecule
0 1
C 0.0000000000 1.3226430000 0.7833710000
C 1.2579090000 0.4087190000 0.7833710000
C 0.7774300000 -1.0700410000 0.7833710000
C -0.7774300000 -1.0700410000 0.7833710000
C -1.2579090000 0.4087190000 0.7833710000
C 0.0000000000 1.3226430000 -0.7833710000
C 1.2579090000 0.4087190000 -0.7833710000
C 0.7774300000 -1.0700410000 -0.7833710000
C -0.7774300000 -1.0700410000 -0.7833710000
C -1.2579090000 0.4087190000 -0.7833710000
H 0.0000000000 2.2305700000 -1.3807620000
H 2.1213980000 0.6892840000 -1.3807620000
H 1.3110960000 -1.8045690000 -1.3807620000
H -1.3110960000 -1.8045690000 -1.3807620000
H -2.1213980000 0.6892840000 -1.3807620000
H -2.1213980000 0.6892840000 1.3807620000
H 0.0000000000 2.2305700000 1.3807620000
H 2.1213980000 0.6892840000 1.3807620000
H 1.3110960000 -1.8045690000 1.3807620000
H -1.3110960000 -1.8045690000 1.3807620000
$end


$rem
N_FROZEN_CORE FC
MEM_TOTAL 15000
MEM_STATIC 6000
AUX_BASIS_CORR rimp2-def2-QZVPPD
SCF_CONVERGENCE 7
SCF_ALGORITHM  GDM
method DSD-PBEPBE-D3
GEN_SCFMAN TRUE
UNRESTRICTED True
THRESH  14
SYMMETRY FALSE
SYM_IGNORE TRUE
max_scf_cycles 200

XC_GRID 000099000590
BASIS DEF2-QZVPPD


$end










