$molecule
0 1
H 0.9244451000 -1.2317222100 -2.6684550708
H -0.9244451000 -1.2317222100 -2.6684550708
H -0.9244451000 1.2317222100 -2.6684550708
H 0.9244451000 1.2317222100 -2.6684550708
C 0.0000000000 0.6672877800 -2.6678271408
C 0.0000000000 -0.6672877800 -2.6678271408
H 0.0000000000 1.2334494800 3.5915802341
H 0.0000000000 1.2254714800 1.7400243041
H 0.0000000000 -1.2254714800 1.7400243041
H 0.0000000000 -1.2334494800 3.5915802341
C 0.0000000000 -0.6671169800 2.6682727341
C 0.0000000000 0.6671169800 2.6682727341
$end


$rem
N_FROZEN_CORE FC
MEM_TOTAL 3750
MEM_STATIC 1500
AUX_BASIS_CORR rimp2-def2-QZVPPD
SCF_CONVERGENCE 7
SCF_ALGORITHM  GDM
method DSD-PBEPBE-D3
GEN_SCFMAN TRUE
UNRESTRICTED True
THRESH  14
SYMMETRY FALSE
SYM_IGNORE TRUE
max_scf_cycles 200

XC_GRID 000099000590
BASIS DEF2-QZVPPD


$end










