$molecule
0 1
C -1.4612840000 1.0611100000 0.0000000000
C 0.0000000000 0.7291710000 0.0000000000
C -2.1502330000 -0.3393100000 0.0000000000
C 0.1744280000 -0.7283410000 0.0000000000
C -1.0216150000 -1.3383310000 0.0000000000
C 1.2244770000 1.2985240000 0.0000000000
C 1.5983680000 -1.0032710000 0.0000000000
C 2.2148340000 0.2089040000 0.0000000000
H 1.4727200000 2.3489950000 0.0000000000
H 3.2838670000 0.3675680000 0.0000000000
H 2.0688320000 -1.9725810000 0.0000000000
H -1.1974510000 -2.4064470000 0.0000000000
H -1.7552380000 1.6440060000 0.8751550000
H -1.7552380000 1.6440060000 -0.8751550000
H -2.7956720000 -0.4781410000 0.8723620000
H -2.7956720000 -0.4781410000 -0.8723620000
$end


$rem
N_FROZEN_CORE FC
MEM_TOTAL 7500
MEM_STATIC 3000
AUX_BASIS_CORR rimp2-def2-QZVPPD
SCF_CONVERGENCE 7
SCF_ALGORITHM  GDM
method DSD-PBEPBE-D3
GEN_SCFMAN TRUE
UNRESTRICTED True
THRESH  14
SYMMETRY FALSE
SYM_IGNORE TRUE
max_scf_cycles 200

XC_GRID 000099000590
BASIS DEF2-QZVPPD


$end










