$molecule
0 1
N 0.0000000000 0.0000000000 3.7291840000
C 0.0000000000 0.0000000000 4.8705010000
H 0.0000000000 0.0000000000 5.9381440000
N 0.0000000000 0.0000000000 -0.9174800000
O 0.0000000000 2.2834130000 -1.3118330000
O 0.0000000000 -2.2834130000 -1.3118330000
C 0.0000000000 -1.1515350000 -1.7034780000
C 0.0000000000 -0.6616450000 -3.1226130000
C 0.0000000000 0.6616450000 -3.1226130000
H 0.0000000000 1.3491800000 -3.9540520000
H 0.0000000000 -1.3491800000 -3.9540520000
C 0.0000000000 1.1515350000 -1.7034780000
Br 0.0000000000 0.0000000000 0.9133560000
$end


$rem
N_FROZEN_CORE FC
MEM_TOTAL 7500
MEM_STATIC 3000
AUX_BASIS_CORR rimp2-def2-QZVPPD
SCF_CONVERGENCE 7
SCF_ALGORITHM  GDM
method DSD-PBEPBE-D3
GEN_SCFMAN TRUE
UNRESTRICTED True
THRESH  14
SYMMETRY FALSE
SYM_IGNORE TRUE
max_scf_cycles 200

XC_GRID 000099000590
BASIS DEF2-QZVPPD


$end










