$molecule
0 1
C 0.0000000000 0.0000000000 0.5233060000
H 0.0000000000 0.0000000000 1.6096250000
N 0.0000000000 1.0548180000 -0.2648870000
H -0.3146900000 1.9646180000 0.0417700000
H 0.0000000000 0.0000000000 -1.1245910000
N 0.0000000000 -1.0548180000 -0.2648870000
H 0.3146900000 -1.9646180000 0.0417700000
$end


$rem
N_FROZEN_CORE FC
MEM_TOTAL 3750
MEM_STATIC 1500
AUX_BASIS_CORR rimp2-def2-QZVPPD
SCF_CONVERGENCE 7
SCF_ALGORITHM  GDM
method DSD-PBEPBE-D3
GEN_SCFMAN TRUE
UNRESTRICTED True
THRESH  14
SYMMETRY FALSE
SYM_IGNORE TRUE
max_scf_cycles 200

XC_GRID 000099000590
BASIS DEF2-QZVPPD


$end










