$molecule
0 1
C 5.5780160000 10.9752090000 4.1802960000
C 5.9590250000 12.1278750000 4.9713690000
C 5.5235470000 13.4457900000 4.3184990000
H 7.0333980000 12.0941210000 5.1478600000
H 5.4731210000 12.0478950000 5.9473230000
H 5.7456530000 15.4511290000 4.5225610000
H 6.6944050000 14.4820100000 5.6471540000
N 5.2700090000 10.0605850000 3.5559130000
N 6.0935120000 14.5411150000 4.8324600000
O 4.6991070000 13.4631410000 3.4022680000
$end


$rem
N_FROZEN_CORE FC
MEM_TOTAL 3750
MEM_STATIC 1500
AUX_BASIS_CORR rimp2-def2-QZVPPD
SCF_CONVERGENCE 7
SCF_ALGORITHM  GDM
method DSD-PBEPBE-D3
GEN_SCFMAN TRUE
UNRESTRICTED True
THRESH  14
SYMMETRY FALSE
SYM_IGNORE TRUE
max_scf_cycles 200

XC_GRID 000099000590
BASIS DEF2-QZVPPD


$end










