$molecule
0 1
C 4.0785800000 17.0045110000 2.8425450000
C 4.2056410000 19.4765830000 2.8975440000
C 3.5656480000 18.3348970000 2.2739370000
H 3.7178850000 18.3992880000 1.1960930000
H 2.4877140000 18.4162330000 2.4317430000
H 3.8898230000 14.9984940000 2.5873620000
H 2.9529600000 15.9852350000 1.4616400000
N 3.5697990000 15.9135240000 2.2630080000
N 4.7105200000 20.3844280000 3.3900700000
O 4.8709750000 16.9780770000 3.7875450000
$end


$rem
N_FROZEN_CORE FC
MEM_TOTAL 3750
MEM_STATIC 1500
AUX_BASIS_CORR rimp2-def2-QZVPPD
SCF_CONVERGENCE 7
SCF_ALGORITHM  GDM
method DSD-PBEPBE-D3
GEN_SCFMAN TRUE
UNRESTRICTED True
THRESH  14
SYMMETRY FALSE
SYM_IGNORE TRUE
max_scf_cycles 200

XC_GRID 000099000590
BASIS DEF2-QZVPPD


$end










