$molecule
0 1
C 0.0000000000 0.6927900000 0.0000000000
S 1.1179390000 1.7943940000 0.0000000000
N -0.9120340000 -0.0800990000 0.0000000000
C -1.2175210000 -1.4597950000 0.0000000000
H -1.7872820000 -1.7091600000 0.8956510000
F -0.0692320000 -2.2365850000 0.0000000000
H -1.7872820000 -1.7091600000 -0.8956510000
$end


$rem
N_FROZEN_CORE FC
MEM_TOTAL 3750
MEM_STATIC 1500
AUX_BASIS_CORR rimp2-def2-QZVPPD
SCF_CONVERGENCE 7
SCF_ALGORITHM  GDM
method DSD-PBEPBE-D3
GEN_SCFMAN TRUE
UNRESTRICTED True
THRESH  14
SYMMETRY FALSE
SYM_IGNORE TRUE
max_scf_cycles 200

XC_GRID 000099000590
BASIS DEF2-QZVPPD


$end










