$molecule
0 1
C 18.0590000000 18.9530000000 5.9450000000
H 18.1780000000 18.6570000000 6.9920000000
O 19.0830000000 19.9090000000 5.6100000000
H 19.9660000000 19.5400000000 5.8760000000
H 17.0704700000 19.3479900000 5.6678760000
H 18.1877700000 18.0658300000 5.3075470000
$end


$rem
N_FROZEN_CORE FC
MEM_TOTAL 3750
MEM_STATIC 1500
AUX_BASIS_CORR rimp2-def2-QZVPPD
SCF_CONVERGENCE 7
SCF_ALGORITHM  GDM
method DSD-PBEPBE-D3
GEN_SCFMAN TRUE
UNRESTRICTED True
THRESH  14
SYMMETRY FALSE
SYM_IGNORE TRUE
max_scf_cycles 200

XC_GRID 000099000590
BASIS DEF2-QZVPPD


$end










