$molecule
0 1
C 0.0000000000 0.0000000000 4.8000000000
H 0.0000000000 0.0000000000 3.7140500000
H 0.8866744622 0.5119217395 5.1619833327
H -1.0238434789 0.0000000000 5.1619833327
H 0.5119217395 -0.8866744622 5.1619833327
$end


$rem
N_FROZEN_CORE FC
MEM_TOTAL 3750
INTERNAL_STABILITY TRUE
MEM_STATIC 1500
AUX_BASIS_CORR rimp2-def2-QZVPPD
SCF_CONVERGENCE 7
SCF_ALGORITHM  GDM
method DSD-PBEPBE-D3
GEN_SCFMAN TRUE
UNRESTRICTED True
THRESH  14
SYMMETRY FALSE
SYM_IGNORE TRUE
max_scf_cycles 200

XC_GRID 000099000590
BASIS DEF2-QZVPPD


$end










