$molecule
0 1
C -1.1512510000 1.4886260000 0.0565430000
S 0.6512150000 1.3373110000 -0.0317350000
H -1.3600670000 2.3743760000 0.6500970000
H -1.5975520000 0.6272840000 0.5442690000
H -1.5827660000 1.6189910000 -0.9306930000
H 0.6584340000 0.2138020000 -0.7527070000
$end


$rem
N_FROZEN_CORE FC
MEM_TOTAL 3750
MEM_STATIC 1500
AUX_BASIS_CORR rimp2-def2-QZVPPD
SCF_CONVERGENCE 7
SCF_ALGORITHM  GDM
method DSD-PBEPBE-D3
GEN_SCFMAN TRUE
UNRESTRICTED True
THRESH  14
SYMMETRY FALSE
SYM_IGNORE TRUE
max_scf_cycles 200

XC_GRID 000099000590
BASIS DEF2-QZVPPD


$end










