$molecule
0 1
C -2.0123300000 -1.0445020000 0.0000000000
H -2.9495420000 -1.5444940000 0.0000000000
C -0.9419530000 -0.4722760000 0.0000000000
H -0.0000130000 0.0298270000 0.0000000000
O 1.9517630000 1.0399200000 0.0000000000
H 2.5305310000 1.1480900000 0.7603200000
H 2.5305310000 1.1480900000 -0.7603200000
$end


$rem
N_FROZEN_CORE FC
MEM_TOTAL 3750
MEM_STATIC 1500
AUX_BASIS_CORR rimp2-def2-QZVPPD
SCF_CONVERGENCE 7
SCF_ALGORITHM  GDM
method DSD-PBEPBE-D3
GEN_SCFMAN TRUE
UNRESTRICTED True
THRESH  14
SYMMETRY FALSE
SYM_IGNORE TRUE
max_scf_cycles 200

XC_GRID 000099000590
BASIS DEF2-QZVPPD


$end










