$molecule
0 1
C 0.1114100000 -2.2827700000 0.5613720000
O -0.0891840000 -2.0900520000 -0.6190560000
H -0.0551820000 -3.2681530000 1.0206450000
H 0.4685120000 -1.4801040000 1.2232850000
$end


$rem
N_FROZEN_CORE FC
MEM_TOTAL 3750
MEM_STATIC 1500
AUX_BASIS_CORR rimp2-def2-QZVPPD
SCF_CONVERGENCE 7
SCF_ALGORITHM  GDM
method DSD-PBEPBE-D3
GEN_SCFMAN TRUE
UNRESTRICTED True
THRESH  14
SYMMETRY FALSE
SYM_IGNORE TRUE
max_scf_cycles 200

XC_GRID 000099000590
BASIS DEF2-QZVPPD


$end










