$molecule
0 1
C 0.0000000000 0.0000000000 1.9281620000
C 0.0000000000 0.0000000000 -1.9281620000
C -1.1645730000 0.6723660000 1.4314820000
C 1.1645730000 -0.6723660000 -1.4314820000
C -0.7527550000 1.8083530000 0.6503900000
C 0.7527550000 -1.8083530000 -0.6503900000
C 0.7527550000 1.8083530000 0.6503900000
C -0.7527550000 -1.8083530000 -0.6503900000
C -1.1645730000 -0.6723660000 -1.4314820000
C 1.1645730000 0.6723660000 1.4314820000
C 0.0000000000 1.3447330000 -1.4314820000
C 0.0000000000 -1.3447330000 1.4314820000
C -1.9424570000 -0.2522720000 0.6503900000
C 1.9424570000 0.2522720000 -0.6503900000
C -1.1897020000 1.5560810000 -0.6503900000
C 1.1897020000 -1.5560810000 0.6503900000
C 1.1897020000 1.5560810000 -0.6503900000
C -1.1897020000 -1.5560810000 0.6503900000
C -1.9424570000 0.2522720000 -0.6503900000
C 1.9424570000 -0.2522720000 0.6503900000
$end




$rem
N_FROZEN_CORE FC
MEM_TOTAL 60000
MEM_STATIC 8000
AUX_BASIS_CORR rimp2-def2-QZVPPD
SCF_CONVERGENCE 7
method DSD-PBEPBE-D3
GEN_SCFMAN TRUE
UNRESTRICTED True
THRESH  14
SYMMETRY FALSE
SYM_IGNORE TRUE
max_scf_cycles 200
scf_algorithm gdm

XC_GRID 000099000590
NL_GRID 1
BASIS def2-QZVPPD


$end


