$molecule
0 1
N -0.9956370000 0.6802090000 -0.1559580000
H -1.0274530000 1.3176810000 0.6337210000
Br 0.7697770000 -0.0602640000 0.0045310000
C -2.0118370000 -0.3577260000 0.0251270000
H -2.9801120000 0.1476920000 -0.0092340000
H -1.9613370000 -1.0579180000 -0.8061240000
H -1.9328280000 -0.9133160000 0.9639760000
$end


$rem
N_FROZEN_CORE FC
MEM_TOTAL 3750
MEM_STATIC 1500
AUX_BASIS_CORR rimp2-def2-QZVPPD
SCF_CONVERGENCE 7
SCF_ALGORITHM  GDM
method DSD-PBEPBE-D3
GEN_SCFMAN TRUE
UNRESTRICTED True
THRESH  14
SYMMETRY FALSE
SYM_IGNORE TRUE
max_scf_cycles 200

XC_GRID 000099000590
BASIS DEF2-QZVPPD


$end










