$molecule
0 1
C 0.0000000000 0.6379512919 -2.3920775990
C 0.0000000000 -0.6875361081 -2.2373961990
H -0.9239996100 -1.2485547881 -2.1714282791
H 0.9239996100 -1.2485547881 -2.1714282791
H 0.9240360700 1.1989834619 -2.4571522991
H -0.9240360700 1.1989834619 -2.4571522991
H 0.0000000000 0.0790690861 1.2274372373
C 0.0000000000 0.0248300661 2.3143879774
H 0.8882545900 0.5187348761 2.7039104173
H -0.8882545900 0.5187348761 2.7039104173
H 0.0000000000 -1.0178330239 2.6268223973
$end


$rem
N_FROZEN_CORE FC
MEM_TOTAL 3750
MEM_STATIC 1500
AUX_BASIS_CORR rimp2-def2-QZVPPD
SCF_CONVERGENCE 7
SCF_ALGORITHM  GDM
method DSD-PBEPBE-D3
GEN_SCFMAN TRUE
UNRESTRICTED True
THRESH  14
SYMMETRY FALSE
SYM_IGNORE TRUE
max_scf_cycles 200

XC_GRID 000099000590
BASIS DEF2-QZVPPD


$end










