$molecule
0 1
C 0.0000000000 0.6356975248 -2.6025023872
C 0.0000000000 -0.6897898752 -2.4478209873
H -0.9239996100 -1.2508085552 -2.3818530672
H 0.9239996100 -1.2508085552 -2.3818530672
H 0.9240360700 1.1967296948 -2.6675770873
H -0.9240360700 1.1967296948 -2.6675770873
H 0.0000000000 0.0813228532 1.4378620255
C 0.0000000000 0.0270838332 2.5248127655
H 0.8882545900 0.5209886432 2.9143352055
H -0.8882545900 0.5209886432 2.9143352055
H 0.0000000000 -1.0155792568 2.8372471855
$end


$rem
N_FROZEN_CORE FC
MEM_TOTAL 3750
MEM_STATIC 1500
AUX_BASIS_CORR rimp2-def2-QZVPPD
SCF_CONVERGENCE 7
SCF_ALGORITHM  GDM
method DSD-PBEPBE-D3
GEN_SCFMAN TRUE
UNRESTRICTED True
THRESH  14
SYMMETRY FALSE
SYM_IGNORE TRUE
max_scf_cycles 200

XC_GRID 000099000590
BASIS DEF2-QZVPPD


$end










