$molecule
0 1
C 0.0000000000 0.6424588261 -1.9712280227
C 0.0000000000 -0.6830285739 -1.8165466226
H -0.9239996100 -1.2440472539 -1.7505787026
H 0.9239996100 -1.2440472539 -1.7505787026
H 0.9240360700 1.2034909961 -2.0363027226
H -0.9240360700 1.2034909961 -2.0363027226
H 0.0000000000 0.0745615519 0.8065876610
C 0.0000000000 0.0203225319 1.8935384010
H 0.8882545900 0.5142273419 2.2830608410
H -0.8882545900 0.5142273419 2.2830608410
H 0.0000000000 -1.0223405581 2.2059728210
$end


$rem
N_FROZEN_CORE FC
MEM_TOTAL 3750
MEM_STATIC 1500
AUX_BASIS_CORR rimp2-def2-QZVPPD
SCF_CONVERGENCE 7
SCF_ALGORITHM  GDM
method DSD-PBEPBE-D3
GEN_SCFMAN TRUE
UNRESTRICTED True
THRESH  14
SYMMETRY FALSE
SYM_IGNORE TRUE
max_scf_cycles 200

XC_GRID 000099000590
BASIS DEF2-QZVPPD


$end










