$molecule
0 1
C 0.0000000000 0.6176673881 -4.2859006928
C 0.0000000000 -0.7078200119 -4.1312192928
H -0.9239996100 -1.2688386919 -4.0652513728
H 0.9239996100 -1.2688386919 -4.0652513728
H 0.9240360700 1.1786995581 -4.3509753928
H -0.9240360700 1.1786995581 -4.3509753928
H 0.0000000000 0.0993529900 3.1212603311
C 0.0000000000 0.0451139700 4.2082110711
H 0.8882545900 0.5390187800 4.5977335111
H -0.8882545900 0.5390187800 4.5977335111
H 0.0000000000 -0.9975491200 4.5206454911
$end


$rem
N_FROZEN_CORE FC
MEM_TOTAL 3750
MEM_STATIC 1500
AUX_BASIS_CORR rimp2-def2-QZVPPD
SCF_CONVERGENCE 7
SCF_ALGORITHM  GDM
method DSD-PBEPBE-D3
GEN_SCFMAN TRUE
UNRESTRICTED True
THRESH  14
SYMMETRY FALSE
SYM_IGNORE TRUE
max_scf_cycles 200

XC_GRID 000099000590
BASIS DEF2-QZVPPD


$end










