$molecule
0 1
C -0.9144300000 -0.6279730000 0.0000000000
O -0.5310260000 -1.7865810000 0.0000000000
C 0.0000000000 0.5439440000 0.0000000000
H -0.4369120000 1.5369510000 0.0000000000
C 1.3199770000 0.3838300000 0.0000000000
C 2.3238860000 1.4838800000 0.0000000000
H 2.9750880000 1.4093830000 0.8745610000
H 2.9750880000 1.4093830000 -0.8745610000
H 1.6917160000 -0.6358150000 0.0000000000
H 1.8549810000 2.4672650000 0.0000000000
N -2.2435260000 -0.3107690000 0.0000000000
H -2.9143800000 -1.0589650000 0.0000000000
H -2.5692900000 0.6377490000 0.0000000000
$end


$rem
N_FROZEN_CORE FC
MEM_TOTAL 3750
MEM_STATIC 1500
AUX_BASIS_CORR rimp2-def2-QZVPPD
SCF_CONVERGENCE 7
SCF_ALGORITHM  GDM
method DSD-PBEPBE-D3
GEN_SCFMAN TRUE
UNRESTRICTED True
THRESH  14
SYMMETRY FALSE
SYM_IGNORE TRUE
max_scf_cycles 200

XC_GRID 000099000590
BASIS DEF2-QZVPPD


$end










