$molecule
0 1
N -2.4742360000 4.3764650000 10.3046620000
C -3.2872630000 4.8771510000 10.9789890000
N -4.2147830000 5.4873700000 11.6429300000
C -4.4763000000 5.1569560000 12.9180610000
N -3.7947710000 4.2291090000 13.5992320000
N -5.4551910000 5.8176070000 13.5343250000
H -4.1213400000 3.9573100000 14.5190260000
H -3.0507680000 3.6853350000 13.1788700000
H -5.6696210000 5.5870820000 14.4982550000
H -6.0086790000 6.4943600000 13.0092850000
$end


$rem
N_FROZEN_CORE FC
MEM_TOTAL 3750
MEM_STATIC 1500
AUX_BASIS_CORR rimp2-def2-QZVPPD
SCF_CONVERGENCE 7
SCF_ALGORITHM  GDM
method DSD-PBEPBE-D3
GEN_SCFMAN TRUE
UNRESTRICTED True
THRESH  14
SYMMETRY FALSE
SYM_IGNORE TRUE
max_scf_cycles 200

XC_GRID 000099000590
BASIS DEF2-QZVPPD


$end










