$molecule
0 1
N 0.3566820000 4.4711350000 4.4040100000
C -0.4563440000 3.9704490000 5.0783370000
N -1.3838640000 3.3602300000 5.7422780000
C -1.6453810000 3.6906440000 7.0174090000
N -0.9638530000 4.6184910000 7.6985800000
N -2.6242720000 3.0299930000 7.6336730000
H -1.2904220000 4.8902900000 8.6183740000
H -0.2198500000 5.1622650000 7.2782180000
H -2.8387030000 3.2605180000 8.5976040000
H -3.1777610000 2.3532400000 7.1086330000
$end


$rem
N_FROZEN_CORE FC
MEM_TOTAL 3750
MEM_STATIC 1500
AUX_BASIS_CORR rimp2-def2-QZVPPD
SCF_CONVERGENCE 7
SCF_ALGORITHM  GDM
method DSD-PBEPBE-D3
GEN_SCFMAN TRUE
UNRESTRICTED True
THRESH  14
SYMMETRY FALSE
SYM_IGNORE TRUE
max_scf_cycles 200

XC_GRID 000099000590
BASIS DEF2-QZVPPD


$end










