$molecule
0 1
N 1.4208310000 2.1645650000 7.3972930000
C 2.2338570000 2.6652510000 6.7229670000
N 3.1613780000 3.2754700000 6.0590250000
C 3.4228940000 2.9450560000 4.7838940000
N 2.7413660000 2.0172090000 4.1027230000
N 4.4017850000 3.6057070000 4.1676300000
H 3.0679350000 1.7454100000 3.1829300000
H 1.9973630000 1.4734350000 4.5230860000
H 4.6162160000 3.3751820000 3.2037000000
H 4.9552740000 4.2824600000 4.6926700000
$end


$rem
N_FROZEN_CORE FC
MEM_TOTAL 3750
MEM_STATIC 1500
AUX_BASIS_CORR rimp2-def2-QZVPPD
SCF_CONVERGENCE 7
SCF_ALGORITHM  GDM
method DSD-PBEPBE-D3
GEN_SCFMAN TRUE
UNRESTRICTED True
THRESH  14
SYMMETRY FALSE
SYM_IGNORE TRUE
max_scf_cycles 200

XC_GRID 000099000590
BASIS DEF2-QZVPPD


$end










