$molecule
0 1
C 1.0203440000 -2.1891310000 0.0000000000
H 0.5783710000 -2.6603500000 -0.8819280000
H 0.5783710000 -2.6603500000 0.8819280000
H 2.0894830000 -2.4116880000 0.0000000000
C 0.7597720000 -0.6824940000 0.0000000000
H 1.2348630000 -0.2317110000 0.8760780000
H 1.2348630000 -0.2317110000 -0.8760780000
C -0.7414550000 -0.3766680000 0.0000000000
H -1.1826390000 -0.8706700000 0.8716920000
H -1.1826390000 -0.8706700000 -0.8716920000
C -1.1492600000 1.1236300000 0.0000000000
H -1.7790480000 1.3214750000 0.8716810000
H -1.7790480000 1.3214750000 -0.8716810000
C 0.0000000000 2.1374860000 0.0000000000
H 0.6346820000 2.0310220000 -0.8820610000
H -0.3981180000 3.1546140000 0.0000000000
H 0.6346820000 2.0310220000 0.8820610000
$end


$rem
N_FROZEN_CORE FC
MEM_TOTAL 7500
MEM_STATIC 3000
AUX_BASIS_CORR rimp2-def2-QZVPPD
SCF_CONVERGENCE 7
SCF_ALGORITHM  GDM
method DSD-PBEPBE-D3
GEN_SCFMAN TRUE
UNRESTRICTED True
THRESH  14
SYMMETRY FALSE
SYM_IGNORE TRUE
max_scf_cycles 200

XC_GRID 000099000590
BASIS DEF2-QZVPPD


$end










