$molecule
0 1
C 0.0071056912 0.0000000000 2.3857181423
H 0.8521420412 0.0000000000 1.6948525723
H 0.3987790212 0.0000000000 3.4011154123
H -0.5990387788 -0.8899429900 2.2300928023
H -0.5990387788 0.8899429900 2.2300928023
B -0.0083881744 0.0000000000 -2.3835284987
H 0.5817162756 -1.0305180000 -2.4641439887
H 0.5817162756 1.0305180000 -2.4641439887
H -1.1918664844 0.0000000000 -2.2614209087
$end


$rem
N_FROZEN_CORE FC
MEM_TOTAL 3750
MEM_STATIC 1500
AUX_BASIS_CORR rimp2-def2-QZVPPD
SCF_CONVERGENCE 7
SCF_ALGORITHM  GDM
method DSD-PBEPBE-D3
GEN_SCFMAN TRUE
UNRESTRICTED True
THRESH  14
SYMMETRY FALSE
SYM_IGNORE TRUE
max_scf_cycles 200

XC_GRID 000099000590
BASIS DEF2-QZVPPD


$end










