$molecule
0 1
C 0.0044054014 0.0000000000 1.6399203086
H 0.8494417514 0.0000000000 0.9490547386
H 0.3960787314 0.0000000000 2.6553175786
H -0.6017390686 -0.8899429900 1.4842949685
H -0.6017390686 0.8899429900 1.4842949685
B -0.0056878846 0.0000000000 -1.6377306650
H 0.5844165654 -1.0305180000 -1.7183461550
H 0.5844165654 1.0305180000 -1.7183461550
H -1.1891661946 0.0000000000 -1.5156230749
$end


$rem
N_FROZEN_CORE FC
MEM_TOTAL 3750
MEM_STATIC 1500
AUX_BASIS_CORR rimp2-def2-QZVPPD
SCF_CONVERGENCE 7
SCF_ALGORITHM  GDM
method DSD-PBEPBE-D3
GEN_SCFMAN TRUE
UNRESTRICTED True
THRESH  14
SYMMETRY FALSE
SYM_IGNORE TRUE
max_scf_cycles 200

XC_GRID 000099000590
BASIS DEF2-QZVPPD


$end










