$molecule
0 1
C 0.0092659231 0.0000000000 2.9823564093
H 0.8543022731 0.0000000000 2.2914908393
H 0.4009392531 0.0000000000 3.9977536793
H -0.5968785469 -0.8899429900 2.8267310693
H -0.5968785469 0.8899429900 2.8267310693
B -0.0105484062 0.0000000000 -2.9801667657
H 0.5795560438 -1.0305180000 -3.0607822557
H 0.5795560438 1.0305180000 -3.0607822557
H -1.1940267163 0.0000000000 -2.8580591757
$end


$rem
N_FROZEN_CORE FC
MEM_TOTAL 3750
MEM_STATIC 1500
AUX_BASIS_CORR rimp2-def2-QZVPPD
SCF_CONVERGENCE 7
SCF_ALGORITHM  GDM
method DSD-PBEPBE-D3
GEN_SCFMAN TRUE
UNRESTRICTED True
THRESH  14
SYMMETRY FALSE
SYM_IGNORE TRUE
max_scf_cycles 200

XC_GRID 000099000590
BASIS DEF2-QZVPPD


$end










