$molecule
0 1
C 0.0060255753 0.0000000000 2.0873990088
H 0.8510619253 0.0000000000 1.3965334388
H 0.3976989053 0.0000000000 3.1027962788
H -0.6001188947 -0.8899429900 1.9317736688
H -0.6001188947 0.8899429900 1.9317736688
B -0.0073080585 0.0000000000 -2.0852093652
H 0.5827963915 -1.0305180000 -2.1658248552
H 0.5827963915 1.0305180000 -2.1658248552
H -1.1907863685 0.0000000000 -1.9631017752
$end


$rem
N_FROZEN_CORE FC
MEM_TOTAL 3750
MEM_STATIC 1500
AUX_BASIS_CORR rimp2-def2-QZVPPD
SCF_CONVERGENCE 7
SCF_ALGORITHM  GDM
method DSD-PBEPBE-D3
GEN_SCFMAN TRUE
UNRESTRICTED True
THRESH  14
SYMMETRY FALSE
SYM_IGNORE TRUE
max_scf_cycles 200

XC_GRID 000099000590
BASIS DEF2-QZVPPD


$end










