$molecule
0 1
C 0.0049454593 0.0000000000 1.7890798753
H 0.8499818093 0.0000000000 1.0982143053
H 0.3966187893 0.0000000000 2.8044771453
H -0.6011990107 -0.8899429900 1.6334545353
H -0.6011990107 0.8899429900 1.6334545353
B -0.0062279425 0.0000000000 -1.7868902317
H 0.5838765075 -1.0305180000 -1.8675057217
H 0.5838765075 1.0305180000 -1.8675057217
H -1.1897062525 0.0000000000 -1.6647826417
$end


$rem
N_FROZEN_CORE FC
MEM_TOTAL 3750
MEM_STATIC 1500
AUX_BASIS_CORR rimp2-def2-QZVPPD
SCF_CONVERGENCE 7
SCF_ALGORITHM  GDM
method DSD-PBEPBE-D3
GEN_SCFMAN TRUE
UNRESTRICTED True
THRESH  14
SYMMETRY FALSE
SYM_IGNORE TRUE
max_scf_cycles 200

XC_GRID 000099000590
BASIS DEF2-QZVPPD


$end










