$molecule
0 1
S 0.6780360000 0.9581940000 0.0000000000
C -1.0974220000 1.3143960000 0.0000000000
H 0.5574890000 -0.3712440000 0.0000000000
H -1.5784660000 0.9190180000 0.8891110000
H -1.1983720000 2.3962870000 0.0000000000
H -1.5784660000 0.9190180000 -0.8891110000
$end


$rem
N_FROZEN_CORE FC
MEM_TOTAL 3750
MEM_STATIC 1500
AUX_BASIS_CORR rimp2-def2-QZVPPD
SCF_CONVERGENCE 7
SCF_ALGORITHM  GDM
method DSD-PBEPBE-D3
GEN_SCFMAN TRUE
UNRESTRICTED True
THRESH  14
SYMMETRY FALSE
SYM_IGNORE TRUE
max_scf_cycles 200

XC_GRID 000099000590
BASIS DEF2-QZVPPD


$end










