$molecule
0 1
C 1.2112320000 3.9187830000 0.0000000000
C 0.0000000000 4.1014800000 0.0000000000
C -1.3234960000 3.8823060000 0.0000000000
C -2.4107890000 3.3181670000 0.0000000000
C -3.3526930000 2.3629210000 0.0000000000
C -3.9007390000 1.2674270000 0.0000000000
C -4.1012750000 -0.0590200000 0.0000000000
C -3.9007390000 -1.2674270000 0.0000000000
C -3.2833100000 -2.4584180000 0.0000000000
C -2.4107890000 -3.3181670000 0.0000000000
C -1.2112320000 -3.9187830000 0.0000000000
C 0.0000000000 -4.1014800000 0.0000000000
C 1.3234960000 -3.8823060000 0.0000000000
C 2.4107890000 -3.3181670000 0.0000000000
C 3.3526930000 -2.3629210000 0.0000000000
C 3.9007390000 -1.2674270000 0.0000000000
C 4.1012750000 0.0590200000 0.0000000000
C 3.9007390000 1.2674270000 0.0000000000
C 3.2833100000 2.4584180000 0.0000000000
C 2.4107890000 3.3181670000 0.0000000000
$end




$rem
N_FROZEN_CORE FC
MEM_TOTAL 30000
MEM_STATIC 8000
AUX_BASIS_CORR rimp2-def2-QZVPPD
SCF_CONVERGENCE 7
method DSD-PBEPBE-D3
GEN_SCFMAN TRUE
UNRESTRICTED True
THRESH  14
SYMMETRY FALSE
SYM_IGNORE TRUE
max_scf_cycles 200
scf_algorithm gdm

XC_GRID 000099000590
NL_GRID 1
BASIS def2-QZVPPD


$end




