$molecule
0 1
F 0.0000000000 0.0000000032 1.4296682813
H 0.0000000000 -0.0000000008 0.4803209691
N 0.0000000000 -0.0000000017 -1.2161919479
H 0.0000000000 0.9406400491 -1.5917171076
H 0.8146175985 -0.4703200233 -1.5917170974
H -0.8146175985 -0.4703200233 -1.5917170974
$end


$rem
N_FROZEN_CORE FC
MEM_TOTAL 3750
MEM_STATIC 1500
AUX_BASIS_CORR rimp2-def2-QZVPPD
SCF_CONVERGENCE 7
SCF_ALGORITHM  GDM
method DSD-PBEPBE-D3
GEN_SCFMAN TRUE
UNRESTRICTED True
THRESH  14
SYMMETRY FALSE
SYM_IGNORE TRUE
max_scf_cycles 200

XC_GRID 000099000590
BASIS DEF2-QZVPPD


$end










