$molecule
0 1
C 1.4103340000 2.8963870000 0.0000000000
H 2.4251130000 3.2969710000 0.0000000000
H 0.8984460000 3.2900300000 0.8806320000
H 0.8984460000 3.2900300000 -0.8806320000
C 1.4103340000 1.3688050000 0.0000000000
H 1.9587030000 1.0044050000 -0.8739570000
H 1.9587030000 1.0044050000 0.8739570000
C 0.0060060000 0.7642760000 0.0000000000
H -0.5428340000 1.1299540000 -0.8745590000
H -0.5428340000 1.1299540000 0.8745590000
C -0.0060060000 -0.7642760000 0.0000000000
H 0.5428340000 -1.1299540000 0.8745590000
H 0.5428340000 -1.1299540000 -0.8745590000
C -1.4103340000 -1.3688050000 0.0000000000
H -1.9587030000 -1.0044050000 -0.8739570000
H -1.9587030000 -1.0044050000 0.8739570000
C -1.4103340000 -2.8963870000 0.0000000000
H -0.8984460000 -3.2900300000 0.8806320000
H -2.4251130000 -3.2969710000 0.0000000000
H -0.8984460000 -3.2900300000 -0.8806320000
$end


$rem
N_FROZEN_CORE FC
MEM_TOTAL 15000
MEM_STATIC 6000
AUX_BASIS_CORR rimp2-def2-QZVPPD
SCF_CONVERGENCE 7
SCF_ALGORITHM  GDM
method DSD-PBEPBE-D3
GEN_SCFMAN TRUE
UNRESTRICTED True
THRESH  14
SYMMETRY FALSE
SYM_IGNORE TRUE
max_scf_cycles 200

XC_GRID 000099000590
BASIS DEF2-QZVPPD


$end










