$molecule
0 1
N 0.0000000000 0.0000000000 -0.0086530000
F 1.2295530000 0.0000000000 -0.5957160000
F -0.6147760000 -1.0648240000 -0.5957160000
F -0.6147760000 1.0648240000 -0.5957160000
H 0.0000000000 0.0000000000 2.0441120000
F 0.0000000000 0.0000000000 2.9644740000
$end


$rem
N_FROZEN_CORE FC
MEM_TOTAL 3750
MEM_STATIC 1500
AUX_BASIS_CORR rimp2-def2-QZVPPD
SCF_CONVERGENCE 7
SCF_ALGORITHM  GDM
method DSD-PBEPBE-D3
GEN_SCFMAN TRUE
UNRESTRICTED True
THRESH  14
SYMMETRY FALSE
SYM_IGNORE TRUE
max_scf_cycles 200

XC_GRID 000099000590
BASIS DEF2-QZVPPD


$end










