$molecule
0 1
N -0.0000143205 0.0000000000 -0.0181807681
Br -0.0000073539 0.0000000000 2.3363631259
H 0.9492689748 0.0000000000 -0.3754086403
H -0.4746226672 -0.8220852228 -0.3753732558
H -0.4746226672 0.8220852228 -0.3753732558
F -0.0000019660 0.0000000000 4.1641427940
$end


$rem
N_FROZEN_CORE FC
MEM_TOTAL 3750
MEM_STATIC 1500
AUX_BASIS_CORR rimp2-def2-QZVPPD
SCF_CONVERGENCE 7
SCF_ALGORITHM  GDM
method DSD-PBEPBE-D3
GEN_SCFMAN TRUE
UNRESTRICTED True
THRESH  14
SYMMETRY FALSE
SYM_IGNORE TRUE
max_scf_cycles 200

XC_GRID 000099000590
BASIS DEF2-QZVPPD


$end










