$molecule
0 1
C 0.0125190000 0.6782930000 0.0000000000
C -0.0125190000 -0.6782930000 0.0000000000
C -1.3879380000 1.2062400000 0.0000000000
C 1.3879380000 -1.2062400000 0.0000000000
C 1.3879380000 1.1442140000 0.0000000000
C -1.3879380000 -1.1442140000 0.0000000000
C -2.2043340000 -0.0685180000 0.0000000000
C 2.2043340000 0.0685180000 0.0000000000
H -1.6085310000 1.8258020000 0.8756540000
H -1.6085310000 1.8258020000 -0.8756540000
H 1.6085310000 -1.8258020000 0.8756540000
H 1.6085310000 -1.8258020000 -0.8756540000
H 1.7071020000 2.1763890000 0.0000000000
H -1.7071020000 -2.1763890000 0.0000000000
H -3.2834580000 -0.0837050000 0.0000000000
H 3.2834580000 0.0837050000 0.0000000000
$end


$rem
N_FROZEN_CORE FC
MEM_TOTAL 7500
MEM_STATIC 3000
AUX_BASIS_CORR rimp2-def2-QZVPPD
SCF_CONVERGENCE 7
SCF_ALGORITHM  GDM
method DSD-PBEPBE-D3
GEN_SCFMAN TRUE
UNRESTRICTED True
THRESH  14
SYMMETRY FALSE
SYM_IGNORE TRUE
max_scf_cycles 200

XC_GRID 000099000590
BASIS DEF2-QZVPPD


$end










