$molecule
0 2
C -0.0597730000 -0.6246540000 0.0000000000
H -1.0791590000 -1.0084150000 0.0000000000
H 0.4688670000 -1.0258630000 0.8766530000
H 0.4688670000 -1.0258630000 -0.8766530000
N -0.0597730000 0.8128790000 0.0000000000
H 0.9184750000 1.1179170000 0.0000000000
$end


$rem
N_FROZEN_CORE FC
MEM_TOTAL 3750
MEM_STATIC 1500
AUX_BASIS_CORR rimp2-def2-QZVPPD
SCF_CONVERGENCE 7
SCF_ALGORITHM  GDM
method DSD-PBEPBE-D3
GEN_SCFMAN TRUE
UNRESTRICTED True
THRESH  14
SYMMETRY FALSE
SYM_IGNORE TRUE
max_scf_cycles 200

XC_GRID 000099000590
BASIS DEF2-QZVPPD


$end










