$molecule
0 1
N 0.0000000000 0.0000000000 4.1093070000
C 0.0000000000 0.0000000000 5.2518830000
H 0.0000000000 0.0000000000 6.3191830000
Br 0.0000000000 0.0000000000 0.9199240000
C 0.0000000000 0.0000000000 -0.9700350000
C 0.0000000000 1.2049620000 -1.6546890000
C 0.0000000000 1.1989940000 -3.0415740000
C 0.0000000000 0.0000000000 -3.7380000000
C 0.0000000000 -1.1989940000 -3.0415740000
C 0.0000000000 -1.2049620000 -1.6546890000
H 0.0000000000 2.1377390000 -1.1071010000
H 0.0000000000 2.1395310000 -3.5775870000
H 0.0000000000 0.0000000000 -4.8202470000
H 0.0000000000 -2.1395310000 -3.5775870000
H 0.0000000000 -2.1377390000 -1.1071010000
$end


$rem
N_FROZEN_CORE FC
MEM_TOTAL 7500
MEM_STATIC 3000
AUX_BASIS_CORR rimp2-def2-QZVPPD
SCF_CONVERGENCE 7
SCF_ALGORITHM  GDM
method DSD-PBEPBE-D3
GEN_SCFMAN TRUE
UNRESTRICTED True
THRESH  14
SYMMETRY FALSE
SYM_IGNORE TRUE
max_scf_cycles 200

XC_GRID 000099000590
BASIS DEF2-QZVPPD


$end










