$molecule
0 1
C -1.0849920000 -0.0427640000 0.0286480000
O -2.1851640000 -0.5604370000 -0.0059440000
C 0.1957960000 -0.8758160000 0.1384340000
H -0.0341040000 -1.8332470000 -0.3283020000
C 1.4190670000 -0.2591060000 -0.4649080000
H 0.3532100000 -1.0663420000 1.2029830000
C 2.4609750000 0.1897220000 0.2249050000
H 2.4971080000 0.1167310000 1.3054220000
H 3.3176670000 0.6325120000 -0.2645480000
H 1.4243160000 -0.1725530000 -1.5471090000
N -0.9034630000 1.3037010000 0.0134020000
H 0.0149040000 1.7090990000 0.0385840000
H -1.7126260000 1.8991640000 -0.0157710000
$end


$rem
N_FROZEN_CORE FC
MEM_TOTAL 3750
MEM_STATIC 1500
AUX_BASIS_CORR rimp2-def2-QZVPPD
SCF_CONVERGENCE 7
SCF_ALGORITHM  GDM
method DSD-PBEPBE-D3
GEN_SCFMAN TRUE
UNRESTRICTED True
THRESH  14
SYMMETRY FALSE
SYM_IGNORE TRUE
max_scf_cycles 200

XC_GRID 000099000590
BASIS DEF2-QZVPPD


$end










