$molecule
0 1
C 0.0000000000 0.4210500000 0.0000000000
H -0.3830970000 1.4480390000 0.0000000000
O 1.1585460000 0.1172000000 0.0000000000
O -1.0282070000 -0.4460330000 0.0000000000
H -0.6596160000 -1.3436710000 0.0000000000
$end


$rem
N_FROZEN_CORE FC
MEM_TOTAL 3750
MEM_STATIC 1500
AUX_BASIS_CORR rimp2-def2-QZVPPD
SCF_CONVERGENCE 7
SCF_ALGORITHM  GDM
method DSD-PBEPBE-D3
GEN_SCFMAN TRUE
UNRESTRICTED True
THRESH  14
SYMMETRY FALSE
SYM_IGNORE TRUE
max_scf_cycles 200

XC_GRID 000099000590
BASIS DEF2-QZVPPD


$end










