$molecule
0 1
C 0.0000000000 0.2025240000 0.0000000000
S -0.9055670000 1.5016690000 0.0000000000
N 0.7374380000 -0.7226870000 0.0000000000
C 1.0115000000 -2.1198350000 0.0000000000
H 2.0871920000 -2.2853520000 0.0000000000
H 0.5854100000 -2.5893400000 0.8881720000
H 0.5854100000 -2.5893400000 -0.8881720000
$end


$rem
N_FROZEN_CORE FC
MEM_TOTAL 3750
MEM_STATIC 1500
AUX_BASIS_CORR rimp2-def2-QZVPPD
SCF_CONVERGENCE 7
SCF_ALGORITHM  GDM
method DSD-PBEPBE-D3
GEN_SCFMAN TRUE
UNRESTRICTED True
THRESH  14
SYMMETRY FALSE
SYM_IGNORE TRUE
max_scf_cycles 200

XC_GRID 000099000590
BASIS DEF2-QZVPPD


$end










