$molecule
0 1
C 1.0000000000 0.0000000000 -0.3915000000
C 1.0000000000 1.2050740000 0.3042500000
C 1.0000000000 1.2050740000 1.6957500000
C 1.0000000000 0.0000000000 2.3915000000
C 1.0000000000 -1.2050740000 1.6957500000
C 1.0000000000 -1.2050740000 0.3042500000
H 1.0000000000 0.0000000000 -1.4715000000
H 1.0000000000 2.1403820000 -0.2357500000
H 1.0000000000 2.1403820000 2.2357500000
H 1.0000000000 0.0000000000 3.4715000000
H 1.0000000000 -2.1403820000 2.2357500000
H 1.0000000000 -2.1403820000 -0.2357500000
C -2.7085000000 0.0000000000 1.0000000000
C -3.4042500000 -1.2050740000 1.0000000000
C -4.7957500000 -1.2050740000 1.0000000000
C -5.4915000000 0.0000000000 1.0000000000
C -4.7957500000 1.2050740000 1.0000000000
C -3.4042500000 1.2050740000 1.0000000000
H -1.6285000000 0.0000000000 1.0000000000
H -2.8642500000 -2.1403820000 1.0000000000
H -5.3357500000 -2.1403820000 1.0000000000
H -6.5715000000 0.0000000000 1.0000000000
H -5.3357500000 2.1403820000 1.0000000000
H -2.8642500000 2.1403820000 1.0000000000
$end


$rem
N_FROZEN_CORE FC
MEM_TOTAL 30000
MEM_STATIC 8000
AUX_BASIS_CORR rimp2-def2-QZVPPD
SCF_CONVERGENCE 7
SCF_ALGORITHM  GDM
method DSD-PBEPBE-D3
GEN_SCFMAN TRUE
UNRESTRICTED True
THRESH  14
SYMMETRY FALSE
SYM_IGNORE TRUE
max_scf_cycles 200

XC_GRID 000099000590
BASIS DEF2-QZVPPD


$end










