$molecule
0 1
C 1.3915000000 0.0000000000 1.0000000000
C 0.6957500000 1.2050743494 1.0000000000
C -0.6957500000 1.2050743494 1.0000000000
C -1.3915000000 0.0000000000 1.0000000000
C -0.6957500000 -1.2050743494 1.0000000000
C 0.6957500000 -1.2050743494 1.0000000000
H 2.4715000000 -0.0000000000 1.0000000000
H 1.2357500000 2.1403817855 1.0000000000
H -1.2357500000 2.1403817855 1.0000000000
H -2.4715000000 0.0000000000 1.0000000000
H -1.2357500000 -2.1403817855 1.0000000000
H 1.2357500000 -2.1403817855 1.0000000000
Cl 0.0000000000 0.0000000000 8.0000000000
H 0.0000000000 0.0000000000 6.7253000000
$end


$rem
N_FROZEN_CORE FC
MEM_TOTAL 7500
MEM_STATIC 3000
AUX_BASIS_CORR rimp2-def2-QZVPPD
SCF_CONVERGENCE 7
SCF_ALGORITHM  GDM
method DSD-PBEPBE-D3
GEN_SCFMAN TRUE
UNRESTRICTED True
THRESH  14
SYMMETRY FALSE
SYM_IGNORE TRUE
max_scf_cycles 200

XC_GRID 000099000590
BASIS DEF2-QZVPPD


$end










