$molecule
0 1
C 0.6066460000 -0.0197920000 0.9883710000
C -0.6066460000 -0.0197920000 0.9883710000
H 1.6699290000 -0.0201180000 0.9937330000
H -1.6699290000 -0.0201180000 0.9937330000
$end


$rem
N_FROZEN_CORE FC
MEM_TOTAL 3750
MEM_STATIC 1500
AUX_BASIS_CORR rimp2-def2-QZVPPD
SCF_CONVERGENCE 7
SCF_ALGORITHM  GDM
method DSD-PBEPBE-D3
GEN_SCFMAN TRUE
UNRESTRICTED True
THRESH  14
SYMMETRY FALSE
SYM_IGNORE TRUE
max_scf_cycles 200

XC_GRID 000099000590
BASIS DEF2-QZVPPD


$end










