$molecule
0 1
S 0.6884700000 0.9277630000 0.0000000000
C -1.0479140000 1.4416290000 0.0000000000
H 0.4486240000 -0.3898520000 0.0000000000
H -1.5632010000 1.0916860000 0.8894020000
H -1.0544590000 2.5282110000 0.0000000000
H -1.5632010000 1.0916860000 -0.8894020000
N -0.0868710000 -2.6648650000 0.0000000000
H 0.3339750000 -3.1050980000 -0.8081040000
H 0.3339750000 -3.1050980000 0.8081040000
H -1.0568590000 -2.9528250000 0.0000000000
$end


$rem
N_FROZEN_CORE FC
MEM_TOTAL 3750
MEM_STATIC 1500
AUX_BASIS_CORR rimp2-def2-QZVPPD
SCF_CONVERGENCE 7
SCF_ALGORITHM  GDM
method DSD-PBEPBE-D3
GEN_SCFMAN TRUE
UNRESTRICTED True
THRESH  14
SYMMETRY FALSE
SYM_IGNORE TRUE
max_scf_cycles 200

XC_GRID 000099000590
BASIS DEF2-QZVPPD


$end










