$molecule
0 1
N -1.0263720000 0.7280890000 0.0000000000
F -1.1561230000 -0.1155790000 1.0628710000
F -1.1561230000 -0.1155790000 -1.0628710000
F 0.3363450000 0.9797470000 0.0000000000
H 1.8849130000 -0.4836410000 0.0000000000
F 2.5374510000 -1.1287460000 0.0000000000
$end


$rem
N_FROZEN_CORE FC
MEM_TOTAL 3750
MEM_STATIC 1500
AUX_BASIS_CORR rimp2-def2-QZVPPD
SCF_CONVERGENCE 7
SCF_ALGORITHM  GDM
method DSD-PBEPBE-D3
GEN_SCFMAN TRUE
UNRESTRICTED True
THRESH  14
SYMMETRY FALSE
SYM_IGNORE TRUE
max_scf_cycles 200

XC_GRID 000099000590
BASIS DEF2-QZVPPD


$end










