$molecule
1 1
N -0.5439710000 -1.0359180000 0.0000000000
H -1.1342300000 -1.1533280000 0.8257640000
Br 0.0000000000 0.8111820000 0.0000000000
C 0.5917610000 -2.0174260000 0.0000000000
H 0.1543300000 -3.0152320000 0.0000000000
H 1.1856780000 -1.8567420000 -0.8937950000
H 1.1856780000 -1.8567420000 0.8937950000
H -1.1342300000 -1.1533280000 -0.8257640000
$end


$rem
N_FROZEN_CORE FC
MEM_TOTAL 3750
MEM_STATIC 1500
AUX_BASIS_CORR rimp2-def2-QZVPPD
SCF_CONVERGENCE 7
SCF_ALGORITHM  GDM
method DSD-PBEPBE-D3
GEN_SCFMAN TRUE
UNRESTRICTED True
THRESH  14
SYMMETRY FALSE
SYM_IGNORE TRUE
max_scf_cycles 200

XC_GRID 000099000590
BASIS DEF2-QZVPPD


$end










