$molecule
0 1
C -0.9232580000 -0.5990300000 0.0000000000
O -0.6193990000 -1.7685420000 0.0000000000
C 0.0000000000 0.5483850000 0.0000000000
H -0.4417580000 1.5358180000 0.0000000000
C 1.3188080000 0.3653510000 0.0000000000
C 2.3352750000 1.4521420000 0.0000000000
H 2.9849210000 1.3675810000 0.8747870000
H 2.9849210000 1.3675810000 -0.8747870000
H 1.6817110000 -0.6573900000 0.0000000000
H 1.8782950000 2.4405290000 0.0000000000
O -2.2193220000 -0.1895600000 0.0000000000
H -2.7632720000 -0.9903950000 0.0000000000
$end


$rem
N_FROZEN_CORE FC
MEM_TOTAL 3750
MEM_STATIC 1500
AUX_BASIS_CORR rimp2-def2-QZVPPD
SCF_CONVERGENCE 7
SCF_ALGORITHM  GDM
method DSD-PBEPBE-D3
GEN_SCFMAN TRUE
UNRESTRICTED True
THRESH  14
SYMMETRY FALSE
SYM_IGNORE TRUE
max_scf_cycles 200

XC_GRID 000099000590
BASIS DEF2-QZVPPD


$end










