$molecule
0 1
C 0.0000000000 0.7917040000 0.0000000000
H -0.5532450000 1.7295730000 0.0000000000
H 0.9956360000 -0.5616640000 0.0000000000
O 1.2619690000 0.7764270000 0.0000000000
S -0.6586340000 -0.7580970000 0.0000000000
$end


$rem
N_FROZEN_CORE FC
MEM_TOTAL 3750
MEM_STATIC 1500
AUX_BASIS_CORR rimp2-def2-QZVPPD
SCF_CONVERGENCE 7
SCF_ALGORITHM  GDM
method DSD-PBEPBE-D3
GEN_SCFMAN TRUE
UNRESTRICTED True
THRESH  14
SYMMETRY FALSE
SYM_IGNORE TRUE
max_scf_cycles 200

XC_GRID 000099000590
BASIS DEF2-QZVPPD


$end










