$molecule
0 1
N 0.5670480000 4.8384450000 5.3704380000
O -0.4422920000 6.3333940000 4.0872220000
O 0.2331570000 7.0022410000 6.1257430000
C 0.1737170000 4.0467210000 4.2119850000
C -0.2666490000 5.1589130000 3.2448810000
C 0.1475550000 6.1097640000 5.2901260000
H 0.9699930000 4.4577300000 6.2300550000
H -0.6304810000 3.3557500000 4.4601120000
H 1.0127200000 3.4765850000 3.8170560000
H 0.4955680000 5.3983700000 2.5049840000
H -1.2101980000 4.9582020000 2.7507760000
$end


$rem
N_FROZEN_CORE FC
MEM_TOTAL 3750
MEM_STATIC 1500
AUX_BASIS_CORR rimp2-def2-QZVPPD
SCF_CONVERGENCE 7
SCF_ALGORITHM  GDM
method DSD-PBEPBE-D3
GEN_SCFMAN TRUE
UNRESTRICTED True
THRESH  14
SYMMETRY FALSE
SYM_IGNORE TRUE
max_scf_cycles 200

XC_GRID 000099000590
BASIS DEF2-QZVPPD


$end










