$molecule
0 1
O 0.0000000000 0.0000000000 -0.2035110000
C 0.6065690000 0.0000000000 3.1871600000
C -0.6065690000 0.0000000000 3.1871600000
H 1.6697460000 0.0000000000 3.1902150000
H -1.6697460000 0.0000000000 3.1902150000
H 0.0000000000 -0.7507790000 0.3980870000
H 0.0000000000 0.7507790000 0.3980870000
$end


$rem
N_FROZEN_CORE FC
MEM_TOTAL 3750
MEM_STATIC 1500
AUX_BASIS_CORR rimp2-def2-QZVPPD
SCF_CONVERGENCE 7
SCF_ALGORITHM  GDM
method DSD-PBEPBE-D3
GEN_SCFMAN TRUE
UNRESTRICTED True
THRESH  14
SYMMETRY FALSE
SYM_IGNORE TRUE
max_scf_cycles 200

XC_GRID 000099000590
BASIS DEF2-QZVPPD


$end










