$molecule
0 1
C -0.5630410000 2.2152370000 0.3783490000
C -2.1999720000 0.6200110000 0.3783490000
C -1.6369310000 -1.5952260000 0.3783490000
C 0.5630410000 -2.2152370000 0.3783490000
C 2.1999720000 -0.6200110000 0.3783490000
C 1.6369310000 1.5952260000 0.3783490000
C 2.1999720000 0.6200110000 -0.3783490000
C 0.5630410000 2.2152370000 -0.3783490000
C -1.6369310000 1.5952260000 -0.3783490000
C -2.1999720000 -0.6200110000 -0.3783490000
C -0.5630410000 -2.2152370000 -0.3783490000
C 1.6369310000 -1.5952260000 -0.3783490000
C -0.3382180000 1.3730410000 1.6244310000
C -1.3581970000 0.3936150000 1.6244310000
C -1.0199790000 -0.9794260000 1.6244310000
C 0.3382180000 -1.3730410000 1.6244310000
C 1.3581970000 -0.3936150000 1.6244310000
C 1.0199790000 0.9794260000 1.6244310000
C 1.3581970000 0.3936150000 -1.6244310000
C 0.3382180000 1.3730410000 -1.6244310000
C -1.0199790000 0.9794260000 -1.6244310000
C -1.3581970000 -0.3936150000 -1.6244310000
C -0.3382180000 -1.3730410000 -1.6244310000
C 1.0199790000 -0.9794260000 -1.6244310000
$end




$rem
N_FROZEN_CORE FC
MEM_TOTAL 60000
MEM_STATIC 8000
AUX_BASIS_CORR rimp2-def2-QZVPPD
SCF_CONVERGENCE 7
method DSD-PBEPBE-D3
GEN_SCFMAN TRUE
UNRESTRICTED True
THRESH  14
SYMMETRY FALSE
SYM_IGNORE TRUE
max_scf_cycles 200
scf_algorithm gdm

XC_GRID 000099000590
NL_GRID 1
BASIS def2-QZVPPD


$end




