$molecule
0 1
O -1.4769544470 0.0000000000 0.0578881880
N 1.4612384290 0.0000000000 -0.0142858860
H -1.8503880440 0.0000000000 -0.8242059920
H -0.5158448000 0.0000000000 -0.0775430970
H 1.6532342220 0.0000000000 0.9806662020
H 1.9256684480 0.8134214430 -0.3996378080
H 1.9256684480 -0.8134214430 -0.3996378080
$end


$rem
N_FROZEN_CORE FC
MEM_TOTAL 3750
MEM_STATIC 1500
AUX_BASIS_CORR rimp2-def2-QZVPPD
SCF_CONVERGENCE 7
SCF_ALGORITHM  GDM
method DSD-PBEPBE-D3
GEN_SCFMAN TRUE
UNRESTRICTED True
THRESH  14
SYMMETRY FALSE
SYM_IGNORE TRUE
max_scf_cycles 200

XC_GRID 000099000590
BASIS DEF2-QZVPPD


$end










