$molecule
0 1
C -0.0000000000 -0.0000002348 -3.0680459541
H 0.3930500000 -0.9471202348 -2.7036459541
H 0.6237100000 0.8139497652 -2.7036459541
H -1.0167600000 0.1331697652 -2.7036459541
H -0.0000000000 -0.0000002348 -4.1562859541
C 0.0000000000 -0.0000001006 2.3044749821
C 0.0000000000 -0.0000001006 3.8312649821
H -0.6171100000 -0.8082401006 1.9087649821
H -0.3914000000 0.9385598994 1.9087649821
H 1.0085200000 -0.1303101006 1.9087649821
H -1.0089200000 0.1303098994 4.2256249821
H 0.3916000000 -0.9389001006 4.2256249821
H 0.6173100000 0.8085898994 4.2256249821
$end


$rem
N_FROZEN_CORE FC
MEM_TOTAL 3750
MEM_STATIC 1500
AUX_BASIS_CORR rimp2-def2-QZVPPD
SCF_CONVERGENCE 7
SCF_ALGORITHM  GDM
method DSD-PBEPBE-D3
GEN_SCFMAN TRUE
UNRESTRICTED True
THRESH  14
SYMMETRY FALSE
SYM_IGNORE TRUE
max_scf_cycles 200

XC_GRID 000099000590
BASIS DEF2-QZVPPD


$end










