$molecule
1 2
C -0.0119660000 -0.7032430000 0.0000000000
H -0.4597210000 -1.0930900000 0.9138290000
H 1.0505410000 -1.0397550000 0.0000000000
H -0.4597210000 -1.0930900000 -0.9138290000
N -0.0119660000 0.7083620000 0.0000000000
H 0.0122280000 1.2434310000 0.8677720000
H 0.0122280000 1.2434310000 -0.8677720000
$end


$rem
N_FROZEN_CORE FC
MEM_TOTAL 3750
MEM_STATIC 1500
AUX_BASIS_CORR rimp2-def2-QZVPPD
SCF_CONVERGENCE 7
SCF_ALGORITHM  GDM
method DSD-PBEPBE-D3
GEN_SCFMAN TRUE
UNRESTRICTED True
THRESH  14
SYMMETRY FALSE
SYM_IGNORE TRUE
max_scf_cycles 200

XC_GRID 000099000590
BASIS DEF2-QZVPPD


$end










