$molecule
0 1
C -0.0000000000 -0.0000002683 -3.5062936881
H 0.3930500000 -0.9471202683 -3.1418936881
H 0.6237100000 0.8139497317 -3.1418936881
H -1.0167600000 0.1331697317 -3.1418936881
H -0.0000000000 -0.0000002683 -4.5945336881
C 0.0000000000 -0.0000000671 2.7427227161
C 0.0000000000 -0.0000000671 4.2695127161
H -0.6171100000 -0.8082400671 2.3470127161
H -0.3914000000 0.9385599329 2.3470127161
H 1.0085200000 -0.1303100671 2.3470127161
H -1.0089200000 0.1303099329 4.6638727161
H 0.3916000000 -0.9389000671 4.6638727161
H 0.6173100000 0.8085899329 4.6638727161
$end


$rem
N_FROZEN_CORE FC
MEM_TOTAL 3750
MEM_STATIC 1500
AUX_BASIS_CORR rimp2-def2-QZVPPD
SCF_CONVERGENCE 7
SCF_ALGORITHM  GDM
method DSD-PBEPBE-D3
GEN_SCFMAN TRUE
UNRESTRICTED True
THRESH  14
SYMMETRY FALSE
SYM_IGNORE TRUE
max_scf_cycles 200

XC_GRID 000099000590
BASIS DEF2-QZVPPD


$end










