$molecule
0 1
C -0.0000000000 -0.0000003354 -4.3827891562
H 0.3930500000 -0.9471203354 -4.0183891562
H 0.6237100000 0.8139496646 -4.0183891562
H -1.0167600000 0.1331696646 -4.0183891562
H -0.0000000000 -0.0000003354 -5.4710291562
C 0.0000000000 0.0000000000 3.6192181842
C 0.0000000000 0.0000000000 5.1460081842
H -0.6171100000 -0.8082400000 3.2235081842
H -0.3914000000 0.9385600000 3.2235081842
H 1.0085200000 -0.1303100000 3.2235081842
H -1.0089200000 0.1303100000 5.5403681842
H 0.3916000000 -0.9389000000 5.5403681842
H 0.6173100000 0.8085900000 5.5403681842
$end


$rem
N_FROZEN_CORE FC
MEM_TOTAL 3750
MEM_STATIC 1500
AUX_BASIS_CORR rimp2-def2-QZVPPD
SCF_CONVERGENCE 7
SCF_ALGORITHM  GDM
method DSD-PBEPBE-D3
GEN_SCFMAN TRUE
UNRESTRICTED True
THRESH  14
SYMMETRY FALSE
SYM_IGNORE TRUE
max_scf_cycles 200

XC_GRID 000099000590
BASIS DEF2-QZVPPD


$end










