$molecule
0 1
C -0.1628040000 1.9578620000 0.0000000000
H -0.8166900000 2.0447880000 0.8743800000
H -0.8166900000 2.0447880000 -0.8743800000
C 0.4984600000 0.5795770000 0.0000000000
H 1.1519120000 0.4932030000 -0.8744790000
H 1.1519120000 0.4932030000 0.8744790000
C -0.4984600000 -0.5795770000 0.0000000000
H -1.1519120000 -0.4932030000 -0.8744790000
H -1.1519120000 -0.4932030000 0.8744790000
C 0.1628040000 -1.9578620000 0.0000000000
H 0.8166900000 -2.0447880000 0.8743800000
H 0.8166900000 -2.0447880000 -0.8743800000
C -0.8326560000 -3.1178030000 0.0000000000
H -1.4857210000 -3.0317470000 -0.8737460000
H -1.4857210000 -3.0317470000 0.8737460000
C -0.1628040000 -4.4908230000 0.0000000000
H 0.4694280000 -4.6212870000 0.8805730000
H -0.9000430000 -5.2947380000 0.0000000000
H 0.4694280000 -4.6212870000 -0.8805730000
C 0.8326560000 3.1178030000 0.0000000000
H 1.4857210000 3.0317470000 -0.8737460000
H 1.4857210000 3.0317470000 0.8737460000
C 0.1628040000 4.4908230000 0.0000000000
H -0.4694280000 4.6212870000 0.8805730000
H 0.9000430000 5.2947380000 0.0000000000
H -0.4694280000 4.6212870000 -0.8805730000
$end


$rem
N_FROZEN_CORE FC
MEM_TOTAL 30000
MEM_STATIC 8000
AUX_BASIS_CORR rimp2-def2-QZVPPD
SCF_CONVERGENCE 7
SCF_ALGORITHM  GDM
method DSD-PBEPBE-D3
GEN_SCFMAN TRUE
UNRESTRICTED True
THRESH  14
SYMMETRY FALSE
SYM_IGNORE TRUE
max_scf_cycles 200

XC_GRID 000099000590
BASIS DEF2-QZVPPD


$end










