$molecule
0 1
C 0.0000000000 0.7959410000 0.0000000000
H -0.5408160000 1.7373470000 0.0000000000
H 1.8952430000 1.4940190000 0.0000000000
H 0.9648870000 -0.6856340000 0.0000000000
N 1.2896210000 0.6763590000 0.0000000000
S -0.7091660000 -0.7534930000 0.0000000000
$end


$rem
N_FROZEN_CORE FC
MEM_TOTAL 3750
MEM_STATIC 1500
AUX_BASIS_CORR rimp2-def2-QZVPPD
SCF_CONVERGENCE 7
SCF_ALGORITHM  GDM
method DSD-PBEPBE-D3
GEN_SCFMAN TRUE
UNRESTRICTED True
THRESH  14
SYMMETRY FALSE
SYM_IGNORE TRUE
max_scf_cycles 200

XC_GRID 000099000590
BASIS DEF2-QZVPPD


$end










