$molecule
0 1
O 8.0467990000 11.7915100000 7.4110950000
O 8.9104110000 12.3442240000 9.4055980000
O 7.6648290000 10.9917870000 5.3554680000
C 9.0215670000 11.7107440000 8.3977670000
C 10.1103760000 10.7693800000 7.9590890000
C 9.6831160000 10.2963780000 6.5712360000
C 8.3820650000 11.0095010000 6.3135770000
H 11.0581440000 11.3052930000 7.9516840000
H 10.2029700000 9.9739440000 8.6950390000
H 9.5106110000 9.2228630000 6.5081140000
H 10.3923490000 10.5611720000 5.7883860000
$end


$rem
N_FROZEN_CORE FC
MEM_TOTAL 3750
MEM_STATIC 1500
AUX_BASIS_CORR rimp2-def2-QZVPPD
SCF_CONVERGENCE 7
SCF_ALGORITHM  GDM
method DSD-PBEPBE-D3
GEN_SCFMAN TRUE
UNRESTRICTED True
THRESH  14
SYMMETRY FALSE
SYM_IGNORE TRUE
max_scf_cycles 200

XC_GRID 000099000590
BASIS DEF2-QZVPPD


$end










