$molecule
0 1
O 11.0054510000 9.2963900000 13.2883450000
O 10.1418390000 8.7436760000 15.2828480000
O 11.3874210000 10.0961130000 11.2327180000
C 10.0306830000 9.3771560000 14.2750170000
C 8.9418740000 10.3185200000 13.8363390000
C 9.3691340000 10.7915220000 12.4484860000
C 10.6701850000 10.0783990000 12.1908270000
H 7.9941060000 9.7826070000 13.8289340000
H 8.8492800000 11.1139560000 14.5722890000
H 9.5416390000 11.8650370000 12.3853640000
H 8.6599010000 10.5267280000 11.6656360000
$end


$rem
N_FROZEN_CORE FC
MEM_TOTAL 3750
MEM_STATIC 1500
AUX_BASIS_CORR rimp2-def2-QZVPPD
SCF_CONVERGENCE 7
SCF_ALGORITHM  GDM
method DSD-PBEPBE-D3
GEN_SCFMAN TRUE
UNRESTRICTED True
THRESH  14
SYMMETRY FALSE
SYM_IGNORE TRUE
max_scf_cycles 200

XC_GRID 000099000590
BASIS DEF2-QZVPPD


$end










