$molecule
0 1
P 0.0000000000 0.0000000000 5.0500000000
H 0.0000000000 0.0000000000 3.6389500000
H -1.1980081602 0.5933673881 5.5013908433
H -0.6420106381 -1.1867347762 4.6370290398
$end


$rem
N_FROZEN_CORE FC
MEM_TOTAL 3750
MEM_STATIC 1500
AUX_BASIS_CORR rimp2-def2-QZVPPD
SCF_CONVERGENCE 7
SCF_ALGORITHM  GDM
method DSD-PBEPBE-D3
GEN_SCFMAN TRUE
UNRESTRICTED True
THRESH  14
SYMMETRY FALSE
SYM_IGNORE TRUE
max_scf_cycles 200

XC_GRID 000099000590
BASIS DEF2-QZVPPD


$end










