$molecule
0 1
Cl -1.8537720000 1.3675110000 0.0000000000
Br 0.0000000000 0.2451050000 0.0000000000
O 2.1439640000 -1.3348830000 0.0000000000
C 1.8317780000 -2.5055100000 0.0000000000
H 2.5952670000 -3.2965280000 0.0000000000
H 0.7764730000 -2.8177230000 0.0000000000
$end


$rem
N_FROZEN_CORE FC
MEM_TOTAL 3750
MEM_STATIC 1500
AUX_BASIS_CORR rimp2-def2-QZVPPD
SCF_CONVERGENCE 7
SCF_ALGORITHM  GDM
method DSD-PBEPBE-D3
GEN_SCFMAN TRUE
UNRESTRICTED True
THRESH  14
SYMMETRY FALSE
SYM_IGNORE TRUE
max_scf_cycles 200

XC_GRID 000099000590
BASIS DEF2-QZVPPD


$end










