$molecule
0 1
C 0.0000000000 0.0000000000 1.4405930000
C 0.0000000000 1.2475980000 0.7203330000
C 0.0000000000 1.2475980000 -0.7203330000
C 0.0000000000 0.0000000000 -1.4405930000
C 0.0000000000 -1.2475980000 -0.7203330000
C 0.0000000000 -1.2475980000 0.7203330000
C 0.0000000000 0.0000000000 2.9172400000
C 0.0000000000 2.5265090000 1.4587230000
C 0.0000000000 2.5265090000 -1.4587230000
C 0.0000000000 0.0000000000 -2.9172400000
C 0.0000000000 -2.5265090000 -1.4587230000
C 0.0000000000 -2.5265090000 1.4587230000
C 0.0000000000 1.2775410000 3.4408330000
C 0.0000000000 3.6186230000 0.6140140000
C 0.0000000000 2.3410630000 -2.8268500000
C 0.0000000000 -1.2775410000 -3.4408330000
C 0.0000000000 -3.6186230000 -0.6140140000
C 0.0000000000 -2.3410630000 2.8268500000
C 0.0000000000 -1.2775410000 3.4408330000
C 0.0000000000 2.3410630000 2.8268500000
C 0.0000000000 3.6186230000 -0.6140140000
C 0.0000000000 1.2775410000 -3.4408330000
C 0.0000000000 -2.3410630000 -2.8268500000
C 0.0000000000 -3.6186230000 0.6140140000
$end




$rem
N_FROZEN_CORE FC
MEM_TOTAL 60000
MEM_STATIC 8000
AUX_BASIS_CORR rimp2-def2-QZVPPD
SCF_CONVERGENCE 7
method DSD-PBEPBE-D3
GEN_SCFMAN TRUE
UNRESTRICTED True
THRESH  14
SYMMETRY FALSE
SYM_IGNORE TRUE
max_scf_cycles 200
scf_algorithm gdm

XC_GRID 000099000590
NL_GRID 1
BASIS def2-QZVPPD


$end




