$molecule
0 1
S 0.6215130000 -0.7897890000 0.0000000000
C -0.5528980000 -0.6649990000 -1.3607840000
H -1.2614610000 -1.4898550000 -1.3285090000
H -1.0803810000 0.2856190000 -1.3232470000
H 0.0129790000 -0.7222080000 -2.2872490000
C -0.5528980000 -0.6649990000 1.3607840000
H -1.2614610000 -1.4898550000 1.3285090000
H 0.0129790000 -0.7222080000 2.2872490000
H -1.0803810000 0.2856190000 1.3232470000
O 0.0165110000 2.4570110000 0.0000000000
H 0.6652020000 3.1630400000 0.0000000000
H 0.5504910000 1.6514100000 0.0000000000
$end


$rem
N_FROZEN_CORE FC
MEM_TOTAL 3750
MEM_STATIC 1500
AUX_BASIS_CORR rimp2-def2-QZVPPD
SCF_CONVERGENCE 7
SCF_ALGORITHM  GDM
method DSD-PBEPBE-D3
GEN_SCFMAN TRUE
UNRESTRICTED True
THRESH  14
SYMMETRY FALSE
SYM_IGNORE TRUE
max_scf_cycles 200

XC_GRID 000099000590
BASIS DEF2-QZVPPD


$end










