$molecule
0 2
Al 0.0000000000 0.0000000000 0.0000000000
O 0.0000000000 0.0000000000 2.2162851802
H 0.8010116452 0.0000000000 2.7470422864
H -0.7087683445 0.3731850607 2.7470422864
$end


$rem
N_FROZEN_CORE FC
MEM_TOTAL 3750
MEM_STATIC 1500
AUX_BASIS_CORR rimp2-def2-QZVPPD
SCF_CONVERGENCE 7
SCF_ALGORITHM  GDM
method DSD-PBEPBE-D3
GEN_SCFMAN TRUE
UNRESTRICTED True
THRESH  14
SYMMETRY FALSE
SYM_IGNORE TRUE
max_scf_cycles 200

XC_GRID 000099000590
BASIS DEF2-QZVPPD


$end










