$molecule
0 1
C 0.0000000000 0.0000000000 0.3708150000
C 0.0000000000 1.4579670000 -0.0954170000
C -1.2626360000 -0.7289830000 -0.0954170000
C 1.2626360000 -0.7289830000 -0.0954170000
H 0.0000000000 0.0000000000 1.4661770000
H 0.8820180000 1.9904040000 0.2644930000
H 0.0000000000 1.5160830000 -1.1868410000
H -0.8820180000 1.9904040000 0.2644930000
H -1.2827320000 -1.7590520000 0.2644930000
H -2.1647500000 -0.2313520000 0.2644930000
H -1.3129660000 -0.7580410000 -1.1868410000
H 1.2827320000 -1.7590520000 0.2644930000
H 1.3129660000 -0.7580410000 -1.1868410000
H 2.1647500000 -0.2313520000 0.2644930000
$end


$rem
N_FROZEN_CORE FC
MEM_TOTAL 3750
MEM_STATIC 1500
AUX_BASIS_CORR rimp2-def2-QZVPPD
SCF_CONVERGENCE 7
SCF_ALGORITHM  GDM
method DSD-PBEPBE-D3
GEN_SCFMAN TRUE
UNRESTRICTED True
THRESH  14
SYMMETRY FALSE
SYM_IGNORE TRUE
max_scf_cycles 200

XC_GRID 000099000590
BASIS DEF2-QZVPPD


$end










