$molecule
0 1
C 0.0000000000 0.0000000000 1.2818400000
C 0.0000000000 1.2787010000 0.5736610000
C 0.0000000000 -1.2787010000 0.5736610000
C 0.0000000000 1.5608970000 -0.7448070000
C 0.0000000000 -1.5608970000 -0.7448070000
C 0.0000000000 0.6742910000 -1.8844370000
C 0.0000000000 -0.6742910000 -1.8844370000
C 0.0000000000 0.0000000000 2.6334120000
H 0.0000000000 2.1367840000 1.2372470000
H 0.0000000000 -2.1367840000 1.2372470000
H 0.0000000000 2.6151910000 -0.9968540000
H 0.0000000000 -2.6151910000 -0.9968540000
H 0.0000000000 1.1655260000 -2.8500780000
H 0.0000000000 -1.1655260000 -2.8500780000
H 0.0000000000 0.9218010000 3.1974280000
H 0.0000000000 -0.9218010000 3.1974280000
$end


$rem
N_FROZEN_CORE FC
MEM_TOTAL 7500
MEM_STATIC 3000
AUX_BASIS_CORR rimp2-def2-QZVPPD
SCF_CONVERGENCE 7
SCF_ALGORITHM  GDM
method DSD-PBEPBE-D3
GEN_SCFMAN TRUE
UNRESTRICTED True
THRESH  14
SYMMETRY FALSE
SYM_IGNORE TRUE
max_scf_cycles 200

XC_GRID 000099000590
BASIS DEF2-QZVPPD


$end










