$molecule
0 1
N -0.9219900000 0.3773530000 0.0000000000
Br 0.6631740000 -0.7262440000 0.0000000000
C -0.9219900000 1.1954030000 1.2101950000
H -1.8557180000 1.7626150000 1.2088370000
H -0.9083980000 0.5538880000 2.0876810000
H -0.0825210000 1.8996080000 1.2640230000
C -0.9219900000 1.1954030000 -1.2101950000
H -0.9083980000 0.5538880000 -2.0876810000
H -1.8557180000 1.7626150000 -1.2088370000
H -0.0825210000 1.8996080000 -1.2640230000
$end


$rem
N_FROZEN_CORE FC
MEM_TOTAL 3750
MEM_STATIC 1500
AUX_BASIS_CORR rimp2-def2-QZVPPD
SCF_CONVERGENCE 7
SCF_ALGORITHM  GDM
method DSD-PBEPBE-D3
GEN_SCFMAN TRUE
UNRESTRICTED True
THRESH  14
SYMMETRY FALSE
SYM_IGNORE TRUE
max_scf_cycles 200

XC_GRID 000099000590
BASIS DEF2-QZVPPD


$end










