$molecule
0 1
C 0.4689870000 0.6368740000 0.0532560000
H 0.5854130000 1.7169080000 0.0373210000
C 1.5155350000 -0.2858850000 -0.0309470000
H 1.5425750000 -1.0622990000 0.7290040000
H 0.3010020000 -1.0756010000 -0.4119700000
H 2.4987690000 -0.0022640000 -0.3955340000
S -1.0521810000 -0.1051680000 -0.0057920000
$end


$rem
N_FROZEN_CORE FC
MEM_TOTAL 3750
MEM_STATIC 1500
AUX_BASIS_CORR rimp2-def2-QZVPPD
SCF_CONVERGENCE 7
SCF_ALGORITHM  GDM
method DSD-PBEPBE-D3
GEN_SCFMAN TRUE
UNRESTRICTED True
THRESH  14
SYMMETRY FALSE
SYM_IGNORE TRUE
max_scf_cycles 200

XC_GRID 000099000590
BASIS DEF2-QZVPPD


$end










