$molecule
0 1
C 4.2160170000 17.4593890000 10.0291360000
C 4.6821100000 18.3922920000 10.9515090000
C 3.2140320000 17.8094970000 9.1280660000
H 4.6410680000 16.4644490000 10.0091720000
H 5.4633680000 18.1320540000 11.6534050000
H 2.8709160000 17.0867900000 8.4022530000
C 3.1390830000 20.0254110000 10.0690640000
C 2.6729900000 19.0925080000 9.1466910000
C 4.1410680000 19.6753030000 10.9701340000
H 2.7140320000 21.0203510000 10.0890280000
H 1.8917320000 19.3527460000 8.4447950000
H 4.4841840000 20.3980100000 11.6959470000
$end


$rem
N_FROZEN_CORE FC
MEM_TOTAL 3750
MEM_STATIC 1500
AUX_BASIS_CORR rimp2-def2-QZVPPD
SCF_CONVERGENCE 7
SCF_ALGORITHM  GDM
method DSD-PBEPBE-D3
GEN_SCFMAN TRUE
UNRESTRICTED True
THRESH  14
SYMMETRY FALSE
SYM_IGNORE TRUE
max_scf_cycles 200

XC_GRID 000099000590
BASIS DEF2-QZVPPD


$end










