$molecule
0 1
C 0.0000000000 0.5754430000 0.0000000000
C -0.3433110000 -0.8452400000 0.0000000000
C -0.9957910000 1.4763640000 0.0000000000
C 1.4588340000 0.9383100000 0.0000000000
C 0.5111800000 -1.8715000000 0.0000000000
C -0.9058910000 2.9674500000 0.0000000000
C 0.1057990000 -3.3105440000 0.0000000000
H -1.4075320000 -1.0647670000 0.0000000000
H -2.0083320000 1.0833410000 0.0000000000
H 1.5782110000 -1.6783970000 0.0000000000
H 1.9596600000 0.5230130000 0.8772260000
H 1.6206640000 2.0119340000 0.0000000000
H 1.9596600000 0.5230130000 -0.8772260000
H 0.1164110000 3.3376470000 0.0000000000
H -1.4120010000 3.3848240000 0.8752020000
H -1.4120010000 3.3848240000 -0.8752020000
H -0.9787900000 -3.4199510000 0.0000000000
H 0.4995670000 -3.8335930000 0.8760080000
H 0.4995670000 -3.8335930000 -0.8760080000
$end


$rem
N_FROZEN_CORE FC
MEM_TOTAL 15000
MEM_STATIC 6000
AUX_BASIS_CORR rimp2-def2-QZVPPD
SCF_CONVERGENCE 7
SCF_ALGORITHM  GDM
method DSD-PBEPBE-D3
GEN_SCFMAN TRUE
UNRESTRICTED True
THRESH  14
SYMMETRY FALSE
SYM_IGNORE TRUE
max_scf_cycles 200

XC_GRID 000099000590
BASIS DEF2-QZVPPD


$end










