$molecule
0 1
C -0.9966480000 -0.6396650000 0.0000000000
C -2.4506330000 -0.3014650000 0.0000000000
C 0.0000000000 0.2492940000 0.0000000000
C 1.4065630000 -0.1026020000 0.0000000000
C 2.4078190000 0.7789750000 0.0000000000
H -0.7458780000 -1.6969320000 0.0000000000
H -0.2360550000 1.3100550000 0.0000000000
H -2.6105280000 0.7765610000 0.0000000000
H -2.9531850000 -0.7209720000 0.8758750000
H -2.9531850000 -0.7209720000 -0.8758750000
H 1.6353220000 -1.1641310000 0.0000000000
H 2.2195070000 1.8455060000 0.0000000000
H 3.4413960000 0.4636650000 0.0000000000
$end


$rem
N_FROZEN_CORE FC
MEM_TOTAL 3750
MEM_STATIC 1500
AUX_BASIS_CORR rimp2-def2-QZVPPD
SCF_CONVERGENCE 7
SCF_ALGORITHM  GDM
method DSD-PBEPBE-D3
GEN_SCFMAN TRUE
UNRESTRICTED True
THRESH  14
SYMMETRY FALSE
SYM_IGNORE TRUE
max_scf_cycles 200

XC_GRID 000099000590
BASIS DEF2-QZVPPD


$end










