$molecule
0 1
C 1.4057310000 0.0000000000 1.0000000000
C 0.7028650000 1.2173990000 1.0000000000
C -0.7028650000 1.2173990000 1.0000000000
C -1.4057310000 0.0000000000 1.0000000000
C -0.7028650000 -1.2173990000 1.0000000000
C 0.7028660000 -1.2173990000 1.0000000000
H 2.5009410000 0.0000000000 1.0000000000
H 1.2504710000 2.1658780000 1.0000000000
H -1.2504700000 2.1658780000 1.0000000000
H -2.5009410000 0.0000000000 1.0000000000
H -1.2504700000 -2.1658780000 1.0000000000
H 1.2504710000 -2.1658780000 1.0000000000
$end


$rem
N_FROZEN_CORE FC
MEM_TOTAL 3750
MEM_STATIC 1500
AUX_BASIS_CORR rimp2-def2-QZVPPD
SCF_CONVERGENCE 7
SCF_ALGORITHM  GDM
method DSD-PBEPBE-D3
GEN_SCFMAN TRUE
UNRESTRICTED True
THRESH  14
SYMMETRY FALSE
SYM_IGNORE TRUE
max_scf_cycles 200

XC_GRID 000099000590
BASIS DEF2-QZVPPD


$end










