$molecule
0 1
C 0.8464850000 -0.3767070000 -1.6994830000
H 1.2729310000 -1.1221650000 -1.0282630000
H 1.5027430000 0.4983680000 -1.6858810000
H 0.8684590000 -0.7937150000 -2.7092430000
C -0.5818000000 0.0121820000 -1.3071130000
H -1.0016850000 0.6202150000 -2.1150720000
H -1.2067590000 -0.8864450000 -1.2475380000
C -0.7216100000 0.8064370000 0.0000000000
H -1.7142560000 1.2689290000 0.0000000000
H 0.0000000000 1.6334830000 0.0000000000
C -0.5818000000 0.0121820000 1.3071130000
H -1.2067590000 -0.8864450000 1.2475380000
H -1.0016850000 0.6202150000 2.1150720000
C 0.8464850000 -0.3767070000 1.6994830000
H 1.5027430000 0.4983680000 1.6858810000
H 0.8684590000 -0.7937150000 2.7092430000
H 1.2729310000 -1.1221650000 1.0282630000
$end


$rem
N_FROZEN_CORE FC
MEM_TOTAL 7500
MEM_STATIC 3000
AUX_BASIS_CORR rimp2-def2-QZVPPD
SCF_CONVERGENCE 7
SCF_ALGORITHM  GDM
method DSD-PBEPBE-D3
GEN_SCFMAN TRUE
UNRESTRICTED True
THRESH  14
SYMMETRY FALSE
SYM_IGNORE TRUE
max_scf_cycles 200

XC_GRID 000099000590
BASIS DEF2-QZVPPD


$end










