$molecule
0 1
Ar 0.0000000005 0.0000000000 2.9427135293
C 0.0000000001 0.0000000000 -2.9428576177
H 0.5128676201 0.8883127800 -2.5793752877
H 0.5128676201 -0.8883127800 -2.5793752877
H 0.0000000001 0.0000000000 -4.0310126177
H -1.0257352499 0.0000000000 -2.5793752877
$end


$rem
N_FROZEN_CORE FC
MEM_TOTAL 3750
MEM_STATIC 1500
AUX_BASIS_CORR rimp2-def2-QZVPPD
SCF_CONVERGENCE 7
SCF_ALGORITHM  GDM
method DSD-PBEPBE-D3
GEN_SCFMAN TRUE
UNRESTRICTED True
THRESH  14
SYMMETRY FALSE
SYM_IGNORE TRUE
max_scf_cycles 200

XC_GRID 000099000590
BASIS DEF2-QZVPPD


$end










