$molecule
0 1
Ar 0.0000000006 0.0000000000 3.6783919116
C 0.0000000000 0.0000000000 -3.6785360000
H 0.5128676200 0.8883127800 -3.3150536700
H 0.5128676200 -0.8883127800 -3.3150536700
H 0.0000000000 0.0000000000 -4.7666910000
H -1.0257352500 0.0000000000 -3.3150536700
$end


$rem
N_FROZEN_CORE FC
MEM_TOTAL 3750
MEM_STATIC 1500
AUX_BASIS_CORR rimp2-def2-QZVPPD
SCF_CONVERGENCE 7
SCF_ALGORITHM  GDM
method DSD-PBEPBE-D3
GEN_SCFMAN TRUE
UNRESTRICTED True
THRESH  14
SYMMETRY FALSE
SYM_IGNORE TRUE
max_scf_cycles 200

XC_GRID 000099000590
BASIS DEF2-QZVPPD


$end










