$molecule
-1 1
Br -2.2531550746 -0.0716210862 0.0000000000
Se 0.4156980631 -0.2904197100 0.0000000000
F 2.2842547181 -0.2891629999 0.0000000000
F 0.4980922933 1.4748237961 0.0000000000
$end


$rem
N_FROZEN_CORE FC
MEM_TOTAL 3750
MEM_STATIC 1500
AUX_BASIS_CORR rimp2-def2-QZVPPD
SCF_CONVERGENCE 7
SCF_ALGORITHM  GDM
method DSD-PBEPBE-D3
GEN_SCFMAN TRUE
UNRESTRICTED True
THRESH  14
SYMMETRY FALSE
SYM_IGNORE TRUE
max_scf_cycles 200

XC_GRID 000099000590
BASIS DEF2-QZVPPD


$end










