$molecule
0 1
C 0.6137800000 4.8718440000 0.0000000000
C 2.9674710000 3.9122510000 0.0000000000
C 4.5260310000 1.9043730000 0.0000000000
C 4.8718440000 -0.6137800000 0.0000000000
C 3.9122510000 -2.9674710000 0.0000000000
C 1.9043730000 -4.5260310000 0.0000000000
C -0.6137800000 -4.8718440000 0.0000000000
C -2.9674710000 -3.9122510000 0.0000000000
C -4.5260310000 -1.9043730000 0.0000000000
C -4.8718440000 0.6137800000 0.0000000000
C -3.9122510000 2.9674710000 0.0000000000
C -1.9043730000 4.5260310000 0.0000000000
C 1.9043730000 4.5260310000 0.0000000000
C 3.9122510000 2.9674710000 0.0000000000
C 4.8718440000 0.6137800000 0.0000000000
C 4.5260310000 -1.9043730000 0.0000000000
C 2.9674710000 -3.9122510000 0.0000000000
C 0.6137800000 -4.8718440000 0.0000000000
C -1.9043730000 -4.5260310000 0.0000000000
C -3.9122510000 -2.9674710000 0.0000000000
C -4.8718440000 -0.6137800000 0.0000000000
C -4.5260310000 1.9043730000 0.0000000000
C -2.9674710000 3.9122510000 0.0000000000
C -0.6137800000 4.8718440000 0.0000000000
$end




$rem
N_FROZEN_CORE FC
MEM_TOTAL 60000
MEM_STATIC 8000
AUX_BASIS_CORR rimp2-def2-QZVPPD
SCF_CONVERGENCE 7
method DSD-PBEPBE-D3
GEN_SCFMAN TRUE
UNRESTRICTED True
THRESH  14
SYMMETRY FALSE
SYM_IGNORE TRUE
max_scf_cycles 200
scf_algorithm gdm

XC_GRID 000099000590
NL_GRID 1
BASIS def2-QZVPPD


$end




