$molecule
0 1
N 0.0000000000 0.0000000000 0.2329940000
F 1.2312270000 0.0000000000 0.8306400000
F -0.6156140000 -1.0662740000 0.8306400000
F -0.6156140000 1.0662740000 0.8306400000
$end


$rem
N_FROZEN_CORE FC
MEM_TOTAL 3750
MEM_STATIC 1500
AUX_BASIS_CORR rimp2-def2-QZVPPD
SCF_CONVERGENCE 7
SCF_ALGORITHM  GDM
method DSD-PBEPBE-D3
GEN_SCFMAN TRUE
UNRESTRICTED True
THRESH  14
SYMMETRY FALSE
SYM_IGNORE TRUE
max_scf_cycles 200

XC_GRID 000099000590
BASIS DEF2-QZVPPD


$end










