$molecule
1 1
H 0.0000000000 0.0000000000 0.0250356327
O -0.0005013470 1.1931123842 -0.0391099401
O 0.0005013470 -1.1931123842 -0.0391099401
H -0.2489621765 1.6954459991 0.7468112440
H 0.2489621765 -1.6954459991 0.7468112440
H 0.7737215334 1.6038999604 -0.4449551201
H -0.7737215334 -1.6038999604 -0.4449551201
$end


$rem
N_FROZEN_CORE FC
MEM_TOTAL 3750
MEM_STATIC 1500
AUX_BASIS_CORR rimp2-def2-QZVPPD
SCF_CONVERGENCE 7
SCF_ALGORITHM  GDM
method DSD-PBEPBE-D3
GEN_SCFMAN TRUE
UNRESTRICTED True
THRESH  14
SYMMETRY FALSE
SYM_IGNORE TRUE
max_scf_cycles 200

XC_GRID 000099000590
BASIS DEF2-QZVPPD


$end










