$molecule
0 2
N 0.0000000000 0.6298840000 0.0000000000
C 0.0000000000 -0.1690410000 1.1930100000
H 0.0000110000 0.4653310000 2.0778930000
H -0.8801330000 -0.8278290000 1.2307580000
H 0.8801190000 -0.8278490000 1.2307490000
C 0.0000000000 -0.1690410000 -1.1930100000
H -0.8801330000 -0.8278290000 -1.2307580000
H 0.0000110000 0.4653310000 -2.0778930000
H 0.8801190000 -0.8278490000 -1.2307490000
$end


$rem
N_FROZEN_CORE FC
MEM_TOTAL 3750
MEM_STATIC 1500
AUX_BASIS_CORR rimp2-def2-QZVPPD
SCF_CONVERGENCE 7
SCF_ALGORITHM  GDM
method DSD-PBEPBE-D3
GEN_SCFMAN TRUE
UNRESTRICTED True
THRESH  14
SYMMETRY FALSE
SYM_IGNORE TRUE
max_scf_cycles 200

XC_GRID 000099000590
BASIS DEF2-QZVPPD


$end










