$molecule
0 1
C 0.0000000000 1.1212890000 0.0000000000
C -0.2183040000 -1.3405040000 0.0000000000
O -1.3830870000 -0.6192110000 0.0000000000
N -1.2321350000 0.7737310000 0.0000000000
S 1.1584720000 -0.1884110000 0.0000000000
C 0.3988980000 2.5565100000 0.0000000000
H 0.9963470000 2.7898600000 0.8819490000
H 0.9963470000 2.7898600000 -0.8819490000
H -0.4954560000 3.1756680000 0.0000000000
O -0.1783380000 -2.5283770000 0.0000000000
$end


$rem
N_FROZEN_CORE FC
MEM_TOTAL 3750
MEM_STATIC 1500
AUX_BASIS_CORR rimp2-def2-QZVPPD
SCF_CONVERGENCE 7
SCF_ALGORITHM  GDM
method DSD-PBEPBE-D3
GEN_SCFMAN TRUE
UNRESTRICTED True
THRESH  14
SYMMETRY FALSE
SYM_IGNORE TRUE
max_scf_cycles 200

XC_GRID 000099000590
BASIS DEF2-QZVPPD


$end










