$molecule
0 2
Cl 1.4547504867 -0.0012369994 -0.0000400000
F -0.3235871018 0.0046310044 0.0001240000
C -2.3874200289 -0.0021469989 -0.0000730000
H -2.4950864242 -0.8553620435 -0.6494062731
H -2.4973142603 -0.1386730048 1.0631381836
H -2.5015370944 0.9862699019 -0.4137340272
$end


$rem
N_FROZEN_CORE FC
MEM_TOTAL 3750
MEM_STATIC 1500
AUX_BASIS_CORR rimp2-def2-QZVPPD
SCF_CONVERGENCE 7
SCF_ALGORITHM  GDM
method DSD-PBEPBE-D3
GEN_SCFMAN TRUE
UNRESTRICTED True
THRESH  14
SYMMETRY FALSE
SYM_IGNORE TRUE
max_scf_cycles 200

XC_GRID 000099000590
BASIS DEF2-QZVPPD


$end










