$molecule
0 1
C 14.7560000000 16.2820000000 8.0710000000
O 15.8510000000 16.8430000000 8.0240000000
N 13.5900000000 16.9210000000 8.1670000000
H 12.7070000000 16.4160000000 8.1930000000
C 13.4940000000 18.3350000000 8.4430000000
H 14.4860000000 18.7540000000 8.5940000000
H 13.0360000000 18.8090000000 7.5820000000
C 12.6330000000 18.5770000000 9.6780000000
O 12.6000000000 17.7890000000 10.6240000000
N 11.8740000000 19.6610000000 9.6420000000
H 11.8690000000 20.2400000000 8.8070000000
H 14.7138500000 15.1832900000 8.0383010000
H 11.0938600000 19.9202900000 10.3728600000
$end


$rem
N_FROZEN_CORE FC
MEM_TOTAL 7500
MEM_STATIC 3000
AUX_BASIS_CORR rimp2-def2-QZVPPD
SCF_CONVERGENCE 7
SCF_ALGORITHM  GDM
method DSD-PBEPBE-D3
GEN_SCFMAN TRUE
UNRESTRICTED True
THRESH  14
SYMMETRY FALSE
SYM_IGNORE TRUE
max_scf_cycles 200

XC_GRID 000099000590
BASIS DEF2-QZVPPD


$end










