$molecule
1 1
O 0.0000000000 -0.0000000018 0.0851260047
H 0.0000000000 0.9330972192 -0.2027996686
H 0.8080855750 -0.4665486087 -0.2027996680
H -0.8080855750 -0.4665486087 -0.2027996680
$end


$rem
N_FROZEN_CORE FC
MEM_TOTAL 3750
MEM_STATIC 1500
AUX_BASIS_CORR rimp2-def2-QZVPPD
SCF_CONVERGENCE 7
SCF_ALGORITHM  GDM
method DSD-PBEPBE-D3
GEN_SCFMAN TRUE
UNRESTRICTED True
THRESH  14
SYMMETRY FALSE
SYM_IGNORE TRUE
max_scf_cycles 200

XC_GRID 000099000590
BASIS DEF2-QZVPPD


$end










