$molecule
0 1
C -1.1305040000 -0.3173660000 0.0000000000
O -2.2867090000 -0.0467470000 0.0000000000
C 0.0000000000 0.6073580000 0.0000000000
H -0.2843880000 1.6510620000 0.0000000000
C 1.2784660000 0.2275580000 0.0000000000
C 2.4372410000 1.1605110000 0.0000000000
H 3.0677350000 0.9830480000 0.8747540000
H 3.0677350000 0.9830480000 -0.8747540000
H 1.5020130000 -0.8326600000 0.0000000000
H 2.1244080000 2.2031470000 0.0000000000
F -0.7438950000 -1.6313370000 0.0000000000
$end


$rem
N_FROZEN_CORE FC
MEM_TOTAL 3750
MEM_STATIC 1500
AUX_BASIS_CORR rimp2-def2-QZVPPD
SCF_CONVERGENCE 7
SCF_ALGORITHM  GDM
method DSD-PBEPBE-D3
GEN_SCFMAN TRUE
UNRESTRICTED True
THRESH  14
SYMMETRY FALSE
SYM_IGNORE TRUE
max_scf_cycles 200

XC_GRID 000099000590
BASIS DEF2-QZVPPD


$end










