$molecule
0 1
C -1.0949080000 -0.1098780000 0.0138620000
H -2.1778150000 -0.2407340000 0.0340610000
O -0.3837560000 -1.1764090000 0.0020270000
H -1.1749960000 1.8656640000 0.0050920000
H 0.7227550000 0.8797630000 -0.0191760000
H 0.7371320000 -0.7730210000 -0.0235690000
O 1.6481360000 0.0904850000 -0.0994010000
N -0.5527110000 1.0731930000 0.0032360000
H 2.2163050000 0.1026340000 0.6767610000
$end


$rem
N_FROZEN_CORE FC
MEM_TOTAL 3750
MEM_STATIC 1500
AUX_BASIS_CORR rimp2-def2-QZVPPD
SCF_CONVERGENCE 7
SCF_ALGORITHM  GDM
method DSD-PBEPBE-D3
GEN_SCFMAN TRUE
UNRESTRICTED True
THRESH  14
SYMMETRY FALSE
SYM_IGNORE TRUE
max_scf_cycles 200

XC_GRID 000099000590
BASIS DEF2-QZVPPD


$end










