$molecule
0 1
O 10.9621730000 4.6154520000 11.0035740000
C 10.3710440000 5.6110600000 10.6012340000
C 10.8997720000 6.9701350000 10.8592530000
H 11.8244540000 7.0391990000 11.4186220000
C 9.0980340000 5.4876920000 9.8518490000
H 8.7428240000 4.4788810000 9.6749470000
O 8.3829390000 8.9265480000 9.2756490000
C 8.9740680000 7.9309400000 9.6779890000
C 10.2470770000 8.0543080000 10.4273740000
H 10.6022870000 9.0631190000 10.6042760000
C 8.4453400000 6.5718650000 9.4199690000
H 7.5206580000 6.5028010000 8.8606010000
$end


$rem
N_FROZEN_CORE FC
MEM_TOTAL 7500
MEM_STATIC 3000
AUX_BASIS_CORR rimp2-def2-QZVPPD
SCF_CONVERGENCE 7
SCF_ALGORITHM  GDM
method DSD-PBEPBE-D3
GEN_SCFMAN TRUE
UNRESTRICTED True
THRESH  14
SYMMETRY FALSE
SYM_IGNORE TRUE
max_scf_cycles 200

XC_GRID 000099000590
BASIS DEF2-QZVPPD


$end










