$molecule
0 1
C -0.3893340000 0.3458490000 0.0000000000
C 0.2706310000 1.5460020000 0.6424370000
C 0.2706310000 1.5460020000 -0.6424370000
C 0.2706310000 -0.9758100000 0.0000000000
C -0.3682790000 -2.1410460000 0.0000000000
H -1.4773220000 0.2949370000 0.0000000000
H 0.5403080000 2.0043200000 1.5761270000
H 0.5403080000 2.0043200000 -1.5761270000
H 1.3570280000 -0.9573930000 0.0000000000
H -1.4506080000 -2.1906880000 0.0000000000
H 0.1646000000 -3.0814730000 0.0000000000
$end


$rem
N_FROZEN_CORE FC
MEM_TOTAL 3750
MEM_STATIC 1500
AUX_BASIS_CORR rimp2-def2-QZVPPD
SCF_CONVERGENCE 7
SCF_ALGORITHM  GDM
method DSD-PBEPBE-D3
GEN_SCFMAN TRUE
UNRESTRICTED True
THRESH  14
SYMMETRY FALSE
SYM_IGNORE TRUE
max_scf_cycles 200

XC_GRID 000099000590
BASIS DEF2-QZVPPD


$end










