$molecule
0 1
C 1.4057310000 0.0000000000 1.0000000000
C 0.7028650000 1.2173990000 1.0000000000
C -0.7028650000 1.2173990000 1.0000000000
C -1.4057310000 0.0000000000 1.0000000000
C -0.7028650000 -1.2173990000 1.0000000000
C 0.7028660000 -1.2173990000 1.0000000000
H 2.5009410000 0.0000000000 1.0000000000
H 1.2504710000 2.1658780000 1.0000000000
H -1.2504700000 2.1658780000 1.0000000000
H -2.5009410000 0.0000000000 1.0000000000
H -1.2504700000 -2.1658780000 1.0000000000
H 1.2504710000 -2.1658780000 1.0000000000
C 0.0000000000 0.0000000000 -3.8000000000
H 0.0000000000 0.0000000000 -2.7004970000
H 1.0366210000 0.0000000000 -4.1665010000
H -0.5183110000 -0.8977410000 -4.1665010000
H -0.5183110000 0.8977410000 -4.1665010000
$end


$rem
N_FROZEN_CORE FC
MEM_TOTAL 7500
MEM_STATIC 3000
AUX_BASIS_CORR rimp2-def2-QZVPPD
SCF_CONVERGENCE 7
SCF_ALGORITHM  GDM
method DSD-PBEPBE-D3
GEN_SCFMAN TRUE
UNRESTRICTED True
THRESH  14
SYMMETRY FALSE
SYM_IGNORE TRUE
max_scf_cycles 200

XC_GRID 000099000590
BASIS DEF2-QZVPPD


$end










