$molecule
0 1
C 0.4902020000 0.0000000000 3.1146010000
C -0.7298980000 0.0000000000 3.1601430000
H 1.5529620000 0.0000000000 3.0715330000
C -2.0979890000 0.0000000000 3.2034510000
C -3.3176800000 0.0000000000 3.2367010000
H -4.3804090000 0.0000000000 3.2671180000
$end


$rem
N_FROZEN_CORE FC
MEM_TOTAL 3750
MEM_STATIC 1500
AUX_BASIS_CORR rimp2-def2-QZVPPD
SCF_CONVERGENCE 7
SCF_ALGORITHM  GDM
method DSD-PBEPBE-D3
GEN_SCFMAN TRUE
UNRESTRICTED True
THRESH  14
SYMMETRY FALSE
SYM_IGNORE TRUE
max_scf_cycles 200

XC_GRID 000099000590
BASIS DEF2-QZVPPD


$end










