$molecule
0 1
N 0.1862497304 2.2164655918 0.0779595112
H -0.6474283516 2.4902526342 -0.4322027365
H 0.9867284068 2.5759231504 -0.4322052716
H 0.1622461828 2.6743872713 0.9835840964
$end


$rem
N_FROZEN_CORE FC
MEM_TOTAL 3750
MEM_STATIC 1500
AUX_BASIS_CORR rimp2-def2-QZVPPD
SCF_CONVERGENCE 7
SCF_ALGORITHM  GDM
method DSD-PBEPBE-D3
GEN_SCFMAN TRUE
UNRESTRICTED True
THRESH  14
SYMMETRY FALSE
SYM_IGNORE TRUE
max_scf_cycles 200

XC_GRID 000099000590
BASIS DEF2-QZVPPD


$end










