$molecule
0 2
H 0.0000000000 0.0000000000 0.0000000000
O 0.0000000000 0.0000000000 0.9590817153
H 0.9312263096 0.0000000000 1.1973357780
C 3.1399041852 0.0000000000 1.9321407090
H 2.6957021254 0.0000000000 2.9137598435
H 3.4187972280 -0.9326901414 1.4709054655
H 3.4187972280 0.9326901414 1.4709054655
$end


$rem
N_FROZEN_CORE FC
MEM_TOTAL 3750
MEM_STATIC 1500
AUX_BASIS_CORR rimp2-def2-QZVPPD
SCF_CONVERGENCE 7
SCF_ALGORITHM  GDM
method DSD-PBEPBE-D3
GEN_SCFMAN TRUE
UNRESTRICTED True
THRESH  14
SYMMETRY FALSE
SYM_IGNORE TRUE
max_scf_cycles 200

XC_GRID 000099000590
BASIS DEF2-QZVPPD


$end










