$molecule
-1 1
H 0.6826012182 -2.2581821064 0.0000000000
O -0.2566896104 -2.0663457042 0.0000000000
H -0.2507128945 -1.0620697131 0.0000000000
C -0.0021957531 0.7880600385 0.0000000000
C 0.2107839429 2.0138256505 0.0000000000
H 0.3856500969 3.0688268346 0.0000000000
$end


$rem
N_FROZEN_CORE FC
MEM_TOTAL 3750
MEM_STATIC 1500
AUX_BASIS_CORR rimp2-def2-QZVPPD
SCF_CONVERGENCE 7
SCF_ALGORITHM  GDM
method DSD-PBEPBE-D3
GEN_SCFMAN TRUE
UNRESTRICTED True
THRESH  14
SYMMETRY FALSE
SYM_IGNORE TRUE
max_scf_cycles 200

XC_GRID 000099000590
BASIS DEF2-QZVPPD


$end










