$molecule
0 1
C 0.6678110000 1.5638190000 0.3711160000
C -0.6678110000 1.5638190000 0.3711160000
C 1.5638190000 0.6678110000 -0.3711160000
C -1.5638190000 0.6678110000 -0.3711160000
C 1.5638190000 -0.6678110000 -0.3711160000
C -1.5638190000 -0.6678110000 -0.3711160000
C 0.6678110000 -1.5638190000 0.3711160000
C -0.6678110000 -1.5638190000 0.3711160000
H 1.1666180000 2.3585090000 0.9188200000
H -1.1666180000 2.3585090000 0.9188200000
H 2.3585090000 1.1666180000 -0.9188200000
H -2.3585090000 1.1666180000 -0.9188200000
H 2.3585090000 -1.1666180000 -0.9188200000
H -2.3585090000 -1.1666180000 -0.9188200000
H 1.1666180000 -2.3585090000 0.9188200000
H -1.1666180000 -2.3585090000 0.9188200000
$end


$rem
N_FROZEN_CORE FC
MEM_TOTAL 7500
MEM_STATIC 3000
AUX_BASIS_CORR rimp2-def2-QZVPPD
SCF_CONVERGENCE 7
SCF_ALGORITHM  GDM
method DSD-PBEPBE-D3
GEN_SCFMAN TRUE
UNRESTRICTED True
THRESH  14
SYMMETRY FALSE
SYM_IGNORE TRUE
max_scf_cycles 200

XC_GRID 000099000590
BASIS DEF2-QZVPPD


$end










