$molecule
1 2
N 0.0000000000 0.0000000000 0.4436560000
H 0.0000000000 0.0000000000 1.4628500000
C 0.0000000000 1.2748370000 -0.2071360000
H 0.9478750000 1.7856620000 0.0185960000
H -0.1174440000 1.1594940000 -1.2794230000
H -0.7925330000 1.8992690000 0.2194190000
C 0.0000000000 -1.2748370000 -0.2071360000
H 0.1174440000 -1.1594940000 -1.2794230000
H 0.7925330000 -1.8992690000 0.2194190000
H -0.9478750000 -1.7856620000 0.0185960000
$end


$rem
N_FROZEN_CORE FC
MEM_TOTAL 3750
MEM_STATIC 1500
AUX_BASIS_CORR rimp2-def2-QZVPPD
SCF_CONVERGENCE 7
SCF_ALGORITHM  GDM
method DSD-PBEPBE-D3
GEN_SCFMAN TRUE
UNRESTRICTED True
THRESH  14
SYMMETRY FALSE
SYM_IGNORE TRUE
max_scf_cycles 200

XC_GRID 000099000590
BASIS DEF2-QZVPPD


$end










