$molecule
0 1
C 4.0111720000 3.5973320000 6.3014330000
C 4.2966300000 6.0349090000 6.3823830000
C 5.7043760000 5.8344180000 6.5297630000
C 6.1805880000 4.5819660000 6.5520940000
H 7.1128430000 4.3761540000 6.6240740000
H 5.6751440000 2.7177700000 6.4032720000
H 2.6843490000 5.0159930000 6.1724330000
H 6.2510030000 6.5865070000 6.5820470000
N 5.3716910000 3.4962200000 6.4401560000
N 3.5451980000 4.8924800000 6.2855310000
O 3.2699690000 2.6389340000 6.2046440000
O 3.7283670000 7.1416950000 6.3343340000
$end


$rem
N_FROZEN_CORE FC
MEM_TOTAL 7500
INTERNAL_STABILITY TRUE
MEM_STATIC 3000
AUX_BASIS_CORR rimp2-def2-QZVPPD
SCF_CONVERGENCE 7
SCF_ALGORITHM  GDM
method DSD-PBEPBE-D3
GEN_SCFMAN TRUE
UNRESTRICTED True
THRESH  14
SYMMETRY FALSE
SYM_IGNORE TRUE
max_scf_cycles 200

XC_GRID 000099000590
BASIS DEF2-QZVPPD


$end










