$molecule
0 1
C 13.7343640000 2.5906680000 0.0286350000
C 14.0198220000 0.1530910000 0.1095860000
C 15.4275680000 0.3535820000 0.2569650000
C 15.9037800000 1.6060340000 0.2792960000
H 16.8360350000 1.8118460000 0.3512770000
H 15.3983360000 3.4702300000 0.1304740000
H 12.4075400000 1.1720070000 -0.1003650000
H 15.9741950000 -0.3985070000 0.3092490000
N 15.0948830000 2.6917800000 0.1673580000
N 13.2683900000 1.2955200000 0.0127340000
O 12.9931610000 3.5490660000 -0.0681540000
O 13.4515590000 -0.9536950000 0.0615360000
$end


$rem
N_FROZEN_CORE FC
MEM_TOTAL 7500
MEM_STATIC 3000
AUX_BASIS_CORR rimp2-def2-QZVPPD
SCF_CONVERGENCE 7
SCF_ALGORITHM  GDM
method DSD-PBEPBE-D3
GEN_SCFMAN TRUE
UNRESTRICTED True
THRESH  14
SYMMETRY FALSE
SYM_IGNORE TRUE
max_scf_cycles 200

XC_GRID 000099000590
BASIS DEF2-QZVPPD


$end










