$molecule
0 1
C 8.2645400000 9.7853320000 3.1077640000
C 7.9790820000 12.2229090000 3.0268130000
C 6.5713360000 12.0224180000 2.8794340000
C 6.0951240000 10.7699660000 2.8571030000
H 5.1628690000 10.5641540000 2.7851220000
H 6.6005680000 8.9057700000 3.0059250000
H 9.5913640000 11.2039930000 3.2367640000
H 6.0247090000 12.7745070000 2.8271500000
N 6.9040210000 9.6842200000 2.9690410000
N 8.7305140000 11.0804800000 3.1236650000
O 9.0057430000 8.8269340000 3.2045530000
O 8.5473450000 13.3296950000 3.0748630000
$end


$rem
N_FROZEN_CORE FC
MEM_TOTAL 7500
MEM_STATIC 3000
AUX_BASIS_CORR rimp2-def2-QZVPPD
SCF_CONVERGENCE 7
SCF_ALGORITHM  GDM
method DSD-PBEPBE-D3
GEN_SCFMAN TRUE
UNRESTRICTED True
THRESH  14
SYMMETRY FALSE
SYM_IGNORE TRUE
max_scf_cycles 200

XC_GRID 000099000590
BASIS DEF2-QZVPPD


$end










