$molecule
0 1
C 0.0363900000 -0.0146170000 0.0823190000
C 0.0363900000 -0.0146170000 1.4176800000
H 0.9367040000 0.1922430000 -0.4794980000
H 0.9367040000 0.1922430000 1.9794980000
H -0.8646430000 -0.2178350000 1.9797490000
H -0.8646430000 -0.2178350000 -0.4797490000
$end


$rem
N_FROZEN_CORE FC
MEM_TOTAL 3750
MEM_STATIC 1500
AUX_BASIS_CORR rimp2-def2-QZVPPD
SCF_CONVERGENCE 7
SCF_ALGORITHM  GDM
method DSD-PBEPBE-D3
GEN_SCFMAN TRUE
UNRESTRICTED True
THRESH  14
SYMMETRY FALSE
SYM_IGNORE TRUE
max_scf_cycles 200

XC_GRID 000099000590
BASIS DEF2-QZVPPD


$end










