$molecule
-1 1
S 0.8295868027 0.6122960055 0.0000000000
Cl -0.4248113478 3.2754486925 0.0000000000
C 0.1435795209 -0.8275345060 0.0000000000
F -0.2741774879 -1.5301050960 1.0653565240
F -0.2741774879 -1.5301050960 -1.0653565240
$end


$rem
N_FROZEN_CORE FC
MEM_TOTAL 3750
MEM_STATIC 1500
AUX_BASIS_CORR rimp2-def2-QZVPPD
SCF_CONVERGENCE 7
SCF_ALGORITHM  GDM
method DSD-PBEPBE-D3
GEN_SCFMAN TRUE
UNRESTRICTED True
THRESH  14
SYMMETRY FALSE
SYM_IGNORE TRUE
max_scf_cycles 200

XC_GRID 000099000590
BASIS DEF2-QZVPPD


$end










