$molecule
0 1
C -0.0464230233 0.6630696287 0.0000000000
O -0.0464230233 -0.7550617950 0.0000000000
H -1.0869564498 0.9759403628 0.0000000000
H 0.8605903144 -1.0570420621 0.0000000000
H 0.4381449719 1.0715944354 0.8895415996
H 0.4381449719 1.0715944354 -0.8895415996
$end


$rem
N_FROZEN_CORE FC
MEM_TOTAL 3750
MEM_STATIC 1500
AUX_BASIS_CORR rimp2-def2-QZVPPD
SCF_CONVERGENCE 7
SCF_ALGORITHM  GDM
method DSD-PBEPBE-D3
GEN_SCFMAN TRUE
UNRESTRICTED True
THRESH  14
SYMMETRY FALSE
SYM_IGNORE TRUE
max_scf_cycles 200

XC_GRID 000099000590
BASIS DEF2-QZVPPD


$end










