$molecule
0 1
C 1.2587300000 0.0039160000 -0.0190180000
N 0.1372370000 0.8371470000 -0.2839650000
H 0.1627880000 1.6368850000 0.3396960000
F 2.3597770000 0.7616810000 -0.1677960000
F 1.3089520000 -0.5210720000 1.2272190000
F 1.3105010000 -1.0153440000 -0.8771900000
Br -1.5282540000 -0.0156510000 0.0034870000
$end


$rem
N_FROZEN_CORE FC
MEM_TOTAL 3750
MEM_STATIC 1500
AUX_BASIS_CORR rimp2-def2-QZVPPD
SCF_CONVERGENCE 7
SCF_ALGORITHM  GDM
method DSD-PBEPBE-D3
GEN_SCFMAN TRUE
UNRESTRICTED True
THRESH  14
SYMMETRY FALSE
SYM_IGNORE TRUE
max_scf_cycles 200

XC_GRID 000099000590
BASIS DEF2-QZVPPD


$end










