$molecule
0 1
O -0.1263010000 16.4413880000 12.9245260000
C -0.7012660000 17.4636000000 12.1859810000
H -1.5687030000 17.1874940000 11.6155660000
C 0.0254300000 18.5819360000 12.3962880000
C 0.4739340000 20.0344320000 12.2735360000
H 0.8247530000 20.3269800000 11.2848350000
H -0.2382680000 20.7795260000 12.6253560000
C 1.6338980000 19.6692840000 13.2932160000
H 2.6429790000 19.7737570000 12.9000920000
H 1.5749150000 20.1764690000 14.2541380000
C 1.0770370000 18.2563760000 13.2917620000
C 0.9735110000 16.9480670000 13.5996580000
H 1.4989960000 16.2471150000 14.2215600000
$end


$rem
N_FROZEN_CORE FC
MEM_TOTAL 7500
MEM_STATIC 3000
AUX_BASIS_CORR rimp2-def2-QZVPPD
SCF_CONVERGENCE 7
SCF_ALGORITHM  GDM
method DSD-PBEPBE-D3
GEN_SCFMAN TRUE
UNRESTRICTED True
THRESH  14
SYMMETRY FALSE
SYM_IGNORE TRUE
max_scf_cycles 200

XC_GRID 000099000590
BASIS DEF2-QZVPPD


$end










