$molecule
0 1
C 5.0839140000 6.7061190000 9.6334190000
C 6.0102620000 6.4091930000 8.6973130000
C 6.8950020000 5.5632130000 7.7905320000
C 7.4790250000 6.9282220000 7.2331460000
C 6.5185070000 7.6301700000 8.1829960000
C 5.8866650000 8.6414490000 8.8162620000
O 4.9948440000 8.0815640000 9.7177190000
H 4.4363320000 6.1628720000 10.2951400000
H 6.3536230000 4.9763520000 7.0491570000
H 7.6172040000 4.9291950000 8.3026220000
H 7.3006630000 7.0949960000 6.1743160000
H 8.5343230000 7.0819020000 7.4476220000
H 5.9048430000 9.7152430000 8.8116160000
$end


$rem
N_FROZEN_CORE FC
MEM_TOTAL 7500
MEM_STATIC 3000
AUX_BASIS_CORR rimp2-def2-QZVPPD
SCF_CONVERGENCE 7
SCF_ALGORITHM  GDM
method DSD-PBEPBE-D3
GEN_SCFMAN TRUE
UNRESTRICTED True
THRESH  14
SYMMETRY FALSE
SYM_IGNORE TRUE
max_scf_cycles 200

XC_GRID 000099000590
BASIS DEF2-QZVPPD


$end










