$molecule
0 1
C 0.0336250000 6.7061190000 19.3119400000
C 0.9599730000 6.4091930000 18.3758340000
C 1.8447130000 5.5632130000 17.4690530000
C 2.4287370000 6.9282220000 16.9116670000
C 1.4682180000 7.6301700000 17.8615170000
C 0.8363760000 8.6414490000 18.4947830000
O -0.0554440000 8.0815640000 19.3962400000
H -0.6139560000 6.1628720000 19.9736610000
H 1.3033340000 4.9763520000 16.7276780000
H 2.5669150000 4.9291950000 17.9811440000
H 2.2503750000 7.0949960000 15.8528370000
H 3.4840340000 7.0819020000 17.1261430000
H 0.8545540000 9.7152430000 18.4901370000
$end


$rem
N_FROZEN_CORE FC
MEM_TOTAL 7500
MEM_STATIC 3000
AUX_BASIS_CORR rimp2-def2-QZVPPD
SCF_CONVERGENCE 7
SCF_ALGORITHM  GDM
method DSD-PBEPBE-D3
GEN_SCFMAN TRUE
UNRESTRICTED True
THRESH  14
SYMMETRY FALSE
SYM_IGNORE TRUE
max_scf_cycles 200

XC_GRID 000099000590
BASIS DEF2-QZVPPD


$end










