$molecule
-1 1
S 0.8764640943 0.5553720453 0.0000000000
Br -0.4687992409 3.4196811168 0.0000000000
C 0.1481991323 -0.8635315234 0.0000000000
F -0.2779319928 -1.5557658193 1.0647196196
F -0.2779319928 -1.5557658193 -1.0647196196
$end


$rem
N_FROZEN_CORE FC
MEM_TOTAL 3750
MEM_STATIC 1500
AUX_BASIS_CORR rimp2-def2-QZVPPD
SCF_CONVERGENCE 7
SCF_ALGORITHM  GDM
method DSD-PBEPBE-D3
GEN_SCFMAN TRUE
UNRESTRICTED True
THRESH  14
SYMMETRY FALSE
SYM_IGNORE TRUE
max_scf_cycles 200

XC_GRID 000099000590
BASIS DEF2-QZVPPD


$end










