$molecule
0 1
C 0.0000000000 0.0000000000 -0.1919950000
C 0.0000000000 0.0000000000 1.1418030000
H 0.9230180000 0.0000000000 -0.7552020000
H 0.9187670000 0.0000000000 1.7106050000
H -0.9187670000 0.0000000000 1.7106050000
H -0.9230180000 0.0000000000 -0.7552020000
O 0.0000000000 0.0000000000 4.5231240000
H 0.0000000000 -0.7584150000 5.1144990000
H 0.0000000000 0.7584150000 5.1144990000
$end


$rem
N_FROZEN_CORE FC
MEM_TOTAL 3750
MEM_STATIC 1500
AUX_BASIS_CORR rimp2-def2-QZVPPD
SCF_CONVERGENCE 7
SCF_ALGORITHM  GDM
method DSD-PBEPBE-D3
GEN_SCFMAN TRUE
UNRESTRICTED True
THRESH  14
SYMMETRY FALSE
SYM_IGNORE TRUE
max_scf_cycles 200

XC_GRID 000099000590
BASIS DEF2-QZVPPD


$end










