$molecule
0 2
C 0.0100450000 0.0426400000 0.0000000000
N 1.1364190000 0.9065540000 0.0000000000
H 1.9619410000 0.2983840000 0.0000000000
F -1.1286620000 0.7360000000 0.0000000000
F 0.0100450000 -0.7513390000 1.0931460000
F 0.0100450000 -0.7513390000 -1.0931460000
$end


$rem
N_FROZEN_CORE FC
MEM_TOTAL 3750
MEM_STATIC 1500
AUX_BASIS_CORR rimp2-def2-QZVPPD
SCF_CONVERGENCE 7
SCF_ALGORITHM  GDM
method DSD-PBEPBE-D3
GEN_SCFMAN TRUE
UNRESTRICTED True
THRESH  14
SYMMETRY FALSE
SYM_IGNORE TRUE
max_scf_cycles 200

XC_GRID 000099000590
BASIS DEF2-QZVPPD


$end










