$molecule
0 1
N 0.2452560000 1.7660020000 0.0000000000
F -0.5823620000 1.5415980000 -1.0641720000
F -0.5823620000 1.5415980000 1.0641720000
F 0.3392160000 3.1418390000 0.0000000000
H 0.2596350000 -3.8696330000 0.0000000000
C 0.2134420000 -1.6881840000 0.0000000000
N 0.2385740000 -2.8690160000 0.0000000000
$end


$rem
N_FROZEN_CORE FC
MEM_TOTAL 3750
MEM_STATIC 1500
AUX_BASIS_CORR rimp2-def2-QZVPPD
SCF_CONVERGENCE 7
SCF_ALGORITHM  GDM
method DSD-PBEPBE-D3
GEN_SCFMAN TRUE
UNRESTRICTED True
THRESH  14
SYMMETRY FALSE
SYM_IGNORE TRUE
max_scf_cycles 200

XC_GRID 000099000590
BASIS DEF2-QZVPPD


$end










