$molecule
0 1
H -1.8403440218 -1.2440846663 0.0000000000
Cl -1.8922485263 0.0330176553 0.0000000000
H 0.6613200077 0.1987382718 0.0000000000
Cl 1.9257685519 -0.0032981268 0.0000000000
$end


$rem
N_FROZEN_CORE FC
MEM_TOTAL 3750
MEM_STATIC 1500
AUX_BASIS_CORR rimp2-def2-QZVPPD
SCF_CONVERGENCE 7
SCF_ALGORITHM  GDM
method DSD-PBEPBE-D3
GEN_SCFMAN TRUE
UNRESTRICTED True
THRESH  14
SYMMETRY FALSE
SYM_IGNORE TRUE
max_scf_cycles 200

XC_GRID 000099000590
BASIS DEF2-QZVPPD


$end










