$molecule
0 1
C 0.0000000000 2.5434370000 0.3276220000
C 0.0000000000 1.2762910000 -0.5275290000
C 0.0000000000 0.0000000000 0.3135180000
C 0.0000000000 -1.2762910000 -0.5275290000
C 0.0000000000 -2.5434370000 0.3276220000
H 0.8824540000 2.5767940000 0.9722370000
H -0.8824540000 2.5767940000 0.9722370000
H 0.0000000000 3.4448980000 -0.2888350000
H -0.8767580000 1.2736000000 -1.1844250000
H 0.8767580000 1.2736000000 -1.1844250000
H -0.8771930000 0.0000000000 0.9720990000
H 0.8771930000 0.0000000000 0.9720990000
H 0.8767580000 -1.2736000000 -1.1844250000
H -0.8767580000 -1.2736000000 -1.1844250000
H -0.8824540000 -2.5767940000 0.9722370000
H 0.0000000000 -3.4448980000 -0.2888350000
H 0.8824540000 -2.5767940000 0.9722370000
$end


$rem
N_FROZEN_CORE FC
MEM_TOTAL 7500
MEM_STATIC 3000
AUX_BASIS_CORR rimp2-def2-QZVPPD
SCF_CONVERGENCE 7
SCF_ALGORITHM  GDM
method DSD-PBEPBE-D3
GEN_SCFMAN TRUE
UNRESTRICTED True
THRESH  14
SYMMETRY FALSE
SYM_IGNORE TRUE
max_scf_cycles 200

XC_GRID 000099000590
BASIS DEF2-QZVPPD


$end










