$molecule
0 1
N 1.3980380000 0.0000000000 0.0000000000
C 0.6985370000 1.1401300000 0.0000000000
C -0.6941820000 1.1953400000 0.0000000000
C -1.4067470000 0.0000000000 0.0000000000
C -0.6941820000 -1.1953400000 0.0000000000
C 0.6985370000 -1.1401300000 0.0000000000
H 1.2816690000 2.0568850000 0.0000000000
H -1.1999250000 2.1525480000 0.0000000000
H -2.4885470000 0.0000000000 0.0000000000
H -1.1999250000 -2.1525480000 0.0000000000
H 1.2816690000 -2.0568850000 0.0000000000
N -1.3980380000 0.0000000000 4.0000000000
C -0.6985370000 1.1401300000 4.0000000000
C 0.6941820000 1.1953400000 4.0000000000
C 1.4067470000 0.0000000000 4.0000000000
C 0.6941820000 -1.1953400000 4.0000000000
C -0.6985370000 -1.1401300000 4.0000000000
H -1.2816690000 2.0568850000 4.0000000000
H 1.1999250000 2.1525480000 4.0000000000
H 2.4885470000 0.0000000000 4.0000000000
H 1.1999250000 -2.1525480000 4.0000000000
H -1.2816690000 -2.0568850000 4.0000000000
$end


$rem
N_FROZEN_CORE FC
MEM_TOTAL 30000
MEM_STATIC 8000
AUX_BASIS_CORR rimp2-def2-QZVPPD
SCF_CONVERGENCE 7
SCF_ALGORITHM  GDM
method DSD-PBEPBE-D3
GEN_SCFMAN TRUE
UNRESTRICTED True
THRESH  14
SYMMETRY FALSE
SYM_IGNORE TRUE
max_scf_cycles 200

XC_GRID 000099000590
BASIS DEF2-QZVPPD


$end










