$molecule
0 1
Se 0.7378260661 0.7440363681 0.0000000000
C 0.1383790526 -0.9141601303 0.0000000000
F -0.2583681353 -1.6287562029 1.0672960532
F -0.2583681353 -1.6287562029 -1.0672960532
$end


$rem
N_FROZEN_CORE FC
MEM_TOTAL 3750
MEM_STATIC 1500
AUX_BASIS_CORR rimp2-def2-QZVPPD
SCF_CONVERGENCE 7
SCF_ALGORITHM  GDM
method DSD-PBEPBE-D3
GEN_SCFMAN TRUE
UNRESTRICTED True
THRESH  14
SYMMETRY FALSE
SYM_IGNORE TRUE
max_scf_cycles 200

XC_GRID 000099000590
BASIS DEF2-QZVPPD


$end










