$molecule
0 1
O 0.0000000000 0.0000000000 0.0102240000
C 0.6669130000 0.0000000000 3.3876540000
C -0.6669130000 0.0000000000 3.3876540000
H 1.2302160000 0.0000000000 4.3109280000
H 1.2165970000 0.0000000000 2.4571560000
H -1.2302160000 0.0000000000 4.3109280000
H -1.2165970000 0.0000000000 2.4571560000
H 0.0000000000 -0.7588880000 -0.5806820000
H 0.0000000000 0.7588880000 -0.5806820000
$end


$rem
N_FROZEN_CORE FC
MEM_TOTAL 3750
MEM_STATIC 1500
AUX_BASIS_CORR rimp2-def2-QZVPPD
SCF_CONVERGENCE 7
SCF_ALGORITHM  GDM
method DSD-PBEPBE-D3
GEN_SCFMAN TRUE
UNRESTRICTED True
THRESH  14
SYMMETRY FALSE
SYM_IGNORE TRUE
max_scf_cycles 200

XC_GRID 000099000590
BASIS DEF2-QZVPPD


$end










