$molecule
0 1
F -0.7461770000 2.1174380000 0.0000000000
Br 0.0000000000 0.4936910000 0.0000000000
O 0.8957780000 -1.7889890000 0.0000000000
C 0.0423680000 -2.6521950000 0.0000000000
H 0.3217270000 -3.7134870000 0.0000000000
H -1.0265680000 -2.3975590000 0.0000000000
$end


$rem
N_FROZEN_CORE FC
MEM_TOTAL 3750
MEM_STATIC 1500
AUX_BASIS_CORR rimp2-def2-QZVPPD
SCF_CONVERGENCE 7
SCF_ALGORITHM  GDM
method DSD-PBEPBE-D3
GEN_SCFMAN TRUE
UNRESTRICTED True
THRESH  14
SYMMETRY FALSE
SYM_IGNORE TRUE
max_scf_cycles 200

XC_GRID 000099000590
BASIS DEF2-QZVPPD


$end










