$molecule
0 1
N 0.0000000000 0.0000000000 -0.0055140000
F 1.2311580000 0.0000000000 0.5914810000
F -0.6155790000 -1.0662140000 0.5914810000
F -0.6155790000 1.0662140000 0.5914810000
$end


$rem
N_FROZEN_CORE FC
MEM_TOTAL 3750
MEM_STATIC 1500
AUX_BASIS_CORR rimp2-def2-QZVPPD
SCF_CONVERGENCE 7
SCF_ALGORITHM  GDM
method DSD-PBEPBE-D3
GEN_SCFMAN TRUE
UNRESTRICTED True
THRESH  14
SYMMETRY FALSE
SYM_IGNORE TRUE
max_scf_cycles 200

XC_GRID 000099000590
BASIS DEF2-QZVPPD


$end










