$molecule
0 1
C -1.0984790000 1.1619210000 0.0000000000
C 0.6400210000 2.4247850000 0.0000000000
C 1.1259050000 1.1495110000 0.0000000000
N 0.0000000000 0.3509960000 0.0000000000
H -2.1019320000 0.7726360000 0.0000000000
H 1.1968820000 3.3459150000 0.0000000000
H 2.1162460000 0.7342880000 0.0000000000
N -0.7362780000 2.4183330000 0.0000000000
Br -0.0017700000 -1.5044410000 0.0000000000
$end


$rem
N_FROZEN_CORE FC
MEM_TOTAL 3750
MEM_STATIC 1500
AUX_BASIS_CORR rimp2-def2-QZVPPD
SCF_CONVERGENCE 7
SCF_ALGORITHM  GDM
method DSD-PBEPBE-D3
GEN_SCFMAN TRUE
UNRESTRICTED True
THRESH  14
SYMMETRY FALSE
SYM_IGNORE TRUE
max_scf_cycles 200

XC_GRID 000099000590
BASIS DEF2-QZVPPD


$end










