$molecule
0 1
C 0.4005360000 0.9817370000 0.0000000000
H 1.4395620000 1.3056720000 0.0000000000
C -0.1409180000 0.6105120000 1.2363300000
H -1.2227680000 0.5681930000 1.3379340000
H -0.0243290000 -0.7740160000 0.8083030000
H 0.3904210000 0.8804810000 2.1392920000
H -0.0243290000 -0.7740160000 -0.8083030000
O -0.1409180000 -1.7092050000 0.0000000000
H 0.6889360000 -2.1979160000 0.0000000000
C -0.1409180000 0.6105120000 -1.2363300000
H 0.3904210000 0.8804810000 -2.1392920000
H -1.2227680000 0.5681930000 -1.3379340000
$end


$rem
N_FROZEN_CORE FC
MEM_TOTAL 3750
MEM_STATIC 1500
AUX_BASIS_CORR rimp2-def2-QZVPPD
SCF_CONVERGENCE 7
SCF_ALGORITHM  GDM
method DSD-PBEPBE-D3
GEN_SCFMAN TRUE
UNRESTRICTED True
THRESH  14
SYMMETRY FALSE
SYM_IGNORE TRUE
max_scf_cycles 200

XC_GRID 000099000590
BASIS DEF2-QZVPPD


$end










