$molecule
0 1
C -0.3546850000 -0.8166510000 0.0000000000
C 0.8098670000 -1.5345220000 0.6427890000
C 0.8098670000 -1.5345220000 -0.6427890000
C -0.4658700000 0.6684310000 0.0000000000
C -1.6624420000 1.2536760000 0.0000000000
H -1.3229720000 -1.3143930000 0.0000000000
H 1.2687260000 -1.8154620000 1.5730350000
H -2.5733730000 0.6685940000 0.0000000000
H 1.2687260000 -1.8154620000 -1.5730350000
H -1.7703480000 2.3298460000 0.0000000000
C 0.8098670000 1.4594680000 0.0000000000
H 1.4205550000 1.2214320000 0.8745020000
H 1.4205550000 1.2214320000 -0.8745020000
H 0.6085030000 2.5287350000 0.0000000000
$end


$rem
N_FROZEN_CORE FC
MEM_TOTAL 7500
MEM_STATIC 3000
AUX_BASIS_CORR rimp2-def2-QZVPPD
SCF_CONVERGENCE 7
SCF_ALGORITHM  GDM
method DSD-PBEPBE-D3
GEN_SCFMAN TRUE
UNRESTRICTED True
THRESH  14
SYMMETRY FALSE
SYM_IGNORE TRUE
max_scf_cycles 200

XC_GRID 000099000590
BASIS DEF2-QZVPPD


$end










