$molecule
0 1
C 0.0000000000 0.0000000000 -0.6391490000
C 0.0000000000 0.6562790000 -1.9232350000
C 0.0000000000 -0.6562790000 -1.9232350000
C 0.0000000000 0.0000000000 0.6855070000
C 0.0000000000 -1.2813600000 1.4720400000
H 0.0000000000 1.5637220000 -2.5003210000
H 0.0000000000 -2.1537830000 0.8190470000
H 0.0000000000 -1.5637220000 -2.5003210000
H 0.8769380000 -1.3495430000 2.1246850000
C 0.0000000000 1.2813600000 1.4720400000
H 0.0000000000 2.1537830000 0.8190470000
H -0.8769380000 1.3495430000 2.1246850000
H 0.8769380000 1.3495430000 2.1246850000
H -0.8769380000 -1.3495430000 2.1246850000
$end


$rem
N_FROZEN_CORE FC
MEM_TOTAL 7500
MEM_STATIC 3000
AUX_BASIS_CORR rimp2-def2-QZVPPD
SCF_CONVERGENCE 7
SCF_ALGORITHM  GDM
method DSD-PBEPBE-D3
GEN_SCFMAN TRUE
UNRESTRICTED True
THRESH  14
SYMMETRY FALSE
SYM_IGNORE TRUE
max_scf_cycles 200

XC_GRID 000099000590
BASIS DEF2-QZVPPD


$end










