$molecule
0 1
N -1.3980380000 0.0000000000 4.1000000000
C -0.6985370000 0.0000000000 5.2401300000
C 0.6941820000 0.0000000000 5.2953400000
C 1.4067470000 0.0000000000 4.1000000000
C 0.6941820000 0.0000000000 2.9046600000
C -0.6985370000 0.0000000000 2.9598700000
H -1.2816690000 0.0000000000 6.1568850000
H 1.1999250000 0.0000000000 6.2525480000
H 2.4885470000 0.0000000000 4.1000000000
H 1.1999250000 0.0000000000 1.9474520000
H -1.2816690000 0.0000000000 2.0431150000
$end


$rem
N_FROZEN_CORE FC
MEM_TOTAL 3750
MEM_STATIC 1500
AUX_BASIS_CORR rimp2-def2-QZVPPD
SCF_CONVERGENCE 7
SCF_ALGORITHM  GDM
method DSD-PBEPBE-D3
GEN_SCFMAN TRUE
UNRESTRICTED True
THRESH  14
SYMMETRY FALSE
SYM_IGNORE TRUE
max_scf_cycles 200

XC_GRID 000099000590
BASIS DEF2-QZVPPD


$end










