$molecule
0 1
Se 0.7622209160 0.6947954720 0.0000000000
C 0.1377473675 -0.9521233538 0.0000000000
F -0.2541275299 -1.6641835193 1.0667116190
F -0.2541275299 -1.6641835193 -1.0667116190
$end


$rem
N_FROZEN_CORE FC
MEM_TOTAL 3750
MEM_STATIC 1500
AUX_BASIS_CORR rimp2-def2-QZVPPD
SCF_CONVERGENCE 7
SCF_ALGORITHM  GDM
method DSD-PBEPBE-D3
GEN_SCFMAN TRUE
UNRESTRICTED True
THRESH  14
SYMMETRY FALSE
SYM_IGNORE TRUE
max_scf_cycles 200

XC_GRID 000099000590
BASIS DEF2-QZVPPD


$end










