$molecule
0 1
C 0.7762170000 -0.4963910000 0.0000000000
C 0.0000000000 0.5979810000 0.0000000000
C 0.5203070000 1.9545010000 0.0000000000
C -0.2534110000 3.0503790000 0.0000000000
H -1.0800440000 0.4873870000 0.0000000000
H 1.6005080000 2.0636710000 0.0000000000
H -1.3328650000 2.9675440000 0.0000000000
H 1.8552850000 -0.4001570000 0.0000000000
H 0.1741780000 4.0426620000 0.0000000000
H 0.3549780000 -1.4918700000 0.0000000000
O -0.7296200000 -3.7254200000 0.0000000000
H -1.6735740000 -3.9091270000 0.0000000000
H -0.3201890000 -4.5955780000 0.0000000000
$end


$rem
N_FROZEN_CORE FC
MEM_TOTAL 3750
MEM_STATIC 1500
AUX_BASIS_CORR rimp2-def2-QZVPPD
SCF_CONVERGENCE 7
SCF_ALGORITHM  GDM
method DSD-PBEPBE-D3
GEN_SCFMAN TRUE
UNRESTRICTED True
THRESH  14
SYMMETRY FALSE
SYM_IGNORE TRUE
max_scf_cycles 200

XC_GRID 000099000590
BASIS DEF2-QZVPPD


$end










