$molecule
1 2
O 0.0000000000 0.0000000000 0.0000000000
H 0.0000000000 0.0000000000 0.9614160907
H 0.9208997990 0.0000000000 -0.2761602065
H -1.2382619228 0.0000000000 -0.9214101701
N -2.0954434521 0.0000000000 -1.5592524263
H -2.5217176970 -0.8682805936 -1.8764497957
H -2.5217176970 0.8682805936 -1.8764497957
$end


$rem
N_FROZEN_CORE FC
MEM_TOTAL 3750
MEM_STATIC 1500
AUX_BASIS_CORR rimp2-def2-QZVPPD
SCF_CONVERGENCE 7
SCF_ALGORITHM  GDM
method DSD-PBEPBE-D3
GEN_SCFMAN TRUE
UNRESTRICTED True
THRESH  14
SYMMETRY FALSE
SYM_IGNORE TRUE
max_scf_cycles 200

XC_GRID 000099000590
BASIS DEF2-QZVPPD


$end










