$molecule
0 2
C 0.0000000000 0.0000000000 1.0959490000
C 0.0000000000 0.7351170000 -0.8737730000
C 0.0000000000 -0.7351170000 -0.8737730000
N 0.0000000000 -1.1604900000 0.3701730000
H 0.0000000000 0.0000000000 2.1754070000
H 0.0000000000 1.4012580000 -1.7241230000
H 0.0000000000 -1.4012580000 -1.7241230000
N 0.0000000000 1.1604900000 0.3701730000
$end


$rem
N_FROZEN_CORE FC
MEM_TOTAL 3750
MEM_STATIC 1500
AUX_BASIS_CORR rimp2-def2-QZVPPD
SCF_CONVERGENCE 7
SCF_ALGORITHM  GDM
method DSD-PBEPBE-D3
GEN_SCFMAN TRUE
UNRESTRICTED True
THRESH  14
SYMMETRY FALSE
SYM_IGNORE TRUE
max_scf_cycles 200

XC_GRID 000099000590
BASIS DEF2-QZVPPD


$end










