$molecule
0 1
O -0.7021960540 -0.0560602560 0.0099422620
H -1.0221932240 0.8467757820 -0.0114887140
H 0.2575210620 0.0421214960 0.0052189990
O 2.1684127950 0.0271283860 0.0007433430
H 2.5450344100 -0.4112516800 0.7668677250
H 2.5406771120 -0.4490845890 -0.7446591590
$end


$rem
N_FROZEN_CORE FC
MEM_TOTAL 3750
MEM_STATIC 1500
AUX_BASIS_CORR rimp2-def2-QZVPPD
SCF_CONVERGENCE 7
SCF_ALGORITHM  GDM
method DSD-PBEPBE-D3
GEN_SCFMAN TRUE
UNRESTRICTED True
THRESH  14
SYMMETRY FALSE
SYM_IGNORE TRUE
max_scf_cycles 200

XC_GRID 000099000590
BASIS DEF2-QZVPPD


$end










