$molecule
0 1
O -0.7021960540 -0.0560602560 0.0099422620
H -1.0221932240 0.8467757820 -0.0114887140
H 0.2575210620 0.0421214960 0.0052189990
O 2.4701167530 0.0247611770 0.0000366980
H 2.8467383680 -0.4136188890 0.7661610800
H 2.8423810700 -0.4514517980 -0.7453658040
$end


$rem
N_FROZEN_CORE FC
MEM_TOTAL 3750
MEM_STATIC 1500
AUX_BASIS_CORR rimp2-def2-QZVPPD
SCF_CONVERGENCE 7
SCF_ALGORITHM  GDM
method DSD-PBEPBE-D3
GEN_SCFMAN TRUE
UNRESTRICTED True
THRESH  14
SYMMETRY FALSE
SYM_IGNORE TRUE
max_scf_cycles 200

XC_GRID 000099000590
BASIS DEF2-QZVPPD


$end










