$molecule
0 1
O -0.5253297940 -0.0509710840 -0.3145168610
H -0.9420066330 0.7479016310 0.0112528160
H 0.4036965250 0.0597859810 -0.0735683680
O 2.1647779670 0.0466348500 0.0603139260
H 2.5327607910 -0.5254425530 0.7378422530
C 2.6297830380 -0.4249950660 -1.2018451840
H 2.1989659430 0.2260986250 -1.9549592160
H 3.7157467250 -0.3742022050 -1.2761571120
H 2.3014404200 -1.4448645630 -1.4009258180
$end


$rem
N_FROZEN_CORE FC
MEM_TOTAL 3750
MEM_STATIC 1500
AUX_BASIS_CORR rimp2-def2-QZVPPD
SCF_CONVERGENCE 7
SCF_ALGORITHM  GDM
method DSD-PBEPBE-D3
GEN_SCFMAN TRUE
UNRESTRICTED True
THRESH  14
SYMMETRY FALSE
SYM_IGNORE TRUE
max_scf_cycles 200

XC_GRID 000099000590
BASIS DEF2-QZVPPD


$end










