$molecule
0 1
O -0.5253297940 -0.0509710840 -0.3145168610
H -0.9420066330 0.7479016310 0.0112528160
H 0.4036965250 0.0597859810 -0.0735683680
O 2.4582749220 0.0444431190 0.0826263780
H 2.8262577460 -0.5276342840 0.7601547050
C 2.9232799930 -0.4271867970 -1.1795327320
H 2.4924628980 0.2239068940 -1.9326467640
H 4.0092436800 -0.3763939360 -1.2538446600
H 2.5949373750 -1.4470562940 -1.3786133660
$end


$rem
N_FROZEN_CORE FC
MEM_TOTAL 3750
MEM_STATIC 1500
AUX_BASIS_CORR rimp2-def2-QZVPPD
SCF_CONVERGENCE 7
SCF_ALGORITHM  GDM
method DSD-PBEPBE-D3
GEN_SCFMAN TRUE
UNRESTRICTED True
THRESH  14
SYMMETRY FALSE
SYM_IGNORE TRUE
max_scf_cycles 200

XC_GRID 000099000590
BASIS DEF2-QZVPPD


$end










