$molecule
0 1
O -0.5253297940 -0.0509710840 -0.3145168610
H -0.9420066330 0.7479016310 0.0112528160
H 0.4036965250 0.0597859810 -0.0735683680
O 2.5561072400 0.0437125420 0.0900638620
H 2.9240900640 -0.5283648610 0.7675921890
C 3.0211123110 -0.4279173740 -1.1720952480
H 2.5902952160 0.2231763170 -1.9252092800
H 4.1070759980 -0.3771245130 -1.2464071760
H 2.6927696930 -1.4477868710 -1.3711758820
$end


$rem
N_FROZEN_CORE FC
MEM_TOTAL 3750
MEM_STATIC 1500
AUX_BASIS_CORR rimp2-def2-QZVPPD
SCF_CONVERGENCE 7
SCF_ALGORITHM  GDM
method DSD-PBEPBE-D3
GEN_SCFMAN TRUE
UNRESTRICTED True
THRESH  14
SYMMETRY FALSE
SYM_IGNORE TRUE
max_scf_cycles 200

XC_GRID 000099000590
BASIS DEF2-QZVPPD


$end










