$molecule
0 1
O -0.7069201920 0.0458303670 0.0063861040
H 0.2656236150 0.0717101430 0.0013392930
C -1.0766706670 -1.3139158130 0.0016142800
H -2.1629235760 -1.3631957700 0.0058654240
H -0.7234059450 -1.8446516760 -0.8877434980
H -0.7160797780 -1.8528208280 0.8830797750
N 2.3303279150 -0.0436302910 -0.0036502650
H 2.7009474670 0.4641462150 0.7894821260
H 2.7010707550 0.4207082760 -0.8229090990
C 2.8080798510 -1.4296637380 0.0338109400
H 2.4161950140 -1.9636890150 -0.8283807890
H 3.8947910070 -1.5363989060 0.0368454350
H 2.4159534500 -1.9163939070 0.9234430870
$end


$rem
N_FROZEN_CORE FC
MEM_TOTAL 3750
MEM_STATIC 1500
AUX_BASIS_CORR rimp2-def2-QZVPPD
SCF_CONVERGENCE 7
SCF_ALGORITHM  GDM
method DSD-PBEPBE-D3
GEN_SCFMAN TRUE
UNRESTRICTED True
THRESH  14
SYMMETRY FALSE
SYM_IGNORE TRUE
max_scf_cycles 200

XC_GRID 000099000590
BASIS DEF2-QZVPPD


$end










