$molecule
-1 1
Cl 0.0000000000 0.0000000000 -2.2180722969
C 0.0000000000 0.0000000000 -0.3996659392
H -0.5125319416 0.8877313634 -0.0577142715
H -0.5125319416 -0.8877313634 -0.0577142715
H 1.0250638833 0.0000000000 -0.0577142715
Cl 0.0000000000 0.0000000000 2.7908810507
$end


$rem
N_FROZEN_CORE FC
MEM_TOTAL 3750
MEM_STATIC 1500
AUX_BASIS_CORR rimp2-def2-QZVPPD
SCF_CONVERGENCE 7
SCF_ALGORITHM  GDM
method DSD-PBEPBE-D3
GEN_SCFMAN TRUE
UNRESTRICTED True
THRESH  14
SYMMETRY FALSE
SYM_IGNORE TRUE
max_scf_cycles 200

XC_GRID 000099000590
BASIS DEF2-QZVPPD


$end










