$molecule
0 1
S -0.0020691613 0.2323473386 0.0000000000
N 0.0006198381 3.5325954775 0.0000000000
C 0.0008538040 -1.3717646591 0.0000000000
F 0.0022825815 -2.1574060705 1.0593787603
F 0.0022825815 -2.1574060705 -1.0593787603
H 0.4764058108 3.9113937136 0.8128553497
H -0.9303412654 3.9375965570 0.0000000000
H 0.4764058108 3.9113937136 -0.8128553497
$end


$rem
N_FROZEN_CORE FC
MEM_TOTAL 3750
MEM_STATIC 1500
AUX_BASIS_CORR rimp2-def2-QZVPPD
SCF_CONVERGENCE 7
SCF_ALGORITHM  GDM
method DSD-PBEPBE-D3
GEN_SCFMAN TRUE
UNRESTRICTED True
THRESH  14
SYMMETRY FALSE
SYM_IGNORE TRUE
max_scf_cycles 200

XC_GRID 000099000590
BASIS DEF2-QZVPPD


$end










