$molecule
1 2
H 0.0000000000 0.0000000000 0.0000000000
N 0.0000000000 0.0000000000 1.0142486611
O 2.2857616729 0.0000000000 0.5979441680
H 2.8552597140 0.7647266240 0.7342507617
H 2.8552597140 -0.7647266240 0.7342507617
H 0.0073163526 0.8773573399 1.5231676570
H 0.0073163526 -0.8773573399 1.5231676570
$end


$rem
N_FROZEN_CORE FC
MEM_TOTAL 3750
MEM_STATIC 1500
AUX_BASIS_CORR rimp2-def2-QZVPPD
SCF_CONVERGENCE 7
SCF_ALGORITHM  GDM
method DSD-PBEPBE-D3
GEN_SCFMAN TRUE
UNRESTRICTED True
THRESH  14
SYMMETRY FALSE
SYM_IGNORE TRUE
max_scf_cycles 200

XC_GRID 000099000590
BASIS DEF2-QZVPPD


$end










