$molecule
0 1
N -0.2875020000 -0.0697290000 0.0000000000
F -1.0830480000 0.2469080000 -1.0639450000
F -1.0830480000 0.2469080000 1.0639450000
F 0.6168940000 0.9719530000 0.0000000000
H 0.2788770000 3.3485460000 0.0000000000
C 0.1783810000 4.4120890000 0.0000000000
N 0.0685240000 5.5783950000 0.0000000000
$end


$rem
N_FROZEN_CORE FC
MEM_TOTAL 3750
MEM_STATIC 1500
AUX_BASIS_CORR rimp2-def2-QZVPPD
SCF_CONVERGENCE 7
SCF_ALGORITHM  GDM
method DSD-PBEPBE-D3
GEN_SCFMAN TRUE
UNRESTRICTED True
THRESH  14
SYMMETRY FALSE
SYM_IGNORE TRUE
max_scf_cycles 200

XC_GRID 000099000590
BASIS DEF2-QZVPPD


$end










