$molecule
0 1
C 0.1959380000 -1.6922700000 0.0000000000
C 0.2030810000 -0.3498320000 0.6733620000
C 0.2030810000 -0.3498320000 -0.6733620000
C 0.1928960000 0.7870170000 -1.4474410000
C 0.1928960000 1.9773480000 -0.6989340000
C 0.1928960000 1.9773480000 0.6989340000
C 0.1928960000 0.7870170000 1.4474410000
H 0.1862820000 0.8034330000 -2.5293490000
H 0.1920060000 2.9272070000 -1.2177790000
H 0.1920060000 2.9272070000 1.2177790000
H 0.1862820000 0.8034330000 2.5293490000
H 1.1352300000 -2.2451530000 0.0000000000
C -1.0236260000 -2.5930190000 0.0000000000
H -1.0246510000 -3.2353270000 -0.8826290000
H -1.0246510000 -3.2353270000 0.8826290000
H -1.9428500000 -2.0081460000 0.0000000000
$end


$rem
N_FROZEN_CORE FC
MEM_TOTAL 7500
MEM_STATIC 3000
AUX_BASIS_CORR rimp2-def2-QZVPPD
SCF_CONVERGENCE 7
SCF_ALGORITHM  GDM
method DSD-PBEPBE-D3
GEN_SCFMAN TRUE
UNRESTRICTED True
THRESH  14
SYMMETRY FALSE
SYM_IGNORE TRUE
max_scf_cycles 200

XC_GRID 000099000590
BASIS DEF2-QZVPPD


$end










