$molecule
0 1
C 0.0000000000 1.1303020000 -1.1192310000
C 0.0000000000 0.7100630000 -2.4265590000
C 0.0000000000 -0.7100630000 -2.4265590000
C 0.0000000000 -1.1303020000 -1.1192310000
N 0.0000000000 0.0000000000 -0.3385020000
H 0.0000000000 2.1103740000 -0.6791580000
H 0.0000000000 1.3568330000 -3.2873100000
H 0.0000000000 -1.3568330000 -3.2873100000
H 0.0000000000 -2.1103740000 -0.6791580000
Br 0.0000000000 0.0000000000 1.5100550000
$end


$rem
N_FROZEN_CORE FC
MEM_TOTAL 3750
MEM_STATIC 1500
AUX_BASIS_CORR rimp2-def2-QZVPPD
SCF_CONVERGENCE 7
SCF_ALGORITHM  GDM
method DSD-PBEPBE-D3
GEN_SCFMAN TRUE
UNRESTRICTED True
THRESH  14
SYMMETRY FALSE
SYM_IGNORE TRUE
max_scf_cycles 200

XC_GRID 000099000590
BASIS DEF2-QZVPPD


$end










