$molecule
0 1
C 1.6692230000 -0.6169270000 -0.0266110000
O 2.2012840000 0.4732950000 0.0429860000
H 2.3014240000 -1.5230780000 -0.1186010000
C 0.2340300000 -0.9129290000 -0.0001040000
H 0.0017330000 -1.9721890000 0.0080290000
C -0.7880820000 -0.0369090000 -0.0046290000
C -2.2028100000 -0.5306010000 0.0176990000
H -2.7399800000 -0.1008170000 0.8672480000
H -2.7321320000 -0.2011450000 -0.8802080000
H -2.2623830000 -1.6152060000 0.0792520000
C -0.6329600000 1.4509930000 -0.0280150000
H 0.3849710000 1.7596000000 -0.2334110000
H -1.3163010000 1.8854830000 -0.7611870000
H -0.9240110000 1.8592280000 0.9449550000
$end


$rem
N_FROZEN_CORE FC
MEM_TOTAL 7500
MEM_STATIC 3000
AUX_BASIS_CORR rimp2-def2-QZVPPD
SCF_CONVERGENCE 7
SCF_ALGORITHM  GDM
method DSD-PBEPBE-D3
GEN_SCFMAN TRUE
UNRESTRICTED True
THRESH  14
SYMMETRY FALSE
SYM_IGNORE TRUE
max_scf_cycles 200

XC_GRID 000099000590
BASIS DEF2-QZVPPD


$end










