$molecule
0 1
C 0.3417020000 -0.6951330000 0.0000000000
H 1.4249350000 -0.5202950000 0.0000000000
C -0.3417020000 0.6951330000 0.0000000000
H -1.4249350000 0.5202950000 0.0000000000
C 0.0000000000 1.5139240000 1.2508110000
H -0.3423720000 1.0370170000 2.1676090000
H 1.0797580000 1.6636180000 1.3337150000
H -0.4647980000 2.4997920000 1.2023450000
C 0.0000000000 1.5139240000 -1.2508110000
H -0.3423720000 1.0370170000 -2.1676090000
H -0.4647980000 2.4997920000 -1.2023450000
H 1.0797580000 1.6636180000 -1.3337150000
C 0.0000000000 -1.5139240000 -1.2508110000
H -1.0797580000 -1.6636180000 -1.3337150000
H 0.3423720000 -1.0370170000 -2.1676090000
H 0.4647980000 -2.4997920000 -1.2023450000
C 0.0000000000 -1.5139240000 1.2508110000
H 0.3423720000 -1.0370170000 2.1676090000
H -1.0797580000 -1.6636180000 1.3337150000
H 0.4647980000 -2.4997920000 1.2023450000
$end


$rem
N_FROZEN_CORE FC
MEM_TOTAL 15000
MEM_STATIC 6000
AUX_BASIS_CORR rimp2-def2-QZVPPD
SCF_CONVERGENCE 7
SCF_ALGORITHM  GDM
method DSD-PBEPBE-D3
GEN_SCFMAN TRUE
UNRESTRICTED True
THRESH  14
SYMMETRY FALSE
SYM_IGNORE TRUE
max_scf_cycles 200

XC_GRID 000099000590
BASIS DEF2-QZVPPD


$end










