$molecule
0 2
B 0.0000000000 0.0000000000 0.0000000000
F 0.0000000000 0.0000000000 3.1510313916
H 1.0753530252 0.0000000000 -0.4817873066
H -0.0000000000 0.0000000000 2.2206276709
H -1.0753530252 0.0000000000 -0.4817873066
$end


$rem
N_FROZEN_CORE FC
MEM_TOTAL 3750
MEM_STATIC 1500
AUX_BASIS_CORR rimp2-def2-QZVPPD
SCF_CONVERGENCE 7
SCF_ALGORITHM  GDM
method DSD-PBEPBE-D3
GEN_SCFMAN TRUE
UNRESTRICTED True
THRESH  14
SYMMETRY FALSE
SYM_IGNORE TRUE
max_scf_cycles 200

XC_GRID 000099000590
BASIS DEF2-QZVPPD


$end










