$molecule
0 1
F 0.0436775100 1.4101577111 0.0000000000
H 0.0691042097 0.4766170514 0.0000000000
O 0.0416798165 -1.2370955847 0.0000000000
H -0.3915952681 -1.6256385889 0.7632048070
H -0.3915952681 -1.6256385889 -0.7632048070
$end


$rem
N_FROZEN_CORE FC
MEM_TOTAL 3750
MEM_STATIC 1500
AUX_BASIS_CORR rimp2-def2-QZVPPD
SCF_CONVERGENCE 7
SCF_ALGORITHM  GDM
method DSD-PBEPBE-D3
GEN_SCFMAN TRUE
UNRESTRICTED True
THRESH  14
SYMMETRY FALSE
SYM_IGNORE TRUE
max_scf_cycles 200

XC_GRID 000099000590
BASIS DEF2-QZVPPD


$end










