$molecule
0 1
N 0.0034695361 3.5558888555 0.0000000000
H 0.4762079831 3.9375998654 0.8133292254
H -0.9308886360 3.9532188612 0.0000000000
H 0.4762079831 3.9375998654 -0.8133292254
$end


$rem
N_FROZEN_CORE FC
MEM_TOTAL 3750
MEM_STATIC 1500
AUX_BASIS_CORR rimp2-def2-QZVPPD
SCF_CONVERGENCE 7
SCF_ALGORITHM  GDM
method DSD-PBEPBE-D3
GEN_SCFMAN TRUE
UNRESTRICTED True
THRESH  14
SYMMETRY FALSE
SYM_IGNORE TRUE
max_scf_cycles 200

XC_GRID 000099000590
BASIS DEF2-QZVPPD


$end










