$molecule
0 1
N -0.4131970000 -1.3993750000 0.0000000000
F -0.0816550000 -2.1853040000 1.0632570000
F -0.0816550000 -2.1853040000 -1.0632570000
F 0.6120500000 -0.4711740000 0.0000000000
H 0.2559650000 1.8548260000 0.0000000000
C 0.0497580000 2.9030580000 0.0000000000
N -0.1769790000 4.0523340000 0.0000000000
$end


$rem
N_FROZEN_CORE FC
MEM_TOTAL 3750
MEM_STATIC 1500
AUX_BASIS_CORR rimp2-def2-QZVPPD
SCF_CONVERGENCE 7
SCF_ALGORITHM  GDM
method DSD-PBEPBE-D3
GEN_SCFMAN TRUE
UNRESTRICTED True
THRESH  14
SYMMETRY FALSE
SYM_IGNORE TRUE
max_scf_cycles 200

XC_GRID 000099000590
BASIS DEF2-QZVPPD


$end










