$molecule
0 1
Se -0.0019766792 0.3256098524 0.0000000000
C 0.0004322207 -1.4362373784 0.0000000000
F 0.0014987960 -2.2174749607 1.0605577528
F 0.0014987960 -2.2174749607 -1.0605577528
$end


$rem
N_FROZEN_CORE FC
MEM_TOTAL 3750
MEM_STATIC 1500
AUX_BASIS_CORR rimp2-def2-QZVPPD
SCF_CONVERGENCE 7
SCF_ALGORITHM  GDM
method DSD-PBEPBE-D3
GEN_SCFMAN TRUE
UNRESTRICTED True
THRESH  14
SYMMETRY FALSE
SYM_IGNORE TRUE
max_scf_cycles 200

XC_GRID 000099000590
BASIS DEF2-QZVPPD


$end










