$molecule
0 2
C 0.0000000000 1.0626180000 0.4237320000
C 0.0000000000 0.6786780000 -0.9805790000
C 0.0000000000 -0.6786780000 -0.9805790000
C 0.0000000000 -1.0626180000 0.4237320000
N 0.0000000000 0.0000000000 1.2424870000
H 0.0000000000 2.0696330000 0.8168050000
H 0.0000000000 1.3486460000 -1.8244280000
H 0.0000000000 -1.3486460000 -1.8244280000
H 0.0000000000 -2.0696330000 0.8168050000
$end


$rem
N_FROZEN_CORE FC
MEM_TOTAL 3750
MEM_STATIC 1500
AUX_BASIS_CORR rimp2-def2-QZVPPD
SCF_CONVERGENCE 7
SCF_ALGORITHM  GDM
method DSD-PBEPBE-D3
GEN_SCFMAN TRUE
UNRESTRICTED True
THRESH  14
SYMMETRY FALSE
SYM_IGNORE TRUE
max_scf_cycles 200

XC_GRID 000099000590
BASIS DEF2-QZVPPD


$end










