$molecule
0 1
C 0.4966180000 0.9453210000 0.2830690000
H 0.9905760000 1.5218220000 1.0628080000
C -0.7032780000 1.4327910000 -0.2066700000
H -1.0045630000 1.1716200000 -1.2177630000
H -1.4663380000 0.1338920000 0.1290210000
H -1.0675590000 2.3865800000 0.1529860000
H -0.5795510000 -1.1563030000 -0.1636390000
O -1.6365420000 -1.0048900000 0.0232200000
H -1.8271180000 -1.3904810000 0.8895460000
S 1.2054280000 -0.5560430000 -0.0935700000
$end


$rem
N_FROZEN_CORE FC
MEM_TOTAL 3750
MEM_STATIC 1500
AUX_BASIS_CORR rimp2-def2-QZVPPD
SCF_CONVERGENCE 7
SCF_ALGORITHM  GDM
method DSD-PBEPBE-D3
GEN_SCFMAN TRUE
UNRESTRICTED True
THRESH  14
SYMMETRY FALSE
SYM_IGNORE TRUE
max_scf_cycles 200

XC_GRID 000099000590
BASIS DEF2-QZVPPD


$end










