$molecule
0 1
C 11.5410000000 27.6860000000 13.6960000000
H 12.4590000000 27.1500000000 13.4460000000
C 10.7900000000 27.9650000000 12.4060000000
H 10.5570000000 27.0140000000 11.9240000000
H 9.8790000000 28.5140000000 12.6430000000
H 11.4430000000 28.5680000000 11.7620000000
H 10.9033700000 27.0648700000 14.3422400000
H 11.7878900000 28.6247600000 14.2134700000
$end


$rem
N_FROZEN_CORE FC
MEM_TOTAL 3750
MEM_STATIC 1500
AUX_BASIS_CORR rimp2-def2-QZVPPD
SCF_CONVERGENCE 7
SCF_ALGORITHM  GDM
method DSD-PBEPBE-D3
GEN_SCFMAN TRUE
UNRESTRICTED True
THRESH  14
SYMMETRY FALSE
SYM_IGNORE TRUE
max_scf_cycles 200

XC_GRID 000099000590
BASIS DEF2-QZVPPD


$end










