$molecule
0 1
S 0.0000000000 0.0000553556 -0.6565980388
P 0.0000000000 0.0000081732 1.2313460427
F 0.0000000000 1.3572487843 2.0254520612
F -1.1754084867 -0.6786310981 2.0253568777
F 1.1754084867 -0.6786310981 2.0253568777
$end


$rem
N_FROZEN_CORE FC
MEM_TOTAL 3750
MEM_STATIC 1500
AUX_BASIS_CORR rimp2-def2-QZVPPD
SCF_CONVERGENCE 7
SCF_ALGORITHM  GDM
method DSD-PBEPBE-D3
GEN_SCFMAN TRUE
UNRESTRICTED True
THRESH  14
SYMMETRY FALSE
SYM_IGNORE TRUE
max_scf_cycles 200

XC_GRID 000099000590
BASIS DEF2-QZVPPD


$end










