$molecule
0 1
C 0.3583320000 1.5038260000 0.0000000000
C -1.1469610000 1.9407340000 0.0000000000
C -1.5180770000 0.6495690000 0.0000000000
C -0.0111170000 0.2115520000 0.0000000000
H 1.3039160000 2.0245040000 0.0000000000
H 0.5059340000 -0.7367060000 0.0000000000
H -2.4652840000 0.1317460000 0.0000000000
H -1.6714250000 2.8842500000 0.0000000000
$end


$rem
N_FROZEN_CORE FC
MEM_TOTAL 3750
MEM_STATIC 1500
AUX_BASIS_CORR rimp2-def2-QZVPPD
SCF_CONVERGENCE 7
SCF_ALGORITHM  GDM
method DSD-PBEPBE-D3
GEN_SCFMAN TRUE
UNRESTRICTED True
THRESH  14
SYMMETRY FALSE
SYM_IGNORE TRUE
max_scf_cycles 200

XC_GRID 000099000590
BASIS DEF2-QZVPPD


$end










