$molecule
0 1
C -1.8149660000 0.3014690000 0.0126470000
H -2.5927240000 1.0862960000 0.0535340000
O -2.0553280000 -0.8782750000 -0.0023250000
N -0.5835910000 0.8822240000 -0.0454130000
H -0.4696430000 1.8721820000 0.1039530000
Br 0.9851410000 -0.1119050000 0.0029460000
$end


$rem
N_FROZEN_CORE FC
MEM_TOTAL 3750
MEM_STATIC 1500
AUX_BASIS_CORR rimp2-def2-QZVPPD
SCF_CONVERGENCE 7
SCF_ALGORITHM  GDM
method DSD-PBEPBE-D3
GEN_SCFMAN TRUE
UNRESTRICTED True
THRESH  14
SYMMETRY FALSE
SYM_IGNORE TRUE
max_scf_cycles 200

XC_GRID 000099000590
BASIS DEF2-QZVPPD


$end










