$molecule
0 1
C 0.1487510000 2.7109930000 0.0000000000
C 0.0000000000 1.2103280000 0.0000000000
C -1.2737660000 0.6272750000 0.0000000000
C -1.4856660000 -0.7645210000 0.0000000000
C -0.3254140000 -1.4967300000 0.0000000000
C 0.9030090000 -0.9499200000 0.0000000000
C 1.1567050000 0.3973940000 0.0000000000
C 0.8332150000 -2.4470070000 0.0000000000
H 0.6997670000 3.0542130000 0.8782000000
H -0.8203800000 3.2076520000 0.0000000000
H 0.6997670000 3.0542130000 -0.8782000000
H -2.1351680000 1.2837130000 0.0000000000
H -2.4856250000 -1.1779090000 0.0000000000
H 2.1450060000 0.8407290000 0.0000000000
H 1.0778120000 -2.9947430000 0.9076070000
H 1.0778120000 -2.9947430000 -0.9076070000
$end


$rem
N_FROZEN_CORE FC
MEM_TOTAL 7500
MEM_STATIC 3000
AUX_BASIS_CORR rimp2-def2-QZVPPD
SCF_CONVERGENCE 7
SCF_ALGORITHM  GDM
method DSD-PBEPBE-D3
GEN_SCFMAN TRUE
UNRESTRICTED True
THRESH  14
SYMMETRY FALSE
SYM_IGNORE TRUE
max_scf_cycles 200

XC_GRID 000099000590
BASIS DEF2-QZVPPD


$end










