$molecule
0 1
C 0.0000000000 0.0000000000 1.5793070000
H 0.0000000000 0.0000000000 2.6782940000
H 0.0000000000 1.2288890000 -0.3245360000
H 0.0000000000 -1.2288890000 -0.3245360000
O 0.0254370000 -1.1963760000 -1.4244840000
O 0.0034910000 1.1307520000 1.0265780000
O -0.0034910000 -1.1307520000 1.0265780000
O -0.0254370000 1.1963760000 -1.4244840000
H 0.0000000000 0.0000000000 -1.5829620000
H 0.7540720000 1.6368200000 -1.7777710000
H -0.7540720000 -1.6368200000 -1.7777710000
$end


$rem
N_FROZEN_CORE FC
MEM_TOTAL 3750
MEM_STATIC 1500
AUX_BASIS_CORR rimp2-def2-QZVPPD
SCF_CONVERGENCE 7
SCF_ALGORITHM  GDM
method DSD-PBEPBE-D3
GEN_SCFMAN TRUE
UNRESTRICTED True
THRESH  14
SYMMETRY FALSE
SYM_IGNORE TRUE
max_scf_cycles 200

XC_GRID 000099000590
BASIS DEF2-QZVPPD


$end










