$molecule
0 1
C -1.8115530000 -0.4117520000 -0.4273780000
C -2.8134330000 0.2039980000 0.5572050000
C -0.4860520000 0.2784910000 -0.4035860000
C 0.6769110000 -0.2929680000 -0.0800550000
C 1.9487820000 0.4026290000 -0.0502850000
C 3.1136600000 -0.1631010000 0.2701810000
H -2.2316050000 -0.3529170000 -1.4370770000
H -1.6764820000 -1.4724480000 -0.2064280000
H -3.7806530000 -0.2959310000 0.4954870000
H -2.9697960000 1.2630100000 0.3452790000
H -2.4501280000 0.1205100000 1.5818170000
H -0.4923730000 1.3359960000 -0.6573120000
H 0.6936530000 -1.3480920000 0.1796460000
H 1.9252120000 1.4565650000 -0.3105920000
H 3.1768860000 -1.2113500000 0.5350260000
H 4.0354000000 0.4008690000 0.2776700000
$end


$rem
N_FROZEN_CORE FC
MEM_TOTAL 7500
MEM_STATIC 3000
AUX_BASIS_CORR rimp2-def2-QZVPPD
SCF_CONVERGENCE 7
SCF_ALGORITHM  GDM
method DSD-PBEPBE-D3
GEN_SCFMAN TRUE
UNRESTRICTED True
THRESH  14
SYMMETRY FALSE
SYM_IGNORE TRUE
max_scf_cycles 200

XC_GRID 000099000590
BASIS DEF2-QZVPPD


$end










