$molecule
0 1
C 0.6533690000 0.0693460000 -0.0003480000
C -1.4309430000 -0.6163080000 0.1067110000
O -1.3809080000 0.7856450000 -0.0956930000
N -0.0018230000 1.1592650000 0.0441200000
C 2.1281920000 -0.0594010000 0.0216720000
H 2.4456950000 -0.6641640000 0.8715330000
H 2.4701370000 -0.5558130000 -0.8876390000
H 2.5803130000 0.9260620000 0.0864270000
H -1.7217180000 -0.8565670000 1.1372560000
H -2.1010480000 -1.0742440000 -0.6185630000
O -0.0896330000 -1.0671390000 -0.1125650000
$end


$rem
N_FROZEN_CORE FC
MEM_TOTAL 3750
MEM_STATIC 1500
AUX_BASIS_CORR rimp2-def2-QZVPPD
SCF_CONVERGENCE 7
SCF_ALGORITHM  GDM
method DSD-PBEPBE-D3
GEN_SCFMAN TRUE
UNRESTRICTED True
THRESH  14
SYMMETRY FALSE
SYM_IGNORE TRUE
max_scf_cycles 200

XC_GRID 000099000590
BASIS DEF2-QZVPPD


$end










