$molecule
0 1
C -0.6017299560 -0.0285701180 0.3849349160
H -1.6637354300 -0.0285265660 0.3790143110
C 0.6101091740 -0.0286636440 0.3881637880
H 1.6721354440 -0.0287930820 0.3879675200
C -0.0065575240 0.0909680300 3.8778301180
H -0.0031631440 0.0572329780 2.8145332360
C -0.0104939470 0.1292580530 5.0892955010
H -0.0137601790 0.1626339340 6.1502069190
$end


$rem
N_FROZEN_CORE FC
MEM_TOTAL 3750
MEM_STATIC 1500
AUX_BASIS_CORR rimp2-def2-QZVPPD
SCF_CONVERGENCE 7
SCF_ALGORITHM  GDM
method DSD-PBEPBE-D3
GEN_SCFMAN TRUE
UNRESTRICTED True
THRESH  14
SYMMETRY FALSE
SYM_IGNORE TRUE
max_scf_cycles 200

XC_GRID 000099000590
BASIS DEF2-QZVPPD


$end










