$molecule
-1 1
S 0.0000000000 -0.0000013026 -0.6140869206
Br 0.0000000000 -0.0000051669 -3.8875431486
P 0.0000000000 -0.0000064535 1.2712716672
F 0.0000000000 1.3576985932 2.0594886851
F -1.1757900496 -0.6788428351 2.0594598584
F 1.1757900496 -0.6788428351 2.0594598584
$end


$rem
N_FROZEN_CORE FC
MEM_TOTAL 3750
MEM_STATIC 1500
AUX_BASIS_CORR rimp2-def2-QZVPPD
SCF_CONVERGENCE 7
SCF_ALGORITHM  GDM
method DSD-PBEPBE-D3
GEN_SCFMAN TRUE
UNRESTRICTED True
THRESH  14
SYMMETRY FALSE
SYM_IGNORE TRUE
max_scf_cycles 200

XC_GRID 000099000590
BASIS DEF2-QZVPPD


$end










