$molecule
0 1
C -0.2802010000 1.5308510000 0.0000000000
C 1.2512660000 1.8648270000 0.0000000000
C 1.5339600000 0.5514080000 0.0000000000
C 0.0009410000 0.2163970000 0.0000000000
H -1.1886010000 2.1140450000 0.0000000000
H -0.5796660000 -0.6943140000 0.0000000000
H 2.4434840000 -0.0300270000 0.0000000000
H 1.8384640000 2.7706430000 0.0000000000
O -1.6719510000 -2.8301020000 0.0000000000
H -2.0750600000 -3.2612330000 0.7593080000
H -2.0750600000 -3.2612330000 -0.7593080000
$end


$rem
N_FROZEN_CORE FC
MEM_TOTAL 3750
MEM_STATIC 1500
AUX_BASIS_CORR rimp2-def2-QZVPPD
SCF_CONVERGENCE 7
SCF_ALGORITHM  GDM
method DSD-PBEPBE-D3
GEN_SCFMAN TRUE
UNRESTRICTED True
THRESH  14
SYMMETRY FALSE
SYM_IGNORE TRUE
max_scf_cycles 200

XC_GRID 000099000590
BASIS DEF2-QZVPPD


$end










