$molecule
0 2
N 0.0000000000 0.0000000000 0.0000000000
F 0.0000000000 0.0000000000 2.6899132305
H 0.8136367872 0.0000000000 -0.6147276174
H -0.0000000668 0.0000000000 1.7503776830
H -0.8136367638 0.0000000000 -0.6147276484
$end


$rem
N_FROZEN_CORE FC
MEM_TOTAL 3750
MEM_STATIC 1500
AUX_BASIS_CORR rimp2-def2-QZVPPD
SCF_CONVERGENCE 7
SCF_ALGORITHM  GDM
method DSD-PBEPBE-D3
GEN_SCFMAN TRUE
UNRESTRICTED True
THRESH  14
SYMMETRY FALSE
SYM_IGNORE TRUE
max_scf_cycles 200

XC_GRID 000099000590
BASIS DEF2-QZVPPD


$end










