$molecule
0 2
C 0.0826070000 0.4275300000 0.0446920000
H 0.1501340000 1.5212760000 0.0461830000
O 1.0810480000 -0.2883370000 -0.0222490000
N -1.1638670000 -0.1005010000 -0.0561130000
H -1.1470960000 -1.0762550000 0.2564520000
$end


$rem
N_FROZEN_CORE FC
MEM_TOTAL 3750
MEM_STATIC 1500
AUX_BASIS_CORR rimp2-def2-QZVPPD
SCF_CONVERGENCE 7
SCF_ALGORITHM  GDM
method DSD-PBEPBE-D3
GEN_SCFMAN TRUE
UNRESTRICTED True
THRESH  14
SYMMETRY FALSE
SYM_IGNORE TRUE
max_scf_cycles 200

XC_GRID 000099000590
BASIS DEF2-QZVPPD


$end










