$molecule
0 1
P 0.0000000000 0.0000000000 4.0901240000
C 0.0000000000 0.0000000000 5.6155140000
H 0.0000000000 0.0000000000 6.6871910000
Br 0.0000000000 0.0000000000 0.4565000000
C 0.0000000000 0.0000000000 -1.4362070000
C 0.0000000000 1.2067070000 -2.1154790000
C 0.0000000000 1.1995710000 -3.5023770000
C 0.0000000000 0.0000000000 -4.1976780000
C 0.0000000000 -1.1995710000 -3.5023770000
C 0.0000000000 -1.2067070000 -2.1154790000
H 0.0000000000 2.1389920000 -1.5674320000
H 0.0000000000 2.1397330000 -4.0386840000
H 0.0000000000 0.0000000000 -5.2798110000
H 0.0000000000 -2.1397330000 -4.0386840000
H 0.0000000000 -2.1389920000 -1.5674320000
$end


$rem
N_FROZEN_CORE FC
MEM_TOTAL 7500
MEM_STATIC 3000
AUX_BASIS_CORR rimp2-def2-QZVPPD
SCF_CONVERGENCE 7
SCF_ALGORITHM  GDM
method DSD-PBEPBE-D3
GEN_SCFMAN TRUE
UNRESTRICTED True
THRESH  14
SYMMETRY FALSE
SYM_IGNORE TRUE
max_scf_cycles 200

XC_GRID 000099000590
BASIS DEF2-QZVPPD


$end










