$molecule
0 1
C -0.4596430000 2.4850100000 0.6427820000
C -0.4596430000 2.4850100000 -0.6427820000
C 0.2102170000 1.2887800000 0.0000000000
C -0.4596430000 -0.0294670000 0.0000000000
C 0.1035950000 -1.2411190000 0.0000000000
H 1.2957350000 1.2640820000 0.0000000000
H -1.5451930000 0.0240920000 0.0000000000
H -0.7489480000 2.9360920000 1.5744360000
C -0.7398890000 -2.4853360000 0.0000000000
H -1.8039110000 -2.2529870000 0.0000000000
H -0.5248930000 -3.1045190000 -0.8762750000
H -0.7489480000 2.9360920000 -1.5744360000
H -0.5248930000 -3.1045190000 0.8762750000
C 1.5849600000 -1.4941500000 0.0000000000
H 2.1775830000 -0.5835720000 0.0000000000
H 1.8718660000 -2.0835630000 0.8757940000
H 1.8718660000 -2.0835630000 -0.8757940000
$end


$rem
N_FROZEN_CORE FC
MEM_TOTAL 7500
MEM_STATIC 3000
AUX_BASIS_CORR rimp2-def2-QZVPPD
SCF_CONVERGENCE 7
SCF_ALGORITHM  GDM
method DSD-PBEPBE-D3
GEN_SCFMAN TRUE
UNRESTRICTED True
THRESH  14
SYMMETRY FALSE
SYM_IGNORE TRUE
max_scf_cycles 200

XC_GRID 000099000590
BASIS DEF2-QZVPPD


$end










