$molecule
0 1
C -0.6017299560 -0.0285701180 0.3849349160
H -1.6637354300 -0.0285265660 0.3790143110
C 0.6101091740 -0.0286636440 0.3881637880
H 1.6721354440 -0.0287930820 0.3879675200
C -0.0074222260 0.1010641820 4.1633669090
H -0.0040278460 0.0673291300 3.1000700270
C -0.0113586490 0.1393542050 5.3748322920
H -0.0146248810 0.1727300860 6.4357437100
$end


$rem
N_FROZEN_CORE FC
MEM_TOTAL 3750
MEM_STATIC 1500
AUX_BASIS_CORR rimp2-def2-QZVPPD
SCF_CONVERGENCE 7
SCF_ALGORITHM  GDM
method DSD-PBEPBE-D3
GEN_SCFMAN TRUE
UNRESTRICTED True
THRESH  14
SYMMETRY FALSE
SYM_IGNORE TRUE
max_scf_cycles 200

XC_GRID 000099000590
BASIS DEF2-QZVPPD


$end










