$molecule
0 1
C -1.0068672190 -0.0305682130 -0.0247728540
H 0.0590033290 -0.0609397370 -0.0493656180
C -2.2187437960 0.0031734700 0.0025991960
H -3.2792773020 0.0335249060 0.0272004800
O 2.5116298600 -0.1550784480 -0.1228978720
H 3.0819862750 -0.7448478290 0.3741290540
H 3.0836257020 0.1959095740 -0.8082700260
$end


$rem
N_FROZEN_CORE FC
MEM_TOTAL 3750
MEM_STATIC 1500
AUX_BASIS_CORR rimp2-def2-QZVPPD
SCF_CONVERGENCE 7
SCF_ALGORITHM  GDM
method DSD-PBEPBE-D3
GEN_SCFMAN TRUE
UNRESTRICTED True
THRESH  14
SYMMETRY FALSE
SYM_IGNORE TRUE
max_scf_cycles 200

XC_GRID 000099000590
BASIS DEF2-QZVPPD


$end










