$molecule
0 1
C 0.0143310000 -0.0006060000 -0.0015540000
C 0.0143310000 -0.0006060000 1.3415540000
C 1.5775680000 0.1192150000 1.3429020000
C 1.5775680000 0.1192150000 -0.0029020000
H -0.7433190000 -0.0752510000 -0.7657030000
H 2.3386580000 0.2027150000 -0.7641220000
H 2.3386580000 0.2027150000 2.1041220000
H -0.7433190000 -0.0752510000 2.1057030000
$end


$rem
N_FROZEN_CORE FC
MEM_TOTAL 3750
MEM_STATIC 1500
AUX_BASIS_CORR rimp2-def2-QZVPPD
SCF_CONVERGENCE 7
SCF_ALGORITHM  GDM
method DSD-PBEPBE-D3
GEN_SCFMAN TRUE
UNRESTRICTED True
THRESH  14
SYMMETRY FALSE
SYM_IGNORE TRUE
max_scf_cycles 200

XC_GRID 000099000590
BASIS DEF2-QZVPPD


$end










