$molecule
0 1
Se 0.0000000000 0.0000018782 -0.8194764720
P 0.0000000000 -0.0000047592 1.2546132901
F 0.0000000000 1.3574531475 2.0670945695
F -1.1755782906 -0.6787209184 2.0670599811
F 1.1755782906 -0.6787209184 2.0670599811
$end


$rem
N_FROZEN_CORE FC
MEM_TOTAL 3750
MEM_STATIC 1500
AUX_BASIS_CORR rimp2-def2-QZVPPD
SCF_CONVERGENCE 7
SCF_ALGORITHM  GDM
method DSD-PBEPBE-D3
GEN_SCFMAN TRUE
UNRESTRICTED True
THRESH  14
SYMMETRY FALSE
SYM_IGNORE TRUE
max_scf_cycles 200

XC_GRID 000099000590
BASIS DEF2-QZVPPD


$end










