$molecule
0 1
C -0.4342240000 0.6710130000 1.2718490000
C 0.4342240000 -0.6710130000 1.2718490000
C 0.1215430000 1.8479150000 0.5160090000
C -0.1215430000 -1.8479150000 0.5160090000
C 0.3358990000 1.8364170000 -0.8164430000
C -0.3358990000 -1.8364170000 -0.8164430000
C 0.1215430000 0.5942300000 -1.4539330000
C -0.1215430000 -0.5942300000 -1.4539330000
H 0.3534990000 2.7486620000 1.0732580000
H -0.3534990000 -2.7486620000 1.0732580000
H 0.6944220000 2.7090440000 -1.3447310000
H -0.6944220000 -2.7090440000 -1.3447310000
H -1.4130670000 0.4259240000 0.8583000000
H -0.5950350000 0.9642380000 2.3082760000
H 0.5950350000 -0.9642380000 2.3082760000
H 1.4130670000 -0.4259240000 0.8583000000
$end


$rem
N_FROZEN_CORE FC
MEM_TOTAL 7500
MEM_STATIC 3000
AUX_BASIS_CORR rimp2-def2-QZVPPD
SCF_CONVERGENCE 7
SCF_ALGORITHM  GDM
method DSD-PBEPBE-D3
GEN_SCFMAN TRUE
UNRESTRICTED True
THRESH  14
SYMMETRY FALSE
SYM_IGNORE TRUE
max_scf_cycles 200

XC_GRID 000099000590
BASIS DEF2-QZVPPD


$end










