$molecule
0 1
C -1.4380660000 0.1835600000 -0.0169670000
O -1.3440580000 1.3886300000 -0.0109580000
N -0.3586460000 -0.6637160000 -0.1205480000
C -2.7707220000 -0.5433280000 0.0421880000
H -3.3950170000 -0.1716910000 -0.7685880000
H -2.6904810000 -1.6259470000 -0.0372780000
H -3.2559360000 -0.2865460000 0.9832660000
H -0.4437110000 -1.6393930000 0.1127230000
Br 1.3800250000 -0.0165960000 0.0140020000
$end


$rem
N_FROZEN_CORE FC
MEM_TOTAL 3750
MEM_STATIC 1500
AUX_BASIS_CORR rimp2-def2-QZVPPD
SCF_CONVERGENCE 7
SCF_ALGORITHM  GDM
method DSD-PBEPBE-D3
GEN_SCFMAN TRUE
UNRESTRICTED True
THRESH  14
SYMMETRY FALSE
SYM_IGNORE TRUE
max_scf_cycles 200

XC_GRID 000099000590
BASIS DEF2-QZVPPD


$end










