$molecule
-1 1
Se 0.0000000000 0.0000014350 -0.7715240424
Br 0.0000000000 -0.0000076238 -3.8692539248
P 0.0000000000 -0.0000051446 1.2930831306
F 0.0000000000 1.3578150365 2.0983939570
F -1.1758915741 -0.6789018515 2.0983604398
F 1.1758915741 -0.6789018515 2.0983604398
$end


$rem
N_FROZEN_CORE FC
MEM_TOTAL 3750
MEM_STATIC 1500
AUX_BASIS_CORR rimp2-def2-QZVPPD
SCF_CONVERGENCE 7
SCF_ALGORITHM  GDM
method DSD-PBEPBE-D3
GEN_SCFMAN TRUE
UNRESTRICTED True
THRESH  14
SYMMETRY FALSE
SYM_IGNORE TRUE
max_scf_cycles 200

XC_GRID 000099000590
BASIS DEF2-QZVPPD


$end










