$molecule
0 1
Br 0.0000000000 0.0000000000 0.1793800000
Br 0.0000000000 0.0000000000 2.4562570000
F 0.0000000000 0.0000000000 -3.0118260000
C 0.0000000000 0.0000000000 -4.2893500000
C 0.0000000000 0.0000000000 -5.4775610000
H 0.0000000000 0.0000000000 -6.5393890000
$end


$rem
N_FROZEN_CORE FC
MEM_TOTAL 3750
MEM_STATIC 1500
AUX_BASIS_CORR rimp2-def2-QZVPPD
SCF_CONVERGENCE 7
SCF_ALGORITHM  GDM
method DSD-PBEPBE-D3
GEN_SCFMAN TRUE
UNRESTRICTED True
THRESH  14
SYMMETRY FALSE
SYM_IGNORE TRUE
max_scf_cycles 200

XC_GRID 000099000590
BASIS DEF2-QZVPPD


$end










