$molecule
0 1
C 0.0158150000 -0.0411900000 -0.0020400000
C 0.0158150000 -0.0411900000 1.3420400000
C 1.5790040000 0.0764380000 1.3427230000
C 1.5790040000 0.0764380000 -0.0027230000
H -0.7447600000 -0.0917440000 -0.7659220000
H 2.3399160000 0.1491710000 -0.7648580000
H 2.3399160000 0.1491710000 2.1048580000
H -0.7447600000 -0.0917440000 2.1059220000
$end


$rem
N_FROZEN_CORE FC
MEM_TOTAL 3750
MEM_STATIC 1500
AUX_BASIS_CORR rimp2-def2-QZVPPD
SCF_CONVERGENCE 7
SCF_ALGORITHM  GDM
method DSD-PBEPBE-D3
GEN_SCFMAN TRUE
UNRESTRICTED True
THRESH  14
SYMMETRY FALSE
SYM_IGNORE TRUE
max_scf_cycles 200

XC_GRID 000099000590
BASIS DEF2-QZVPPD


$end










