$molecule
0 1
H 0.5871640000 2.2830030000 0.0000000000
Br 0.0000000000 0.9889050000 0.0000000000
O -0.6634120000 -2.0515570000 0.0000000000
C 0.4566180000 -2.5062060000 0.0000000000
H 0.6369250000 -3.5929220000 0.0000000000
H 1.3434970000 -1.8520770000 0.0000000000
$end


$rem
N_FROZEN_CORE FC
MEM_TOTAL 3750
MEM_STATIC 1500
AUX_BASIS_CORR rimp2-def2-QZVPPD
SCF_CONVERGENCE 7
SCF_ALGORITHM  GDM
method DSD-PBEPBE-D3
GEN_SCFMAN TRUE
UNRESTRICTED True
THRESH  14
SYMMETRY FALSE
SYM_IGNORE TRUE
max_scf_cycles 200

XC_GRID 000099000590
BASIS DEF2-QZVPPD


$end










