$molecule
0 2
C 0.0907170000 0.0589330000 -0.0302690000
O 0.6235190000 1.1682550000 0.0196500000
N 0.8998650000 -1.0371520000 0.0709140000
H 1.7983830000 -0.8578150000 -0.3823690000
C -1.3927050000 -0.1548450000 -0.0150460000
H -1.9053490000 0.7699940000 -0.2659470000
H -1.6699860000 -0.9439160000 -0.7144740000
H -1.6983310000 -0.4787660000 0.9810830000
$end


$rem
N_FROZEN_CORE FC
MEM_TOTAL 3750
MEM_STATIC 1500
AUX_BASIS_CORR rimp2-def2-QZVPPD
SCF_CONVERGENCE 7
SCF_ALGORITHM  GDM
method DSD-PBEPBE-D3
GEN_SCFMAN TRUE
UNRESTRICTED True
THRESH  14
SYMMETRY FALSE
SYM_IGNORE TRUE
max_scf_cycles 200

XC_GRID 000099000590
BASIS DEF2-QZVPPD


$end










