$molecule
0 1
N -1.5885061180 0.0000000000 0.0340481730
N 1.6420458590 0.0000000000 -0.0594151430
H 0.6970302470 0.0000000000 0.3138446310
H -1.3024710030 0.0000000000 -0.9385869980
H -2.1809804580 -0.8115443750 0.1627821130
H -2.1809804580 0.8115443750 0.1627821130
H 2.1116970030 -0.8106376490 0.3258433840
H 2.1116970030 0.8106376490 0.3258433840
$end


$rem
N_FROZEN_CORE FC
MEM_TOTAL 3750
MEM_STATIC 1500
AUX_BASIS_CORR rimp2-def2-QZVPPD
SCF_CONVERGENCE 7
SCF_ALGORITHM  GDM
method DSD-PBEPBE-D3
GEN_SCFMAN TRUE
UNRESTRICTED True
THRESH  14
SYMMETRY FALSE
SYM_IGNORE TRUE
max_scf_cycles 200

XC_GRID 000099000590
BASIS DEF2-QZVPPD


$end










