$molecule
0 1
Br -1.3196410000 -1.4973030000 0.0000000000
Br 0.0000000000 0.3645480000 0.0000000000
F 1.8618310000 2.4710400000 0.0000000000
C 3.1633560000 1.9751330000 0.0000000000
H 3.1159420000 0.8866440000 0.0000000000
H 3.6674470000 2.3348050000 0.8953330000
H 3.6674470000 2.3348050000 -0.8953330000
$end


$rem
N_FROZEN_CORE FC
MEM_TOTAL 3750
MEM_STATIC 1500
AUX_BASIS_CORR rimp2-def2-QZVPPD
SCF_CONVERGENCE 7
SCF_ALGORITHM  GDM
method DSD-PBEPBE-D3
GEN_SCFMAN TRUE
UNRESTRICTED True
THRESH  14
SYMMETRY FALSE
SYM_IGNORE TRUE
max_scf_cycles 200

XC_GRID 000099000590
BASIS DEF2-QZVPPD


$end










