$molecule
0 1
C -0.0531030000 0.0000000000 -0.2626820000
C -0.1725900000 0.0000000000 1.2300610000
C 1.0657510000 0.0000000000 1.7780680000
C 2.0579970000 0.0000000000 0.7050070000
C 1.4264420000 0.0000000000 -0.4924750000
H 1.8920540000 0.0000000000 -1.4668260000
H 1.3014940000 0.0000000000 2.8328510000
H 3.1280040000 0.0000000000 0.8567160000
H -1.1111540000 0.0000000000 1.7643230000
H -0.5325170000 -0.8778200000 -0.7086390000
H -0.5325170000 0.8778200000 -0.7086390000
O 2.4105980000 0.0000000000 5.0185290000
H 2.5756730000 0.7591530000 5.5854400000
H 2.5756730000 -0.7591530000 5.5854400000
$end


$rem
N_FROZEN_CORE FC
MEM_TOTAL 3750
MEM_STATIC 1500
AUX_BASIS_CORR rimp2-def2-QZVPPD
SCF_CONVERGENCE 7
SCF_ALGORITHM  GDM
method DSD-PBEPBE-D3
GEN_SCFMAN TRUE
UNRESTRICTED True
THRESH  14
SYMMETRY FALSE
SYM_IGNORE TRUE
max_scf_cycles 200

XC_GRID 000099000590
BASIS DEF2-QZVPPD


$end










