$molecule
0 1
C -1.4506270000 0.1566050000 0.0179410000
O -1.5078660000 1.3395180000 0.0129580000
F -2.5617160000 -0.6310690000 -0.0591590000
N -0.3761230000 -0.6661230000 0.1375580000
H -0.4742210000 -1.6413100000 -0.0943280000
Br 1.3408350000 0.0093720000 -0.0156410000
$end


$rem
N_FROZEN_CORE FC
MEM_TOTAL 3750
MEM_STATIC 1500
AUX_BASIS_CORR rimp2-def2-QZVPPD
SCF_CONVERGENCE 7
SCF_ALGORITHM  GDM
method DSD-PBEPBE-D3
GEN_SCFMAN TRUE
UNRESTRICTED True
THRESH  14
SYMMETRY FALSE
SYM_IGNORE TRUE
max_scf_cycles 200

XC_GRID 000099000590
BASIS DEF2-QZVPPD


$end










