$molecule
0 1
S 0.0000000000 -0.0000309152 -0.9266177392
P 0.0000000000 -0.0000073859 0.9593712485
F 0.0000000000 1.3628544090 1.7058489453
F -1.1802437055 -0.6814027585 1.7058570411
F 1.1802437055 -0.6814027585 1.7058570411
$end


$rem
N_FROZEN_CORE FC
MEM_TOTAL 3750
MEM_STATIC 1500
AUX_BASIS_CORR rimp2-def2-QZVPPD
SCF_CONVERGENCE 7
SCF_ALGORITHM  GDM
method DSD-PBEPBE-D3
GEN_SCFMAN TRUE
UNRESTRICTED True
THRESH  14
SYMMETRY FALSE
SYM_IGNORE TRUE
max_scf_cycles 200

XC_GRID 000099000590
BASIS DEF2-QZVPPD


$end










