$molecule
1 1
H -0.9565779939 -1.6936716055 0.0000000000
N -0.0001525331 -1.3418118996 0.0000000000
H -0.0030273861 -0.2899588522 0.0000000000
H 0.4785881965 -1.6883892829 0.8301927239
H 0.4785881965 -1.6883892829 -0.8301927239
O 0.0000642858 1.3616642984 0.0000000000
H -0.7647574923 1.9440843673 0.0000000000
H 0.7673347266 1.9408782576 0.0000000000
$end


$rem
N_FROZEN_CORE FC
MEM_TOTAL 3750
MEM_STATIC 1500
AUX_BASIS_CORR rimp2-def2-QZVPPD
SCF_CONVERGENCE 7
SCF_ALGORITHM  GDM
method DSD-PBEPBE-D3
GEN_SCFMAN TRUE
UNRESTRICTED True
THRESH  14
SYMMETRY FALSE
SYM_IGNORE TRUE
max_scf_cycles 200

XC_GRID 000099000590
BASIS DEF2-QZVPPD


$end










