$molecule
0 2
C -0.0245360000 0.0945130000 0.0117580000
O -0.0417630000 1.2891840000 -0.0138490000
F 1.1231990000 -0.5969400000 0.0227570000
N -1.1143460000 -0.7185060000 -0.1069620000
H -1.8270530000 -0.4785450000 0.5841610000
$end


$rem
N_FROZEN_CORE FC
MEM_TOTAL 3750
MEM_STATIC 1500
AUX_BASIS_CORR rimp2-def2-QZVPPD
SCF_CONVERGENCE 7
SCF_ALGORITHM  GDM
method DSD-PBEPBE-D3
GEN_SCFMAN TRUE
UNRESTRICTED True
THRESH  14
SYMMETRY FALSE
SYM_IGNORE TRUE
max_scf_cycles 200

XC_GRID 000099000590
BASIS DEF2-QZVPPD


$end










