$molecule
0 1
Se 0.0000000000 0.0000016600 -1.0570288900
P 0.0000000000 -0.0000042600 0.9874042300
F 0.0000000000 1.3630456500 1.7403366600
F -1.1804177900 -0.6815119700 1.7403110400
F 1.1804177900 -0.6815119700 1.7403110400
$end


$rem
N_FROZEN_CORE FC
MEM_TOTAL 3750
MEM_STATIC 1500
AUX_BASIS_CORR rimp2-def2-QZVPPD
SCF_CONVERGENCE 7
SCF_ALGORITHM  GDM
method DSD-PBEPBE-D3
GEN_SCFMAN TRUE
UNRESTRICTED True
THRESH  14
SYMMETRY FALSE
SYM_IGNORE TRUE
max_scf_cycles 200

XC_GRID 000099000590
BASIS DEF2-QZVPPD


$end










