$molecule
0 1
N 0.0000000000 0.0000064600 -4.2264040000
H 0.0000000000 -0.9398353300 -4.6094501900
H -0.8139022800 0.4699098800 -4.6094249400
H 0.8139022800 0.4699098800 -4.6094249400
$end


$rem
N_FROZEN_CORE FC
MEM_TOTAL 3750
MEM_STATIC 1500
AUX_BASIS_CORR rimp2-def2-QZVPPD
SCF_CONVERGENCE 7
SCF_ALGORITHM  GDM
method DSD-PBEPBE-D3
GEN_SCFMAN TRUE
UNRESTRICTED True
THRESH  14
SYMMETRY FALSE
SYM_IGNORE TRUE
max_scf_cycles 200

XC_GRID 000099000590
BASIS DEF2-QZVPPD


$end










