$molecule
1 1
H -0.9625753482 -1.6802231288 0.0000000000
N -0.0003992140 -1.3374117381 0.0000000000
H -0.0027992900 -0.3159500816 0.0000000000
H 0.4818389261 -1.6768095258 0.8339743608
H 0.4818389261 -1.6768095258 -0.8339743608
$end


$rem
N_FROZEN_CORE FC
MEM_TOTAL 3750
MEM_STATIC 1500
AUX_BASIS_CORR rimp2-def2-QZVPPD
SCF_CONVERGENCE 7
SCF_ALGORITHM  GDM
method DSD-PBEPBE-D3
GEN_SCFMAN TRUE
UNRESTRICTED True
THRESH  14
SYMMETRY FALSE
SYM_IGNORE TRUE
max_scf_cycles 200

XC_GRID 000099000590
BASIS DEF2-QZVPPD


$end










