$molecule
-1 1
Cl 2.2242961205 -0.0634470641 0.0000000000
P -0.4319829485 -0.2735847606 0.0000000000
F -0.3968502727 0.7763806919 1.2013591842
F -0.3968502727 0.7763806919 -1.2013591842
F -2.0952326267 -0.2851795591 0.0000000000
$end


$rem
N_FROZEN_CORE FC
MEM_TOTAL 3750
MEM_STATIC 1500
AUX_BASIS_CORR rimp2-def2-QZVPPD
SCF_CONVERGENCE 7
SCF_ALGORITHM  GDM
method DSD-PBEPBE-D3
GEN_SCFMAN TRUE
UNRESTRICTED True
THRESH  14
SYMMETRY FALSE
SYM_IGNORE TRUE
max_scf_cycles 200

XC_GRID 000099000590
BASIS DEF2-QZVPPD


$end










