$molecule
0 1
C 0.0011780000 0.1427620000 0.0009250000
C 0.0001420000 0.2048010000 1.4961460000
C 1.2780660000 0.2986060000 1.9380130000
C 2.1826630000 0.2986040000 0.7907830000
C 1.4549180000 0.2047970000 -0.3488310000
H 1.8401880000 0.1887570000 -1.3576730000
H 1.5894270000 0.3663830000 2.9706260000
H 3.2594180000 0.3663790000 0.8527070000
H -0.8910130000 0.1887640000 2.1060950000
H -0.4691250000 -0.7735790000 -0.3699100000
H -0.5519960000 0.9812570000 -0.4352570000
O 1.0977220000 -2.9387450000 0.8655630000
H 1.6801330000 -2.3521920000 0.3695600000
H 0.7512450000 -2.3521870000 1.5475970000
$end


$rem
N_FROZEN_CORE FC
MEM_TOTAL 7500
MEM_STATIC 3000
AUX_BASIS_CORR rimp2-def2-QZVPPD
SCF_CONVERGENCE 7
SCF_ALGORITHM  GDM
method DSD-PBEPBE-D3
GEN_SCFMAN TRUE
UNRESTRICTED True
THRESH  14
SYMMETRY FALSE
SYM_IGNORE TRUE
max_scf_cycles 200

XC_GRID 000099000590
BASIS DEF2-QZVPPD


$end










