$molecule
-1 1
Cl 0.0000000000 0.0000000000 2.1229641588
C 0.0000000000 0.0000000000 0.2724658492
H -0.5131616625 -0.8888220720 -0.0553144529
H -0.5131616625 0.8888220720 -0.0553144529
H 1.0263233250 0.0000000000 -0.0553144529
F 0.0000000000 0.0000000000 -2.2294866494
$end


$rem
N_FROZEN_CORE FC
MEM_TOTAL 3750
MEM_STATIC 1500
AUX_BASIS_CORR rimp2-def2-QZVPPD
SCF_CONVERGENCE 7
SCF_ALGORITHM  GDM
method DSD-PBEPBE-D3
GEN_SCFMAN TRUE
UNRESTRICTED True
THRESH  14
SYMMETRY FALSE
SYM_IGNORE TRUE
max_scf_cycles 200

XC_GRID 000099000590
BASIS DEF2-QZVPPD


$end










