$molecule
0 1
C 1.2212360000 -0.0190450000 0.0000000000
O 1.4434020000 -1.2031460000 0.0000000000
N 0.0000000000 0.5813840000 0.0000000000
H -0.1003640000 1.5845570000 0.0000000000
C 2.3017750000 0.9853570000 0.0000000000
N 3.1627860000 1.7474040000 0.0000000000
Br -1.5635550000 -0.4016790000 0.0000000000
$end


$rem
N_FROZEN_CORE FC
MEM_TOTAL 3750
MEM_STATIC 1500
AUX_BASIS_CORR rimp2-def2-QZVPPD
SCF_CONVERGENCE 7
SCF_ALGORITHM  GDM
method DSD-PBEPBE-D3
GEN_SCFMAN TRUE
UNRESTRICTED True
THRESH  14
SYMMETRY FALSE
SYM_IGNORE TRUE
max_scf_cycles 200

XC_GRID 000099000590
BASIS DEF2-QZVPPD


$end










