$molecule
-1 1
Br 2.4621387168 -0.0922842629 0.0000000000
P -0.5063357975 -0.2599702647 0.0000000000
F -0.4506238962 0.7878032316 1.1957531374
F -0.4506238962 0.7878032316 -1.1957531374
F -2.1511651269 -0.2928119355 0.0000000000
$end


$rem
N_FROZEN_CORE FC
MEM_TOTAL 3750
MEM_STATIC 1500
AUX_BASIS_CORR rimp2-def2-QZVPPD
SCF_CONVERGENCE 7
SCF_ALGORITHM  GDM
method DSD-PBEPBE-D3
GEN_SCFMAN TRUE
UNRESTRICTED True
THRESH  14
SYMMETRY FALSE
SYM_IGNORE TRUE
max_scf_cycles 200

XC_GRID 000099000590
BASIS DEF2-QZVPPD


$end










