$molecule
0 1
Br 0.0000000000 0.0000000000 1.6483620000
Br 0.0000000000 0.0000000000 -0.6650270000
N 0.0000000000 0.0000000000 -3.3348810000
H 0.0000000000 0.9457070000 -3.6908570000
H -0.8190060000 -0.4728530000 -3.6908570000
H 0.8190060000 -0.4728530000 -3.6908570000
$end


$rem
N_FROZEN_CORE FC
MEM_TOTAL 3750
MEM_STATIC 1500
AUX_BASIS_CORR rimp2-def2-QZVPPD
SCF_CONVERGENCE 7
SCF_ALGORITHM  GDM
method DSD-PBEPBE-D3
GEN_SCFMAN TRUE
UNRESTRICTED True
THRESH  14
SYMMETRY FALSE
SYM_IGNORE TRUE
max_scf_cycles 200

XC_GRID 000099000590
BASIS DEF2-QZVPPD


$end










