$molecule
0 1
C -0.0037380000 0.4608320000 0.0000000000
C -0.0044570000 -0.2406140000 1.2055400000
C -0.0055170000 -1.6350310000 1.2070340000
C -0.0058940000 -2.3329450000 0.0000000000
C -0.0055170000 -1.6350310000 -1.2070340000
C -0.0044570000 -0.2406140000 -1.2055400000
H -0.0013980000 1.5433780000 0.0000000000
H -0.0043150000 0.3001110000 2.1435300000
H -0.0060180000 -2.1761440000 2.1447050000
H -0.0065870000 -3.4154900000 0.0000000000
H -0.0060180000 -2.1761440000 -2.1447050000
H -0.0043150000 0.3001110000 -2.1435300000
$end


$rem
N_FROZEN_CORE FC
MEM_TOTAL 3750
MEM_STATIC 1500
AUX_BASIS_CORR rimp2-def2-QZVPPD
SCF_CONVERGENCE 7
SCF_ALGORITHM  GDM
method DSD-PBEPBE-D3
GEN_SCFMAN TRUE
UNRESTRICTED True
THRESH  14
SYMMETRY FALSE
SYM_IGNORE TRUE
max_scf_cycles 200

XC_GRID 000099000590
BASIS DEF2-QZVPPD


$end










