$molecule
-1 1
F 0.0000000000 0.0000000000 -1.8899361232
C 0.0000000000 0.0000000000 -0.4815627273
H -0.5123599590 0.8874334808 -0.1278024701
H -0.5123599590 -0.8874334808 -0.1278024701
H 1.0247199181 0.0000000000 -0.1278024701
Cl 0.0000000000 0.0000000000 2.7549062610
$end


$rem
N_FROZEN_CORE FC
MEM_TOTAL 3750
MEM_STATIC 1500
AUX_BASIS_CORR rimp2-def2-QZVPPD
SCF_CONVERGENCE 7
SCF_ALGORITHM  GDM
method DSD-PBEPBE-D3
GEN_SCFMAN TRUE
UNRESTRICTED True
THRESH  14
SYMMETRY FALSE
SYM_IGNORE TRUE
max_scf_cycles 200

XC_GRID 000099000590
BASIS DEF2-QZVPPD


$end










