$molecule
0 1
C 0.7520320000 0.7750630000 -1.0543810000
C 0.0000000000 1.1509210000 0.2161190000
C 0.0000000000 -1.1509210000 0.2161190000
C 0.7520320000 -0.7750630000 -1.0543810000
C -0.7520320000 0.7750630000 -1.0543810000
C -0.7520320000 -0.7750630000 -1.0543810000
H 0.0000000000 -2.1751720000 0.5564920000
H 0.0000000000 2.1751720000 0.5564920000
C 0.0000000000 0.0000000000 1.1486240000
H 1.4451270000 -1.4284520000 -1.5601860000
H 1.4451270000 1.4284520000 -1.5601860000
H -1.4451270000 -1.4284520000 -1.5601860000
H -1.4451270000 1.4284520000 -1.5601860000
C 0.0000000000 0.0000000000 2.4771600000
H 0.0000000000 -0.9222930000 3.0423930000
H 0.0000000000 0.9222930000 3.0423930000
$end


$rem
N_FROZEN_CORE FC
MEM_TOTAL 7500
MEM_STATIC 3000
AUX_BASIS_CORR rimp2-def2-QZVPPD
SCF_CONVERGENCE 7
SCF_ALGORITHM  GDM
method DSD-PBEPBE-D3
GEN_SCFMAN TRUE
UNRESTRICTED True
THRESH  14
SYMMETRY FALSE
SYM_IGNORE TRUE
max_scf_cycles 200

XC_GRID 000099000590
BASIS DEF2-QZVPPD


$end










