$molecule
0 2
C -0.4608300000 0.0623360000 0.0212790000
O -1.0354120000 1.1440420000 -0.0136880000
N -1.1312650000 -1.1158960000 -0.0628300000
H -2.0593460000 -1.0205150000 0.3593660000
C 0.9989420000 -0.0293390000 -0.0078700000
N 2.1475460000 -0.0740750000 0.0156420000
$end


$rem
N_FROZEN_CORE FC
MEM_TOTAL 3750
MEM_STATIC 1500
AUX_BASIS_CORR rimp2-def2-QZVPPD
SCF_CONVERGENCE 7
SCF_ALGORITHM  GDM
method DSD-PBEPBE-D3
GEN_SCFMAN TRUE
UNRESTRICTED True
THRESH  14
SYMMETRY FALSE
SYM_IGNORE TRUE
max_scf_cycles 200

XC_GRID 000099000590
BASIS DEF2-QZVPPD


$end










