$molecule
-1 1
H -0.9481394603 -1.4135149165 0.0000000000
O -0.0041779414 -1.2466811770 0.0000000000
H 0.0381035888 -0.1696115994 0.0000000000
O 0.0029424847 1.2533544439 0.0000000000
H 0.9147723282 1.5573002490 0.0000000000
$end


$rem
N_FROZEN_CORE FC
MEM_TOTAL 3750
MEM_STATIC 1500
AUX_BASIS_CORR rimp2-def2-QZVPPD
SCF_CONVERGENCE 7
SCF_ALGORITHM  GDM
method DSD-PBEPBE-D3
GEN_SCFMAN TRUE
UNRESTRICTED True
THRESH  14
SYMMETRY FALSE
SYM_IGNORE TRUE
max_scf_cycles 200

XC_GRID 000099000590
BASIS DEF2-QZVPPD


$end










