$molecule
0 1
C 1.1627320000 -0.3522480000 0.0000000000
C -0.0127760000 -0.9482570000 0.0000000000
C 0.0000000000 0.4914460000 0.0000000000
C 2.6339630000 -0.4305990000 0.0000000000
C -0.8153660000 -2.1842890000 0.0000000000
C -0.6076590000 1.6725150000 0.0000000000
C -2.1004430000 1.8447630000 0.0000000000
H 2.9854790000 -1.4616160000 0.0000000000
H 3.0382090000 0.0799960000 0.8768760000
H 3.0382090000 0.0799960000 -0.8768760000
H -0.1879960000 -3.0749060000 0.0000000000
H -1.4659210000 -2.2118760000 -0.8768330000
H -1.4659210000 -2.2118760000 0.8768330000
H 0.0016850000 2.5689420000 0.0000000000
H -2.6047660000 0.8770680000 0.0000000000
H -2.4508440000 2.3971430000 0.8776530000
H -2.4508440000 2.3971430000 -0.8776530000
$end


$rem
N_FROZEN_CORE FC
MEM_TOTAL 7500
MEM_STATIC 3000
AUX_BASIS_CORR rimp2-def2-QZVPPD
SCF_CONVERGENCE 7
SCF_ALGORITHM  GDM
method DSD-PBEPBE-D3
GEN_SCFMAN TRUE
UNRESTRICTED True
THRESH  14
SYMMETRY FALSE
SYM_IGNORE TRUE
max_scf_cycles 200

XC_GRID 000099000590
BASIS DEF2-QZVPPD


$end










