$molecule
0 1
Br -0.9447580000 -1.6542520000 0.0000000000
Br 0.0000000000 0.4318310000 0.0000000000
O 1.4067050000 2.8030920000 0.0000000000
C 2.5855450000 2.5724160000 0.0000000000
H 2.9716000000 1.5389650000 0.0000000000
H 3.3280360000 3.3865420000 0.0000000000
$end


$rem
N_FROZEN_CORE FC
MEM_TOTAL 3750
MEM_STATIC 1500
AUX_BASIS_CORR rimp2-def2-QZVPPD
SCF_CONVERGENCE 7
SCF_ALGORITHM  GDM
method DSD-PBEPBE-D3
GEN_SCFMAN TRUE
UNRESTRICTED True
THRESH  14
SYMMETRY FALSE
SYM_IGNORE TRUE
max_scf_cycles 200

XC_GRID 000099000590
BASIS DEF2-QZVPPD


$end










