$molecule
0 1
C 0.0000000000 0.0000000000 0.4641420000
C 0.0000000000 1.2058030000 -0.2369850000
C 0.0000000000 1.2071680000 -1.6314370000
C 0.0000000000 0.0000000000 -2.3292390000
C 0.0000000000 -1.2071680000 -1.6314370000
C 0.0000000000 -1.2058030000 -0.2369850000
H 0.0000000000 0.0000000000 1.5465620000
H 0.0000000000 2.1432610000 0.3046690000
H 0.0000000000 2.1447470000 -2.1727390000
H 0.0000000000 0.0000000000 -3.4118110000
H 0.0000000000 -2.1447470000 -2.1727390000
H 0.0000000000 -2.1432610000 0.3046690000
O 0.0000000000 0.0000000000 3.9651910000
H 0.7592460000 0.0000000000 4.5556080000
H -0.7592460000 0.0000000000 4.5556080000
$end


$rem
N_FROZEN_CORE FC
MEM_TOTAL 7500
MEM_STATIC 3000
AUX_BASIS_CORR rimp2-def2-QZVPPD
SCF_CONVERGENCE 7
SCF_ALGORITHM  GDM
method DSD-PBEPBE-D3
GEN_SCFMAN TRUE
UNRESTRICTED True
THRESH  14
SYMMETRY FALSE
SYM_IGNORE TRUE
max_scf_cycles 200

XC_GRID 000099000590
BASIS DEF2-QZVPPD


$end










