$molecule
-1 1
Cl 2.2058648373 -0.0705941428 0.0000000000
As -0.3557719807 -0.3350601348 0.0000000000
F -0.3850041411 0.8243913792 1.2978186450
F -0.3850041411 0.8243913792 -1.2978186450
F -2.1766945746 -0.3125984808 0.0000000000
$end


$rem
N_FROZEN_CORE FC
MEM_TOTAL 3750
MEM_STATIC 1500
AUX_BASIS_CORR rimp2-def2-QZVPPD
SCF_CONVERGENCE 7
SCF_ALGORITHM  GDM
method DSD-PBEPBE-D3
GEN_SCFMAN TRUE
UNRESTRICTED True
THRESH  14
SYMMETRY FALSE
SYM_IGNORE TRUE
max_scf_cycles 200

XC_GRID 000099000590
BASIS DEF2-QZVPPD


$end










