$molecule
0 1
C -0.2551240000 2.1857420000 0.0000000000
O 0.6102070000 3.0288130000 0.0000000000
H -1.3271220000 2.4709290000 0.0000000000
C 0.0000000000 0.7391700000 0.0000000000
H 1.0344240000 0.4180540000 0.0000000000
C -1.0149640000 -0.1221240000 0.0000000000
C -0.9142810000 -1.6201680000 0.0000000000
H -1.4380060000 -2.0228430000 0.8722330000
H -2.0314110000 0.2585170000 0.0000000000
H -1.4380060000 -2.0228430000 -0.8722330000
C 0.4508290000 -2.1309370000 0.0000000000
N 1.5313860000 -2.5203450000 0.0000000000
$end


$rem
N_FROZEN_CORE FC
MEM_TOTAL 3750
MEM_STATIC 1500
AUX_BASIS_CORR rimp2-def2-QZVPPD
SCF_CONVERGENCE 7
SCF_ALGORITHM  GDM
method DSD-PBEPBE-D3
GEN_SCFMAN TRUE
UNRESTRICTED True
THRESH  14
SYMMETRY FALSE
SYM_IGNORE TRUE
max_scf_cycles 200

XC_GRID 000099000590
BASIS DEF2-QZVPPD


$end










