$molecule
0 1
Br 2.2816130000 -0.2250490000 -0.0000380000
Br 0.0542710000 0.3326650000 0.0000720000
O -2.5857590000 0.8063930000 -0.0001770000
P -3.3400980000 -0.4791200000 0.0000020000
H -3.1121830000 -1.3364310000 1.0962060000
H -3.1119920000 -1.3368510000 -1.0958360000
H -4.7442090000 -0.3576360000 -0.0001450000
$end


$rem
N_FROZEN_CORE FC
MEM_TOTAL 3750
MEM_STATIC 1500
AUX_BASIS_CORR rimp2-def2-QZVPPD
SCF_CONVERGENCE 7
SCF_ALGORITHM  GDM
method DSD-PBEPBE-D3
GEN_SCFMAN TRUE
UNRESTRICTED True
THRESH  14
SYMMETRY FALSE
SYM_IGNORE TRUE
max_scf_cycles 200

XC_GRID 000099000590
BASIS DEF2-QZVPPD


$end










