$molecule
0 1
C 0.0000000000 0.0000000000 0.4599580000
C 0.0000000000 1.2055440000 -0.2414830000
C 0.0000000000 1.2070370000 -1.6359000000
C 0.0000000000 0.0000000000 -2.3338100000
C 0.0000000000 -1.2070370000 -1.6359000000
C 0.0000000000 -1.2055440000 -0.2414830000
H 0.0000000000 0.0000000000 1.5425030000
H 0.0000000000 2.1435180000 0.2992670000
H 0.0000000000 2.1446960000 -2.1770350000
H 0.0000000000 0.0000000000 -3.4163560000
H 0.0000000000 -2.1446960000 -2.1770350000
H 0.0000000000 -2.1435180000 0.2992670000
$end


$rem
N_FROZEN_CORE FC
MEM_TOTAL 3750
MEM_STATIC 1500
AUX_BASIS_CORR rimp2-def2-QZVPPD
SCF_CONVERGENCE 7
SCF_ALGORITHM  GDM
method DSD-PBEPBE-D3
GEN_SCFMAN TRUE
UNRESTRICTED True
THRESH  14
SYMMETRY FALSE
SYM_IGNORE TRUE
max_scf_cycles 200

XC_GRID 000099000590
BASIS DEF2-QZVPPD


$end










