$molecule
0 2
C -0.8313490000 0.4499050000 0.0939860000
H -1.4086140000 1.3474520000 0.3568630000
O -1.3567070000 -0.6414150000 -0.0566390000
N 0.4914160000 0.7034660000 -0.1699770000
C 1.4410590000 -0.3450610000 0.0581800000
H 0.9825690000 -1.2916620000 0.3487530000
H 2.0641500000 -0.4695720000 -0.8300520000
H 2.1173770000 -0.0082270000 0.8543970000
$end


$rem
N_FROZEN_CORE FC
MEM_TOTAL 3750
MEM_STATIC 1500
AUX_BASIS_CORR rimp2-def2-QZVPPD
SCF_CONVERGENCE 7
SCF_ALGORITHM  GDM
method DSD-PBEPBE-D3
GEN_SCFMAN TRUE
UNRESTRICTED True
THRESH  14
SYMMETRY FALSE
SYM_IGNORE TRUE
max_scf_cycles 200

XC_GRID 000099000590
BASIS DEF2-QZVPPD


$end










