$molecule
0 1
C 0.0000000000 0.7605840000 1.1232630000
C -0.7604250000 1.2670320000 -0.0793690000
C -0.7836080000 0.0000000000 -0.9676190000
C -0.7604250000 -1.2670320000 -0.0793690000
C 0.0000000000 -0.7605840000 1.1232630000
C 0.7604250000 -1.2670320000 -0.0793690000
C 0.7604250000 1.2670320000 -0.0793690000
C 0.7836080000 0.0000000000 -0.9676190000
H 0.0000000000 -1.3279400000 2.0415770000
H 0.0000000000 1.3279400000 2.0415770000
H 1.4591760000 2.0916580000 -0.0618670000
H 1.3384600000 0.0000000000 -1.8992720000
H 1.4591760000 -2.0916580000 -0.0618670000
H -1.4591760000 -2.0916580000 -0.0618670000
H -1.3384600000 0.0000000000 -1.8992720000
H -1.4591760000 2.0916580000 -0.0618670000
$end


$rem
N_FROZEN_CORE FC
MEM_TOTAL 7500
MEM_STATIC 3000
AUX_BASIS_CORR rimp2-def2-QZVPPD
SCF_CONVERGENCE 7
SCF_ALGORITHM  GDM
method DSD-PBEPBE-D3
GEN_SCFMAN TRUE
UNRESTRICTED True
THRESH  14
SYMMETRY FALSE
SYM_IGNORE TRUE
max_scf_cycles 200

XC_GRID 000099000590
BASIS DEF2-QZVPPD


$end










