$molecule
0 1
H 0.0000000000 0.0000000000 3.8552130600
C 0.0000000000 0.0000000000 2.7864997600
N 0.0000000000 0.0000000000 1.6315079100
H 0.0000000000 0.0000000000 -0.5937749200
C 0.0000000000 0.0000000000 -1.6680982400
N 0.0000000000 0.0000000000 -2.8252505600
$end


$rem
N_FROZEN_CORE FC
MEM_TOTAL 3750
MEM_STATIC 1500
AUX_BASIS_CORR rimp2-def2-QZVPPD
SCF_CONVERGENCE 7
SCF_ALGORITHM  GDM
method DSD-PBEPBE-D3
GEN_SCFMAN TRUE
UNRESTRICTED True
THRESH  14
SYMMETRY FALSE
SYM_IGNORE TRUE
max_scf_cycles 200

XC_GRID 000099000590
BASIS DEF2-QZVPPD


$end










