$molecule
0 1
N 0.0000000000 0.0000000000 1.8483365900
H 0.9373097900 0.0000000000 2.2320674100
H -0.4686548900 -0.8117340900 2.2320674100
H -0.4686548900 0.8117340900 2.2320674100
H 0.0000000000 0.0000000000 -0.9449717400
C 0.0000000000 0.0000000000 -2.0336375200
H 0.5125143900 0.8877009600 -2.4009512500
H 0.5125143900 -0.8877009600 -2.4009512500
H -1.0250287800 0.0000000000 -2.4009512500
$end


$rem
N_FROZEN_CORE FC
MEM_TOTAL 3750
MEM_STATIC 1500
AUX_BASIS_CORR rimp2-def2-QZVPPD
SCF_CONVERGENCE 7
SCF_ALGORITHM  GDM
method DSD-PBEPBE-D3
GEN_SCFMAN TRUE
UNRESTRICTED True
THRESH  14
SYMMETRY FALSE
SYM_IGNORE TRUE
max_scf_cycles 200

XC_GRID 000099000590
BASIS DEF2-QZVPPD


$end










