$molecule
0 1
O -0.0047255300 0.0000000000 1.7159746600
H 0.0321186300 0.7575545900 2.3017204400
H 0.0321186300 -0.7575545900 2.3017204400
C 0.0006901600 0.0000000000 -1.9998552000
H -0.5074174000 0.8875945200 -2.3729060500
H 1.0305274900 0.0000000000 -2.3528298200
H -0.0131439600 0.0000000000 -0.9119085200
H -0.5074174000 -0.8875945200 -2.3729060500
$end


$rem
N_FROZEN_CORE FC
MEM_TOTAL 3750
MEM_STATIC 1500
AUX_BASIS_CORR rimp2-def2-QZVPPD
SCF_CONVERGENCE 7
SCF_ALGORITHM  GDM
method DSD-PBEPBE-D3
GEN_SCFMAN TRUE
UNRESTRICTED True
THRESH  14
SYMMETRY FALSE
SYM_IGNORE TRUE
max_scf_cycles 200

XC_GRID 000099000590
BASIS DEF2-QZVPPD


$end










