$molecule
0 1
C 0.0000000000 -0.5979708900 1.4774286400
C 0.0000000000 0.4213119600 2.3395784800
H 0.9211335100 -1.0295710200 1.1065351600
H -0.9211335100 -1.0295710200 1.1065351600
H -0.9239381500 0.8512482600 2.7069463300
H 0.9239381500 0.8512482600 2.7069463300
$end


$rem
N_FROZEN_CORE FC
MEM_TOTAL 3750
MEM_STATIC 1500
AUX_BASIS_CORR rimp2-def2-QZVPPD
SCF_CONVERGENCE 7
SCF_ALGORITHM  GDM
method DSD-PBEPBE-D3
GEN_SCFMAN TRUE
UNRESTRICTED True
THRESH  14
SYMMETRY FALSE
SYM_IGNORE TRUE
max_scf_cycles 200

XC_GRID 000099000590
BASIS DEF2-QZVPPD


$end










