$molecule
0 1
O 0.0000000000 -0.5187733400 -1.8284567900
C 0.0000000000 0.6861622000 -1.7370941200
H 0.0000000000 1.3307747400 -2.6318635500
H 0.0000000000 1.1890280700 -0.7564549800
$end


$rem
N_FROZEN_CORE FC
MEM_TOTAL 3750
MEM_STATIC 1500
AUX_BASIS_CORR rimp2-def2-QZVPPD
SCF_CONVERGENCE 7
SCF_ALGORITHM  GDM
method DSD-PBEPBE-D3
GEN_SCFMAN TRUE
UNRESTRICTED True
THRESH  14
SYMMETRY FALSE
SYM_IGNORE TRUE
max_scf_cycles 200

XC_GRID 000099000590
BASIS DEF2-QZVPPD


$end










