$molecule
0 1
C 0.0000000000 -0.5966224800 1.5872220600
C 0.0000000000 0.6825823800 1.2049464200
H 0.9231214700 1.2242365800 1.0406246300
H -0.9231214700 1.2242365800 1.0406246300
H -0.9238899300 -1.1373854800 1.7512128100
H 0.9238899300 -1.1373854800 1.7512128100
$end


$rem
N_FROZEN_CORE FC
MEM_TOTAL 3750
MEM_STATIC 1500
AUX_BASIS_CORR rimp2-def2-QZVPPD
SCF_CONVERGENCE 7
SCF_ALGORITHM  GDM
method DSD-PBEPBE-D3
GEN_SCFMAN TRUE
UNRESTRICTED True
THRESH  14
SYMMETRY FALSE
SYM_IGNORE TRUE
max_scf_cycles 200

XC_GRID 000099000590
BASIS DEF2-QZVPPD


$end










