$molecule
0 1
N 0.0000000000 -0.0040137900 -2.3109670100
H -0.8112254900 -0.4598306000 -2.7104388100
H 0.0000000000 -0.2224943200 -1.3212816100
H 0.8112254900 -0.4598306000 -2.7104388100
$end


$rem
N_FROZEN_CORE FC
MEM_TOTAL 3750
MEM_STATIC 1500
AUX_BASIS_CORR rimp2-def2-QZVPPD
SCF_CONVERGENCE 7
SCF_ALGORITHM  GDM
method DSD-PBEPBE-D3
GEN_SCFMAN TRUE
UNRESTRICTED True
THRESH  14
SYMMETRY FALSE
SYM_IGNORE TRUE
max_scf_cycles 200

XC_GRID 000099000590
BASIS DEF2-QZVPPD


$end










