$molecule
0 1
H 0.0000000000 1.2334494800 2.8293179200
H 0.0000000000 1.2254714800 0.9777619900
H 0.0000000000 -1.2254714800 0.9777619900
H 0.0000000000 -1.2334494800 2.8293179200
C 0.0000000000 -0.6671169800 1.9060104200
C 0.0000000000 0.6671169800 1.9060104200
$end


$rem
N_FROZEN_CORE FC
MEM_TOTAL 3750
MEM_STATIC 1500
AUX_BASIS_CORR rimp2-def2-QZVPPD
SCF_CONVERGENCE 7
SCF_ALGORITHM  GDM
method DSD-PBEPBE-D3
GEN_SCFMAN TRUE
UNRESTRICTED True
THRESH  14
SYMMETRY FALSE
SYM_IGNORE TRUE
max_scf_cycles 200

XC_GRID 000099000590
BASIS DEF2-QZVPPD


$end










