$molecule
0 1
C 0.0000000000 0.6463438500 -1.6084981500
C 0.0000000000 -0.6791435500 -1.4538167500
H -0.9239996100 -1.2401622300 -1.3878488300
H 0.9239996100 -1.2401622300 -1.3878488300
H 0.9240360700 1.2073760200 -1.6735728500
H -0.9240360700 1.2073760200 -1.6735728500
$end


$rem
N_FROZEN_CORE FC
MEM_TOTAL 3750
MEM_STATIC 1500
AUX_BASIS_CORR rimp2-def2-QZVPPD
SCF_CONVERGENCE 7
SCF_ALGORITHM  GDM
method DSD-PBEPBE-D3
GEN_SCFMAN TRUE
UNRESTRICTED True
THRESH  14
SYMMETRY FALSE
SYM_IGNORE TRUE
max_scf_cycles 200

XC_GRID 000099000590
BASIS DEF2-QZVPPD


$end










