$molecule
0 1
H 0.0000000000 0.0829541100 1.5901671100
C 0.0000000000 0.0287150900 2.6771178500
H 0.8882545900 0.5226199000 3.0666402900
H -0.8882545900 0.5226199000 3.0666402900
H 0.0000000000 -1.0139480000 2.9895522700
$end


$rem
N_FROZEN_CORE FC
MEM_TOTAL 3750
MEM_STATIC 1500
AUX_BASIS_CORR rimp2-def2-QZVPPD
SCF_CONVERGENCE 7
SCF_ALGORITHM  GDM
method DSD-PBEPBE-D3
GEN_SCFMAN TRUE
UNRESTRICTED True
THRESH  14
SYMMETRY FALSE
SYM_IGNORE TRUE
max_scf_cycles 200

XC_GRID 000099000590
BASIS DEF2-QZVPPD


$end










