$molecule
0 1
C 0.0034600000 0.0000000000 1.3804520800
H 0.8484963500 0.0000000000 0.6895865100
H 0.3951333300 0.0000000000 2.3958493500
H -0.6026844700 -0.8899429900 1.2248267400
H -0.6026844700 0.8899429900 1.2248267400
B -0.0055531700 0.0000000000 -1.5988797600
H 0.5845512800 -1.0305180000 -1.6794952500
H 0.5845512800 1.0305180000 -1.6794952500
H -1.1890314800 0.0000000000 -1.4767721700
$end


$rem
N_FROZEN_CORE FC
MEM_TOTAL 3750
MEM_STATIC 1500
AUX_BASIS_CORR rimp2-def2-QZVPPD
SCF_CONVERGENCE 7
SCF_ALGORITHM  GDM
method DSD-PBEPBE-D3
GEN_SCFMAN TRUE
UNRESTRICTED True
THRESH  14
SYMMETRY FALSE
SYM_IGNORE TRUE
max_scf_cycles 200

XC_GRID 000099000590
BASIS DEF2-QZVPPD


$end










