$molecule
0 1
C 0.0000000000 0.7813357200 -1.1354391200
H 0.0000000000 1.3746534900 -2.0511444200
H -0.8804300200 1.0631055400 -0.5558091800
C 0.0000000000 -0.7133289000 -1.4472368600
H 0.8804300200 1.0631055400 -0.5558091800
H 0.0000000000 -1.3064181200 -0.5314069300
H -0.8810034300 -0.9953307200 -2.0258715400
H 0.8810034300 -0.9953307200 -2.0258715400
$end


$rem
N_FROZEN_CORE FC
MEM_TOTAL 3750
MEM_STATIC 1500
AUX_BASIS_CORR rimp2-def2-QZVPPD
SCF_CONVERGENCE 7
SCF_ALGORITHM  GDM
method DSD-PBEPBE-D3
GEN_SCFMAN TRUE
UNRESTRICTED True
THRESH  14
SYMMETRY FALSE
SYM_IGNORE TRUE
max_scf_cycles 200

XC_GRID 000099000590
BASIS DEF2-QZVPPD


$end










