$molecule
0 1
C 0.0000000000 0.0000000000 -2.8581047100
H 0.3930472000 -0.9471222900 -2.4936973900
H 0.6237083700 0.8139500000 -2.4936973900
H -1.0167555600 0.1331722900 -2.4936973900
H 0.0000000000 0.0000000000 -3.9463421400
$end


$rem
N_FROZEN_CORE FC
MEM_TOTAL 3750
MEM_STATIC 1500
AUX_BASIS_CORR rimp2-def2-QZVPPD
SCF_CONVERGENCE 7
SCF_ALGORITHM  GDM
method DSD-PBEPBE-D3
GEN_SCFMAN TRUE
UNRESTRICTED True
THRESH  14
SYMMETRY FALSE
SYM_IGNORE TRUE
max_scf_cycles 200

XC_GRID 000099000590
BASIS DEF2-QZVPPD


$end










