$molecule
0 1
C 0.0000000000 0.0000000000 -1.8190145700
H 0.0000000000 0.0000000000 -2.9072207200
H -0.5127411500 0.8880937300 -1.4547674300
H -0.5127411500 -0.8880937300 -1.4547674300
H 1.0254823000 0.0000000000 -1.4547674300
$end


$rem
N_FROZEN_CORE FC
MEM_TOTAL 3750
MEM_STATIC 1500
AUX_BASIS_CORR rimp2-def2-QZVPPD
SCF_CONVERGENCE 7
SCF_ALGORITHM  GDM
method DSD-PBEPBE-D3
GEN_SCFMAN TRUE
UNRESTRICTED True
THRESH  14
SYMMETRY FALSE
SYM_IGNORE TRUE
max_scf_cycles 200

XC_GRID 000099000590
BASIS DEF2-QZVPPD


$end










