$molecule
0 1
C 0.0000000000 0.0000000000 -2.6245842800
H 0.5128676200 0.8883127800 -2.2611019500
H 0.5128676200 -0.8883127800 -2.2611019500
H 0.0000000000 0.0000000000 -3.7127392800
H -1.0257352500 0.0000000000 -2.2611019500
$end


$rem
N_FROZEN_CORE FC
MEM_TOTAL 3750
MEM_STATIC 1500
AUX_BASIS_CORR rimp2-def2-QZVPPD
SCF_CONVERGENCE 7
SCF_ALGORITHM  GDM
method DSD-PBEPBE-D3
GEN_SCFMAN TRUE
UNRESTRICTED True
THRESH  14
SYMMETRY FALSE
SYM_IGNORE TRUE
max_scf_cycles 200

XC_GRID 000099000590
BASIS DEF2-QZVPPD


$end










