$molecule
0 1
H -0.9239610000 1.2319560000 -1.6847812300
H 0.9239610000 1.2319560000 -1.6847812300
H 0.9239610000 -1.2319560000 -1.6847812300
H -0.9239610000 -1.2319560000 -1.6847812300
C 0.0000000000 0.6671760000 -1.6847812300
C 0.0000000000 -0.6671760000 -1.6847812300
H 0.0000000000 -1.6678650000 1.8152187700
H 0.0000000000 1.6678650000 1.8152187700
C 0.0000000000 -0.6033970000 1.8152187700
C 0.0000000000 0.6033970000 1.8152187700
$end


$rem
N_FROZEN_CORE FC
MEM_TOTAL 3750
MEM_STATIC 1500
AUX_BASIS_CORR rimp2-def2-QZVPPD
SCF_CONVERGENCE 7
SCF_ALGORITHM  GDM
method DSD-PBEPBE-D3
GEN_SCFMAN TRUE
UNRESTRICTED True
THRESH  14
SYMMETRY FALSE
SYM_IGNORE TRUE
max_scf_cycles 200

XC_GRID 000099000590
BASIS DEF2-QZVPPD


$end










