$molecule
0 1
Br 0.0000000000 0.0000000000 2.3634360000
Br 0.0000000000 0.0000000000 0.0835510000
P 0.0000000000 0.0000000000 -3.3592170000
C 0.0000000000 0.0000000000 -4.8835250000
H 0.0000000000 0.0000000000 -5.9551390000
$end


$rem
N_FROZEN_CORE FC
MEM_TOTAL 3750
MEM_STATIC 1500
AUX_BASIS_CORR rimp2-def2-QZVPPD
SCF_CONVERGENCE 7
SCF_ALGORITHM  GDM
method DSD-PBEPBE-D3
GEN_SCFMAN TRUE
UNRESTRICTED True
THRESH  14
SYMMETRY FALSE
SYM_IGNORE TRUE
max_scf_cycles 200

XC_GRID 000099000590
BASIS DEF2-QZVPPD


$end










