$molecule
0 1
C 1.3681110000 0.0000000000 1.1339180000
C 0.6704590000 1.2085830000 1.1340660000
C -0.7240620000 1.2081650000 1.1332290000
C -1.4209390000 0.0000000000 1.1323900000
C -0.7240620000 -1.2081650000 1.1332290000
C 0.6704590000 -1.2085830000 1.1340660000
H 2.4504440000 0.0000000000 1.1362260000
H 1.2118500000 2.1455500000 1.1396340000
H -1.2648960000 2.1455800000 1.1355780000
H -2.5034350000 0.0000000000 1.1300700000
H -1.2648960000 -2.1455800000 1.1355780000
H 1.2118500000 -2.1455500000 1.1396340000
$end


$rem
N_FROZEN_CORE FC
MEM_TOTAL 3750
MEM_STATIC 1500
AUX_BASIS_CORR rimp2-def2-QZVPPD
SCF_CONVERGENCE 7
SCF_ALGORITHM  GDM
method DSD-PBEPBE-D3
GEN_SCFMAN TRUE
UNRESTRICTED True
THRESH  14
SYMMETRY FALSE
SYM_IGNORE TRUE
max_scf_cycles 200

XC_GRID 000099000590
BASIS DEF2-QZVPPD


$end










