$molecule
0 1
N -2.6322269453 0.6541205470 0.0000000000
P 0.2398071498 0.4042331045 0.0000000000
H -2.9454767165 0.1337767872 0.8140038096
H -3.1423895564 1.5317526597 0.0000000000
H -2.9454767165 0.1337767872 -0.8140038096
F 1.7613999903 -0.0701263192 0.0000000000
F -0.2191236027 -0.5380417832 -1.1908410699
F -0.2191236027 -0.5380417832 1.1908410699
$end


$rem
N_FROZEN_CORE FC
MEM_TOTAL 3750
MEM_STATIC 1500
AUX_BASIS_CORR rimp2-def2-QZVPPD
SCF_CONVERGENCE 7
SCF_ALGORITHM  GDM
method DSD-PBEPBE-D3
GEN_SCFMAN TRUE
UNRESTRICTED True
THRESH  14
SYMMETRY FALSE
SYM_IGNORE TRUE
max_scf_cycles 200

XC_GRID 000099000590
BASIS DEF2-QZVPPD


$end










