$molecule
0 1
N -2.6322269453 0.6541205470 0.0000000000
H -2.9454767165 0.1337767872 0.8140038096
H -3.1423895564 1.5317526597 0.0000000000
H -2.9454767165 0.1337767872 -0.8140038096
$end


$rem
N_FROZEN_CORE FC
MEM_TOTAL 3750
MEM_STATIC 1500
AUX_BASIS_CORR rimp2-def2-QZVPPD
SCF_CONVERGENCE 7
SCF_ALGORITHM  GDM
method DSD-PBEPBE-D3
GEN_SCFMAN TRUE
UNRESTRICTED True
THRESH  14
SYMMETRY FALSE
SYM_IGNORE TRUE
max_scf_cycles 200

XC_GRID 000099000590
BASIS DEF2-QZVPPD


$end










