$molecule
0 1
C 0.0000000000 0.4165750000 0.0000000000
H -0.2634160000 1.4733360000 0.0000000000
O -1.1104710000 -0.3432730000 0.0000000000
H 1.8765010000 0.6308700000 0.0000000000
H -0.8253480000 -1.2699690000 0.0000000000
N 1.1565760000 -0.0839290000 0.0000000000
$end


$rem
N_FROZEN_CORE FC
MEM_TOTAL 3750
MEM_STATIC 1500
AUX_BASIS_CORR rimp2-def2-QZVPPD
SCF_CONVERGENCE 7
SCF_ALGORITHM  GDM
method DSD-PBEPBE-D3
GEN_SCFMAN TRUE
UNRESTRICTED True
THRESH  14
SYMMETRY FALSE
SYM_IGNORE TRUE
max_scf_cycles 200

XC_GRID 000099000590
BASIS DEF2-QZVPPD


$end










