$molecule
0 1
C -0.6416660000 -1.5823640000 0.0000000000
O -1.5080750000 -2.4271900000 0.0000000000
H 0.4272140000 -1.8596100000 0.0000000000
C -0.9379390000 -0.1438190000 0.0000000000
H -1.9860580000 0.1264760000 0.0000000000
C 0.0000000000 0.8171160000 0.0000000000
C -0.3072640000 2.2860810000 0.0000000000
H 0.1298750000 2.7656630000 0.8771880000
H 0.1298750000 2.7656630000 -0.8771880000
H -1.3812980000 2.4540270000 0.0000000000
C 1.3941560000 0.4845570000 0.0000000000
N 2.5287530000 0.2851250000 0.0000000000
$end


$rem
N_FROZEN_CORE FC
MEM_TOTAL 3750
MEM_STATIC 1500
AUX_BASIS_CORR rimp2-def2-QZVPPD
SCF_CONVERGENCE 7
SCF_ALGORITHM  GDM
method DSD-PBEPBE-D3
GEN_SCFMAN TRUE
UNRESTRICTED True
THRESH  14
SYMMETRY FALSE
SYM_IGNORE TRUE
max_scf_cycles 200

XC_GRID 000099000590
BASIS DEF2-QZVPPD


$end










