$molecule
0 1
C 0.9935100000 -0.4650540000 1.2718450000
C 1.3879210000 -0.1880090000 0.0788150000
C 0.0211630000 -0.8289440000 0.1720530000
C 2.3735050000 0.3420600000 -0.8772180000
C -1.2267510000 -0.0545330000 -0.0728390000
C -2.2932470000 -0.6394980000 -0.6165840000
H -0.0699010000 -1.8786490000 -0.1080040000
H 3.2569620000 0.7289150000 -0.3694470000
H 1.9332210000 1.1426200000 -1.4752750000
H 2.6834350000 -0.4393580000 -1.5748480000
H -2.2808530000 -1.6877420000 -0.8873200000
H 1.1632160000 -0.4725740000 2.3331520000
H -3.2079860000 -0.0942620000 -0.8062460000
C -1.2272230000 1.3963320000 0.3149350000
H -1.0230150000 1.5168010000 1.3814170000
H -0.4436040000 1.9477470000 -0.2105250000
H -2.1847430000 1.8623780000 0.0910510000
$end


$rem
N_FROZEN_CORE FC
MEM_TOTAL 7500
MEM_STATIC 3000
AUX_BASIS_CORR rimp2-def2-QZVPPD
SCF_CONVERGENCE 7
SCF_ALGORITHM  GDM
method DSD-PBEPBE-D3
GEN_SCFMAN TRUE
UNRESTRICTED True
THRESH  14
SYMMETRY FALSE
SYM_IGNORE TRUE
max_scf_cycles 200

XC_GRID 000099000590
BASIS DEF2-QZVPPD


$end










