$molecule
0 1
C 0.8582910000 -1.4074220000 -0.1788910000
C 1.5344910000 -0.0989800000 -0.4821420000
C 0.0865800000 -0.3645480000 -0.1905510000
C 2.4398280000 0.5857120000 0.5230660000
C -1.2144960000 0.2285470000 -0.0336210000
C -1.3728250000 1.5459090000 -0.2000020000
H 3.4690130000 0.2298700000 0.4338670000
H 2.1022790000 0.3909630000 1.5420850000
H 2.4534150000 1.6677020000 0.3728210000
H -0.5325840000 2.1780860000 -0.4501080000
H 0.9881410000 -2.4656130000 -0.0434220000
H -2.3398770000 2.0172790000 -0.0900400000
C -2.3435090000 -0.7004870000 0.3171950000
H -2.4572990000 -1.4718800000 -0.4469990000
H -2.1391880000 -1.2137060000 1.2588950000
H -3.2858290000 -0.1636310000 0.4116290000
H 1.8117760000 0.0985450000 -1.5190490000
$end


$rem
N_FROZEN_CORE FC
MEM_TOTAL 7500
MEM_STATIC 3000
AUX_BASIS_CORR rimp2-def2-QZVPPD
SCF_CONVERGENCE 7
SCF_ALGORITHM  GDM
method DSD-PBEPBE-D3
GEN_SCFMAN TRUE
UNRESTRICTED True
THRESH  14
SYMMETRY FALSE
SYM_IGNORE TRUE
max_scf_cycles 200

XC_GRID 000099000590
BASIS DEF2-QZVPPD


$end










