$molecule
0 1
H          0.2915299457        5.1067505565       -2.7489051476
H          2.6350403088        4.2442901581       -2.9445143694
C          0.4736052732        4.0392877077       -2.9014943521
C          1.7905449136        3.5544281458       -3.0175342398
C         -0.6209499171        3.1584090143       -3.0127361172
C          2.0199485206        2.1820759339       -3.2436265566
H         -1.6490041565        3.5317140273       -2.9796709293
H          3.0414438373        1.8064062877       -3.3480907941
C         -0.3623149047        1.7944218594       -3.2279595765
C          0.9399530756        1.2846311818       -3.3518724433
Cl        -1.7282861859        0.6810384807       -3.3901714206
H          1.1015751696        0.2210331776       -3.5448031487
$end


$rem
N_FROZEN_CORE FC
MEM_TOTAL 3750
MEM_STATIC 1500
AUX_BASIS_CORR rimp2-def2-QZVPPD
SCF_CONVERGENCE 7
SCF_ALGORITHM  GDM
method DSD-PBEPBE-D3
GEN_SCFMAN TRUE
UNRESTRICTED True
THRESH  14
SYMMETRY FALSE
SYM_IGNORE TRUE
max_scf_cycles 200

XC_GRID 000099000590
BASIS DEF2-QZVPPD


$end










