$molecule
0 1
O         -0.8941428043       -2.1234938896        3.5813613880
H         -0.3459936576       -2.8736561623        3.2617761131
H         -0.5190161890       -1.3375384708        3.1663989818
O         -0.4742686168       -3.6214382518        5.9013920027
H         -0.7005242804       -2.8410748376        5.3574424596
H         -0.1200737228       -3.2668255285        6.7256600056
$end


$rem
N_FROZEN_CORE FC
MEM_TOTAL 3750
MEM_STATIC 1500
AUX_BASIS_CORR rimp2-def2-QZVPPD
SCF_CONVERGENCE 7
SCF_ALGORITHM  GDM
method DSD-PBEPBE-D3
GEN_SCFMAN TRUE
UNRESTRICTED True
THRESH  14
SYMMETRY FALSE
SYM_IGNORE TRUE
max_scf_cycles 200

XC_GRID 000099000590
BASIS DEF2-QZVPPD


$end










