$molecule
0 1
C          1.0088979957        0.6761737693        0.2245107930
H          1.8497526612        1.3745921609        0.2546183693
C          1.2487457597       -0.7100066638        0.2720104837
H          2.2746306400       -1.0829417962        0.3373671683
C          0.1690427920       -1.6133349472        0.2243104941
H          0.3562728325       -2.6910000721        0.2588401816
C         -1.1502038361       -1.1312806589        0.1294818022
H         -1.9889332007       -1.8332643114        0.0890491648
C         -1.3903655527        0.2561000773        0.0795006057
H         -2.4154910331        0.6310872234        0.0000996352
C         -0.3109454518        1.1587059795        0.1263505108
H         -0.4974180275        2.2363121015        0.0858490423
$end


$rem
N_FROZEN_CORE FC
MEM_TOTAL 3750
MEM_STATIC 1500
AUX_BASIS_CORR rimp2-def2-QZVPPD
SCF_CONVERGENCE 7
SCF_ALGORITHM  GDM
method DSD-PBEPBE-D3
GEN_SCFMAN TRUE
UNRESTRICTED True
THRESH  14
SYMMETRY FALSE
SYM_IGNORE TRUE
max_scf_cycles 200

XC_GRID 000099000590
BASIS DEF2-QZVPPD


$end










