$molecule
0 1
C         -0.1184113566        0.4552550983        0.1249998394
H         -0.1541507683        0.7216765273        1.1856385635
C         -0.0276368676        1.4670584375       -0.8524016640
H          0.0104233110        2.5179385345       -0.5508110606
C          0.0185487853        1.1232356337       -2.2193024364
H          0.0962835751        1.9078864819       -2.9773286762
C         -0.0218227372       -0.2302836002       -2.6068431406
H          0.0373222654       -0.5020156633       -3.6641588404
C         -0.1119544032       -1.2406676954       -1.6298736821
H         -0.1218897668       -2.2902366852       -1.9355881869
C         -0.1632966832       -0.8982789699       -0.2652443147
H         -0.2305793794       -1.6833517599        0.4937242148
$end


$rem
N_FROZEN_CORE FC
MEM_TOTAL 3750
MEM_STATIC 1500
AUX_BASIS_CORR rimp2-def2-QZVPPD
SCF_CONVERGENCE 7
SCF_ALGORITHM  GDM
method DSD-PBEPBE-D3
GEN_SCFMAN TRUE
UNRESTRICTED True
THRESH  14
SYMMETRY FALSE
SYM_IGNORE TRUE
max_scf_cycles 200

XC_GRID 000099000590
BASIS DEF2-QZVPPD


$end










