$molecule
0 1
C          0.0167754817       -0.1112990990       -0.2103780062
C          0.0854913129       -0.1489873865        1.1943152635
C          0.0226098262        1.0317262646        1.9564137673
C         -0.1137363285        2.2663552157        1.2964110330
C         -0.1823813088        2.3213838196       -0.1089469018
C         -0.1172535540        1.1315800169       -0.8581250382
Br         0.2298782104       -1.8241860750        2.0880979349
H          0.0673408806        0.9802087200        3.0468488678
H         -0.1702741007        3.1860338826        1.8862636326
H         -0.2873078333        3.2844408932       -0.6167165476
H         -0.1692857544        1.1660901419       -1.9507137465
H          0.0661750915       -1.0405349795       -0.7841991379
$end


$rem
N_FROZEN_CORE FC
MEM_TOTAL 7500
MEM_STATIC 3000
AUX_BASIS_CORR rimp2-def2-QZVPPD
SCF_CONVERGENCE 7
SCF_ALGORITHM  GDM
method DSD-PBEPBE-D3
GEN_SCFMAN TRUE
UNRESTRICTED True
THRESH  14
SYMMETRY FALSE
SYM_IGNORE TRUE
max_scf_cycles 200

XC_GRID 000099000590
BASIS DEF2-QZVPPD


$end










