$molecule
0 1
C  0.11420409210421903 1.3074109562065646    -2.878354143435628
O  1.2604430689926132  1.2669946481856122    -3.317717723119503
H -0.7080955735215696  1.7530083347715846    -3.473324674889062
H -0.13691198308837113 0.901984462532348     -1.8785233101835686
C -0.9928889346137945 -0.3776795865126034     1.2630311552413207
F -1.4072072734670698 -1.6340333188687686     1.5080828856848543
Cl 0.5971075999083849 -0.3700762334822731     0.5323414282554662
F -0.9954502652866408  0.3009136857499259     2.4247579688080996
F -1.8936336235315887  0.2044327716089104     0.43886060070555905
$end


$rem
N_FROZEN_CORE FC
MEM_TOTAL 3750
MEM_STATIC 1500
AUX_BASIS_CORR rimp2-def2-QZVPPD
SCF_CONVERGENCE 7
SCF_ALGORITHM  GDM
method DSD-PBEPBE-D3
GEN_SCFMAN TRUE
UNRESTRICTED True
THRESH  14
SYMMETRY FALSE
SYM_IGNORE TRUE
max_scf_cycles 200

XC_GRID 000099000590
BASIS DEF2-QZVPPD


$end










