$molecule
0 1
C   1.5423568595812325  2.2629120580297273     0.11253396678755889
O   2.6317606370448026  1.709138383396212      0.2340136236712412
H   1.3271801627863065  2.9179879606579706    -0.755235841708863
H   0.739060111950433   2.128138310145661      0.8638683512604456
$end


$rem
N_FROZEN_CORE FC
MEM_TOTAL 3750
MEM_STATIC 1500
AUX_BASIS_CORR rimp2-def2-QZVPPD
SCF_CONVERGENCE 7
SCF_ALGORITHM  GDM
method DSD-PBEPBE-D3
GEN_SCFMAN TRUE
UNRESTRICTED True
THRESH  14
SYMMETRY FALSE
SYM_IGNORE TRUE
max_scf_cycles 200

XC_GRID 000099000590
BASIS DEF2-QZVPPD


$end










