$molecule
0 1
C          2.2872913194       -3.1008850944       -4.2471571914
C          2.5646300194       -2.2120041274       -3.4380098315
H          2.0465519311       -3.8741791823       -4.9537550301
H          2.8156005332       -1.4343254985       -2.7274442497
$end


$rem
N_FROZEN_CORE FC
MEM_TOTAL 3750
MEM_STATIC 1500
AUX_BASIS_CORR rimp2-def2-QZVPPD
SCF_CONVERGENCE 7
SCF_ALGORITHM  GDM
method DSD-PBEPBE-D3
GEN_SCFMAN TRUE
UNRESTRICTED True
THRESH  14
SYMMETRY FALSE
SYM_IGNORE TRUE
max_scf_cycles 200

XC_GRID 000099000590
BASIS DEF2-QZVPPD


$end










