$molecule
0 1
C         -0.3897638861       -0.3930880838       -0.4566674795
H         -1.1686995164       -0.8992475634       -1.0347543264
C         -0.1276963946        0.9760236016       -0.6747163339
H         -0.7052770151        1.5314148821       -1.4195224524
C          0.8965218987        1.6217413073        0.0462472530
H          1.1123449062        2.6784025774       -0.1359571760
C          1.6583034619        0.8983140346        0.9883932374
H          2.4709788243        1.3918934222        1.5300144985
C          1.3963280274       -0.4722588804        1.2062214736
H          2.0014056435       -1.0381896579        1.9205911494
C          0.3722567907       -1.1175497838        0.4823303644
H          0.1787244098       -2.1822383412        0.6402618239
$end


$rem
N_FROZEN_CORE FC
MEM_TOTAL 3750
MEM_STATIC 1500
AUX_BASIS_CORR rimp2-def2-QZVPPD
SCF_CONVERGENCE 7
SCF_ALGORITHM  GDM
method DSD-PBEPBE-D3
GEN_SCFMAN TRUE
UNRESTRICTED True
THRESH  14
SYMMETRY FALSE
SYM_IGNORE TRUE
max_scf_cycles 200

XC_GRID 000099000590
BASIS DEF2-QZVPPD


$end










