$molecule
0 1
C         -0.6936864964       -0.1028845447        0.2460051673
C         -0.4291489446        0.2050582433        1.5973108034
C          0.1270572068        1.4540788463        1.9378321461
C          0.3837516939        2.4040205325        0.9333688443
C          0.0949898559        2.1148299200       -0.4157389829
C         -0.4337796487        0.8539438449       -0.7521887452
O         -0.7037851252       -0.6687859533        2.6173524047
H          0.3353124424        1.6691450837        2.9899039621
H          0.8045684841        3.3762814682        1.2068995216
H          0.2907391377        2.8579742301       -1.1933986723
H         -0.6488426733        0.6111887371       -1.7974361165
H         -1.1115653383       -1.0800122718       -0.0130044818
H         -1.3781194031       -1.3041927609        2.2942626004
C         -3.2166440262        1.5481571496        1.2379011575
H         -2.5779901129        1.8190451049        3.2925481975
C         -3.3350850266        1.3877015794        2.6320554331
H         -4.0755616450        1.0813187634       -0.7007347688
C         -4.1744454647        0.9682574217        0.3829328705
C         -4.4124072278        0.6594426573        3.1728478288
C         -5.2520091872        0.2338776562        0.9197488381
C         -5.3732818805        0.0825281624        2.3176195020
H         -4.5010565002        0.5360620687        4.2562431380
H         -5.9946737300       -0.2164087929        0.2542447298
H         -6.2126744945       -0.4815219552        2.7359228537
H         -2.3771244931        2.1107911158        0.8202450205
$end


$rem
N_FROZEN_CORE FC
MEM_TOTAL 30000
MEM_STATIC 8000
AUX_BASIS_CORR rimp2-def2-QZVPPD
SCF_CONVERGENCE 7
SCF_ALGORITHM  GDM
method DSD-PBEPBE-D3
GEN_SCFMAN TRUE
UNRESTRICTED True
THRESH  14
SYMMETRY FALSE
SYM_IGNORE TRUE
max_scf_cycles 200

XC_GRID 000099000590
BASIS DEF2-QZVPPD


$end










