$molecule
0 1
O         -0.2187856034        0.3809540360        0.1756112198
H         -0.8340982340        1.0261924770        0.5463350650
H         -0.0984076897        0.6673397842       -0.7539944002
O         -1.4137713791       -2.0758831636       -0.5614978147
H         -0.9962896683       -1.2941156619       -0.1480445209
H         -1.3804121875       -2.7590976140        0.1187107445
$end


$rem
N_FROZEN_CORE FC
MEM_TOTAL 3750
MEM_STATIC 1500
AUX_BASIS_CORR rimp2-def2-QZVPPD
SCF_CONVERGENCE 7
SCF_ALGORITHM  GDM
method DSD-PBEPBE-D3
GEN_SCFMAN TRUE
UNRESTRICTED True
THRESH  14
SYMMETRY FALSE
SYM_IGNORE TRUE
max_scf_cycles 200

XC_GRID 000099000590
BASIS DEF2-QZVPPD


$end










