$molecule
0 1
O         -1.4137713791       -2.0758831636       -0.5614978147
H         -0.9962896683       -1.2941156619       -0.1480445209
H         -1.3804121875       -2.7590976140        0.1187107445
O         -0.0429363602        0.8767602928       -2.5582589313
H          0.6408499386        1.3749951600       -3.0240504613
C         -0.2630336888       -0.3688593308       -3.2647513348
H         -0.9542401207       -0.9574674174       -2.6508943441
H          0.6772971278       -0.9296029820       -3.3799805578
H         -0.7086134627       -0.1789679890       -4.2532171433
$end


$rem
N_FROZEN_CORE FC
MEM_TOTAL 3750
MEM_STATIC 1500
AUX_BASIS_CORR rimp2-def2-QZVPPD
SCF_CONVERGENCE 7
SCF_ALGORITHM  GDM
method DSD-PBEPBE-D3
GEN_SCFMAN TRUE
UNRESTRICTED True
THRESH  14
SYMMETRY FALSE
SYM_IGNORE TRUE
max_scf_cycles 200

XC_GRID 000099000590
BASIS DEF2-QZVPPD


$end










