$molecule
0 1
O         -0.4742686168       -3.6214382518        5.9013920027
H         -0.7005242804       -2.8410748376        5.3574424596
H         -0.1200737228       -3.2668255285        6.7256600056
O          0.4456178567       -4.5326112985        3.4170865754
H          0.3551476975       -4.4562139793        4.3868575315
C         -0.4628190996       -5.5621648675        2.9876173639
H         -0.3996078633       -5.6075389464        1.8925660174
H         -1.5000111170       -5.3303896752        3.2808092227
H         -0.1777942164       -6.5424729264        3.4016030066
$end


$rem
N_FROZEN_CORE FC
MEM_TOTAL 3750
MEM_STATIC 1500
AUX_BASIS_CORR rimp2-def2-QZVPPD
SCF_CONVERGENCE 7
SCF_ALGORITHM  GDM
method DSD-PBEPBE-D3
GEN_SCFMAN TRUE
UNRESTRICTED True
THRESH  14
SYMMETRY FALSE
SYM_IGNORE TRUE
max_scf_cycles 200

XC_GRID 000099000590
BASIS DEF2-QZVPPD


$end










