$molecule
0 1
C          4.2982998734        0.5886696130        1.2416628642
C          5.1605341823        0.8310831885        0.3946462819
H          3.5351755329        0.3832895360        1.9753479793
H          5.9159110019        1.0385718073       -0.3415062162
$end


$rem
N_FROZEN_CORE FC
MEM_TOTAL 3750
MEM_STATIC 1500
AUX_BASIS_CORR rimp2-def2-QZVPPD
SCF_CONVERGENCE 7
SCF_ALGORITHM  GDM
method DSD-PBEPBE-D3
GEN_SCFMAN TRUE
UNRESTRICTED True
THRESH  14
SYMMETRY FALSE
SYM_IGNORE TRUE
max_scf_cycles 200

XC_GRID 000099000590
BASIS DEF2-QZVPPD


$end










