$molecule
0 1
C 3.03905424099     1.36239909169   1.18786604507
O 3.20504258119     1.0028148357    0.0228436064265
H 2.45394999778     2.27049976219   1.43237362599
H 3.47777660462     0.793742654059  2.03037595829
$end


$rem
N_FROZEN_CORE FC
MEM_TOTAL 3750
MEM_STATIC 1500
AUX_BASIS_CORR rimp2-def2-QZVPPD
SCF_CONVERGENCE 7
SCF_ALGORITHM  GDM
method DSD-PBEPBE-D3
GEN_SCFMAN TRUE
UNRESTRICTED True
THRESH  14
SYMMETRY FALSE
SYM_IGNORE TRUE
max_scf_cycles 200

XC_GRID 000099000590
BASIS DEF2-QZVPPD


$end










