$molecule
0 1
O         -0.2187856034        0.3809540360        0.1756112198
H         -0.8340982340        1.0261924770        0.5463350650
H         -0.0984076897        0.6673397842       -0.7539944002
O         -0.0429363602        0.8767602928       -2.5582589313
H          0.6408499386        1.3749951600       -3.0240504613
C         -0.2630336888       -0.3688593308       -3.2647513348
H         -0.9542401207       -0.9574674174       -2.6508943441
H          0.6772971278       -0.9296029820       -3.3799805578
H         -0.7086134627       -0.1789679890       -4.2532171433
$end


$rem
N_FROZEN_CORE FC
MEM_TOTAL 3750
MEM_STATIC 1500
AUX_BASIS_CORR rimp2-def2-QZVPPD
SCF_CONVERGENCE 7
SCF_ALGORITHM  GDM
method DSD-PBEPBE-D3
GEN_SCFMAN TRUE
UNRESTRICTED True
THRESH  14
SYMMETRY FALSE
SYM_IGNORE TRUE
max_scf_cycles 200

XC_GRID 000099000590
BASIS DEF2-QZVPPD


$end










