$molecule
1 1
N         -2.4326574126        1.5788891844       -0.3818101011
H         -2.4036108701        0.7817380124        0.2660750318
H         -3.2996600609        2.1075699605       -0.2584526309
H         -1.6064019207        2.1616052344       -0.1492263343
H         -2.3428539640        1.2409610372       -1.3578786391
$end


$rem
N_FROZEN_CORE FC
MEM_TOTAL 3750
MEM_STATIC 1500
AUX_BASIS_CORR rimp2-def2-QZVPPD
SCF_CONVERGENCE 7
SCF_ALGORITHM  GDM
method DSD-PBEPBE-D3
GEN_SCFMAN TRUE
UNRESTRICTED True
THRESH  14
SYMMETRY FALSE
SYM_IGNORE TRUE
max_scf_cycles 200

XC_GRID 000099000590
BASIS DEF2-QZVPPD


$end










