$molecule
0 1
O         -0.4731566751       -0.0836529480        5.3383711860
C         -1.4707731041       -0.0871848761        6.0557481029
H         -1.3731178855       -0.0749828645        7.1625496865
H         -2.4916225401       -0.1039708580        5.6274359937
O         -3.7176967035       -0.3698020145        3.6850605632
H         -2.9451743522       -0.2929437968        3.1015018868
H         -4.4721076630       -0.2595492136        3.0924992657
$end


$rem
N_FROZEN_CORE FC
MEM_TOTAL 3750
MEM_STATIC 1500
AUX_BASIS_CORR rimp2-def2-QZVPPD
SCF_CONVERGENCE 7
SCF_ALGORITHM  GDM
method DSD-PBEPBE-D3
GEN_SCFMAN TRUE
UNRESTRICTED True
THRESH  14
SYMMETRY FALSE
SYM_IGNORE TRUE
max_scf_cycles 200

XC_GRID 000099000590
BASIS DEF2-QZVPPD


$end










