$molecule
0 1
C -0.9928889346137945 -0.3776795865126034     1.2630311552413207
F -1.4072072734670698 -1.6340333188687686     1.5080828856848543
Cl 0.5971075999083849 -0.3700762334822731     0.5323414282554662
F -0.9954502652866408  0.3009136857499259     2.4247579688080996
F -1.8936336235315887  0.2044327716089104     0.43886060070555905
$end


$rem
N_FROZEN_CORE FC
MEM_TOTAL 3750
MEM_STATIC 1500
AUX_BASIS_CORR rimp2-def2-QZVPPD
SCF_CONVERGENCE 7
SCF_ALGORITHM  GDM
method DSD-PBEPBE-D3
GEN_SCFMAN TRUE
UNRESTRICTED True
THRESH  14
SYMMETRY FALSE
SYM_IGNORE TRUE
max_scf_cycles 200

XC_GRID 000099000590
BASIS DEF2-QZVPPD


$end










