$molecule
0 1
N          0.0707020671        0.2943289016        3.3924648506
H         -0.0456195121        0.1885828975        2.3712682963
H         -0.2308482977       -0.6014139313        3.7812953038
H          1.0836067345        0.3180235144        3.5291886804
$end


$rem
N_FROZEN_CORE FC
MEM_TOTAL 3750
MEM_STATIC 1500
AUX_BASIS_CORR rimp2-def2-QZVPPD
SCF_CONVERGENCE 7
SCF_ALGORITHM  GDM
method DSD-PBEPBE-D3
GEN_SCFMAN TRUE
UNRESTRICTED True
THRESH  14
SYMMETRY FALSE
SYM_IGNORE TRUE
max_scf_cycles 200

XC_GRID 000099000590
BASIS DEF2-QZVPPD


$end










