$molecule
0 1
N         -3.1577029058       -3.1780050370        3.0712142912
C         -3.3708224003       -2.3619069407        4.2648959961
C         -4.0137431497       -2.6937407186        1.9878711931
C         -3.4478894677       -4.5803004497        3.3608691653
H         -5.0944621989       -2.7672504289        2.2475205751
H         -3.7808369610       -1.6406604842        1.7735487797
H         -3.8292189896       -3.2873575038        1.0786176876
H         -4.5019785416       -4.7333328635        3.6891713336
H         -3.2739022777       -5.1869776763        2.4586794872
H         -2.7805705857       -4.9394341121        4.1599039658
H         -4.4219322986       -2.4217052135        4.6311483467
H         -2.6995476310       -2.6992499896        5.0703799881
H         -3.1462227377       -1.3106358812        4.0305106594
$end


$rem
N_FROZEN_CORE FC
MEM_TOTAL 3750
MEM_STATIC 1500
AUX_BASIS_CORR rimp2-def2-QZVPPD
SCF_CONVERGENCE 7
SCF_ALGORITHM  GDM
method DSD-PBEPBE-D3
GEN_SCFMAN TRUE
UNRESTRICTED True
THRESH  14
SYMMETRY FALSE
SYM_IGNORE TRUE
max_scf_cycles 200

XC_GRID 000099000590
BASIS DEF2-QZVPPD


$end










