$molecule
1 1
C          0.5081987091        0.5379459794        0.0622699133
C         -0.1512419586       -0.0860539954        1.1424345253
C          0.6687998501        1.9397273311        0.0455811897
C          0.1645229739        2.7184502607        1.1111460493
C         -0.5046582052        2.0963002911        2.1884047137
C         -0.6617300541        0.6940974085        2.2036689514
H         -0.2477109046       -1.1757024868        1.1702604002
H         -1.1540919319        0.2089517815        3.0519022632
H          0.9168724452       -0.0651746444       -0.7534714300
H          1.1949495998        2.4209526242       -0.7825945444
H          0.3126516061        3.8026748184        1.1120821600
H         -0.8789932435        2.6979220261        3.0217319298
N         -2.4326574126        1.5788891844       -0.3818101011
H         -2.4036108701        0.7817380124        0.2660750318
H         -3.2996600609        2.1075699605       -0.2584526309
H         -1.6064019207        2.1616052344       -0.1492263343
H         -2.3428539640        1.2409610372       -1.3578786391
H          0.2915299457        5.1067505565       -2.7489051476
H          2.6350403088        4.2442901581       -2.9445143694
C          0.4736052732        4.0392877077       -2.9014943521
C          1.7905449136        3.5544281458       -3.0175342398
C         -0.6209499171        3.1584090143       -3.0127361172
C          2.0199485206        2.1820759339       -3.2436265566
H         -1.6490041565        3.5317140273       -2.9796709293
H          3.0414438373        1.8064062877       -3.3480907941
C         -0.3623149047        1.7944218594       -3.2279595765
C          0.9399530756        1.2846311818       -3.3518724433
Cl        -1.7282861859        0.6810384807       -3.3901714206
H          1.1015751696        0.2210331776       -3.5448031487
$end


$rem
N_FROZEN_CORE FC
MEM_TOTAL 60000
MEM_STATIC 8000
AUX_BASIS_CORR rimp2-def2-QZVPPD
SCF_CONVERGENCE 7
SCF_ALGORITHM  GDM
method DSD-PBEPBE-D3
GEN_SCFMAN TRUE
UNRESTRICTED True
THRESH  14
SYMMETRY FALSE
SYM_IGNORE TRUE
max_scf_cycles 200

XC_GRID 000099000590
BASIS DEF2-QZVPPD


$end










