$molecule
-1 1
Cl         0.0652470366       -0.2577687896       -0.0078082417
N          0.0707020671        0.2943289016        3.3924648506
H         -0.0456195121        0.1885828975        2.3712682963
H         -0.2308482977       -0.6014139313        3.7812953038
H          1.0836067345        0.3180235144        3.5291886804
C          4.3581155887       -0.4343040552        2.1943010672
C          5.1562400940        0.5111686213        2.8709665366
C          3.1663835305       -0.0330081166        1.5595167125
C          4.7600912847        1.8624928230        2.9122599232
C          2.7722898287        1.3196598190        1.5992921778
C          3.5678746840        2.2646777232        2.2756370438
H          2.5086779030       -0.7333781509        1.0330590320
H          1.8347618058        1.5886698838        1.1015819287
H          4.6661444272       -1.4851511806        2.1660532285
H          6.0815018416        0.1969165808        3.3665200320
H          5.3768114383        2.5975625479        3.4410737719
H          3.2576365456        3.3142862141        2.3133971529
$end


$rem
N_FROZEN_CORE FC
MEM_TOTAL 7500
MEM_STATIC 3000
AUX_BASIS_CORR rimp2-def2-QZVPPD
SCF_CONVERGENCE 7
SCF_ALGORITHM  GDM
method DSD-PBEPBE-D3
GEN_SCFMAN TRUE
UNRESTRICTED True
THRESH  14
SYMMETRY FALSE
SYM_IGNORE TRUE
max_scf_cycles 200

XC_GRID 000099000590
BASIS DEF2-QZVPPD


$end










