$molecule
1 1
N         -2.4326574126        1.5788891844       -0.3818101011
H         -2.4036108701        0.7817380124        0.2660750318
H         -3.2996600609        2.1075699605       -0.2584526309
H         -1.6064019207        2.1616052344       -0.1492263343
H         -2.3428539640        1.2409610372       -1.3578786391
H          0.2915299457        5.1067505565       -2.7489051476
H          2.6350403088        4.2442901581       -2.9445143694
C          0.4736052732        4.0392877077       -2.9014943521
C          1.7905449136        3.5544281458       -3.0175342398
C         -0.6209499171        3.1584090143       -3.0127361172
C          2.0199485206        2.1820759339       -3.2436265566
H         -1.6490041565        3.5317140273       -2.9796709293
H          3.0414438373        1.8064062877       -3.3480907941
C         -0.3623149047        1.7944218594       -3.2279595765
C          0.9399530756        1.2846311818       -3.3518724433
Cl        -1.7282861859        0.6810384807       -3.3901714206
H          1.1015751696        0.2210331776       -3.5448031487
$end


$rem
N_FROZEN_CORE FC
MEM_TOTAL 7500
MEM_STATIC 3000
AUX_BASIS_CORR rimp2-def2-QZVPPD
SCF_CONVERGENCE 7
SCF_ALGORITHM  GDM
method DSD-PBEPBE-D3
GEN_SCFMAN TRUE
UNRESTRICTED True
THRESH  14
SYMMETRY FALSE
SYM_IGNORE TRUE
max_scf_cycles 200

XC_GRID 000099000590
BASIS DEF2-QZVPPD


$end










