$molecule
0 1
C 0.0               0.0             0.0
I 0.0               0.0             2.16130000008
H 0.0               1.04236054328  -0.337053033458
H 0.907079864906   -0.520231950891 -0.328299918006
H -0.901927123545  -0.53305406601  -0.32015789375
O 1.35542027356     2.81248007562  -1.14377859101
H 2.10829403359     2.21137622458  -0.992549288393
H 1.62900736081     3.37011576392  -1.88217181572
$end


$rem
N_FROZEN_CORE FC
MEM_TOTAL 3750
MEM_STATIC 1500
AUX_BASIS_CORR rimp2-def2-QZVPPD
SCF_CONVERGENCE 7
SCF_ALGORITHM  GDM
method DSD-PBEPBE-D3
GEN_SCFMAN TRUE
UNRESTRICTED True
THRESH  14
SYMMETRY FALSE
SYM_IGNORE TRUE
max_scf_cycles 200

XC_GRID 000099000590
BASIS DEF2-QZVPPD


$end










