$molecule
0 1
C          1.0088979957        0.6761737693        0.2245107930
H          1.8497526612        1.3745921609        0.2546183693
C          1.2487457597       -0.7100066638        0.2720104837
H          2.2746306400       -1.0829417962        0.3373671683
C          0.1690427920       -1.6133349472        0.2243104941
H          0.3562728325       -2.6910000721        0.2588401816
C         -1.1502038361       -1.1312806589        0.1294818022
H         -1.9889332007       -1.8332643114        0.0890491648
C         -1.3903655527        0.2561000773        0.0795006057
H         -2.4154910331        0.6310872234        0.0000996352
C         -0.3109454518        1.1587059795        0.1263505108
H         -0.4974180275        2.2363121015        0.0858490423
C          1.9369944119        1.0342017098        3.9482021413
H          2.6328911375        1.8540880723        4.1519022874
C          2.3695262236       -0.3031380629        4.0648553762
H          3.3992081969       -0.5211456339        4.3661159149
C          1.4739203513       -1.3575476160        3.8029885438
H          1.8103928867       -2.3949662222        3.8920512006
C          0.1438748433       -1.0762505057        3.4334078812
H         -0.5528951968       -1.8938873542        3.2297769789
C         -0.2895399206        0.2575185121        3.3226711342
H         -1.3195708948        0.4736681293        3.0280885644
C          0.6088440284        1.3125382671        3.5739779802
H          0.2735277631        2.3498436971        3.4805628371
C          4.2982998734        0.5886696130        1.2416628642
C          5.1605341823        0.8310831885        0.3946462819
H          3.5351755329        0.3832895360        1.9753479793
H          5.9159110019        1.0385718073       -0.3415062162
$end


$rem
N_FROZEN_CORE FC
MEM_TOTAL 60000
MEM_STATIC 8000
AUX_BASIS_CORR rimp2-def2-QZVPPD
SCF_CONVERGENCE 7
SCF_ALGORITHM  GDM
method DSD-PBEPBE-D3
GEN_SCFMAN TRUE
UNRESTRICTED True
THRESH  14
SYMMETRY FALSE
SYM_IGNORE TRUE
max_scf_cycles 200

XC_GRID 000099000590
BASIS DEF2-QZVPPD


$end










