$molecule
0 1
C          0.0842290338        1.4886709122        0.6158988909
H          0.1551400967        1.1667545522        1.6419618764
C         -0.0068696133        1.8394932420       -0.5625517231
H         -0.0811109863        2.1501569177       -1.5887368620
H          0.0914519349        4.1151429244        1.8127626261
H         -0.3498232544        5.1070192868        4.0747972402
C          0.8826867283        4.1425869651        2.5669778936
C          0.6351647945        4.6921927347        3.8395916864
C          2.1510757056        3.6111355550        2.2641006572
H          2.3329432834        3.1762847009        1.2775172937
C          1.6535532224        4.7034743863        4.8133732744
H          1.4602304540        5.1250175944        5.8042718256
C          3.1719248425        3.6287262040        3.2339712171
C          2.9230661426        4.1721944595        4.5099894324
H          4.1579964234        3.2167678775        2.9987938650
H          3.7141245287        4.1812673617        5.2657154559
$end


$rem
N_FROZEN_CORE FC
MEM_TOTAL 7500
MEM_STATIC 3000
AUX_BASIS_CORR rimp2-def2-QZVPPD
SCF_CONVERGENCE 7
SCF_ALGORITHM  GDM
method DSD-PBEPBE-D3
GEN_SCFMAN TRUE
UNRESTRICTED True
THRESH  14
SYMMETRY FALSE
SYM_IGNORE TRUE
max_scf_cycles 200

XC_GRID 000099000590
BASIS DEF2-QZVPPD


$end










