$molecule
0 1
O   2.0936665395154117  7.198551479474493e-17  2.484717863744626
H   2.5115150730190137  0.5267222693251359     1.7790190619906925
H   2.8080738243306342 -0.18450826183460187    3.106645187924797
C  -1.1773415628333062 -0.5350371800408222    -0.7312614893280672
F  -0.92006009098672   -1.4100137023275998    -1.7199424821102876
Cl -0.1058549024937031 -0.7846883807645988     0.6272566946473169
F  -2.465348830636055  -0.673733940657669     -0.3676141836758125
F  -1.0181661294690814  0.7150655576305571    -1.2294567342292095
$end


$rem
N_FROZEN_CORE FC
MEM_TOTAL 3750
MEM_STATIC 1500
AUX_BASIS_CORR rimp2-def2-QZVPPD
SCF_CONVERGENCE 7
SCF_ALGORITHM  GDM
method DSD-PBEPBE-D3
GEN_SCFMAN TRUE
UNRESTRICTED True
THRESH  14
SYMMETRY FALSE
SYM_IGNORE TRUE
max_scf_cycles 200

XC_GRID 000099000590
BASIS DEF2-QZVPPD


$end










