$molecule
0 1
H          1.5118776866       -3.0525718613        0.7561829793
H         -0.5162083139       -2.9659621292       -3.0775804548
H          0.2129383246       -4.2221256364       -1.0385539705
H          1.3386834598        0.6360721173       -1.5223394285
H          2.0750507692       -0.6222446320        0.5143246145
H          0.0503288239       -0.5349736782       -3.3203354858
C          0.4396346331       -3.1564163180       -1.1353362975
C          0.0271763302       -2.4463499259       -2.2831934509
C          1.0719837823       -0.4184544344       -1.4059823554
C          1.4892851102       -1.1272033754       -0.2592810480
C          0.3438779760       -1.0786881452       -2.4177884032
C          1.1724391905       -2.4967621532       -0.1225988205
$end


$rem
N_FROZEN_CORE FC
MEM_TOTAL 3750
MEM_STATIC 1500
AUX_BASIS_CORR rimp2-def2-QZVPPD
SCF_CONVERGENCE 7
SCF_ALGORITHM  GDM
method DSD-PBEPBE-D3
GEN_SCFMAN TRUE
UNRESTRICTED True
THRESH  14
SYMMETRY FALSE
SYM_IGNORE TRUE
max_scf_cycles 200

XC_GRID 000099000590
BASIS DEF2-QZVPPD


$end










