$molecule
0 1
C          0.5081987091        0.5379459794        0.0622699133
C         -0.1512419586       -0.0860539954        1.1424345253
C          0.6687998501        1.9397273311        0.0455811897
C          0.1645229739        2.7184502607        1.1111460493
C         -0.5046582052        2.0963002911        2.1884047137
C         -0.6617300541        0.6940974085        2.2036689514
H         -0.2477109046       -1.1757024868        1.1702604002
H         -1.1540919319        0.2089517815        3.0519022632
H          0.9168724452       -0.0651746444       -0.7534714300
H          1.1949495998        2.4209526242       -0.7825945444
H          0.3126516061        3.8026748184        1.1120821600
H         -0.8789932435        2.6979220261        3.0217319298
$end


$rem
N_FROZEN_CORE FC
MEM_TOTAL 3750
MEM_STATIC 1500
AUX_BASIS_CORR rimp2-def2-QZVPPD
SCF_CONVERGENCE 7
SCF_ALGORITHM  GDM
method DSD-PBEPBE-D3
GEN_SCFMAN TRUE
UNRESTRICTED True
THRESH  14
SYMMETRY FALSE
SYM_IGNORE TRUE
max_scf_cycles 200

XC_GRID 000099000590
BASIS DEF2-QZVPPD


$end










