$molecule
0 1
H         -3.4787465748        2.6909472761        0.6449861473
C         -3.3233291672        1.8655251646        1.3460950659
H         -3.3526527605        3.1423575916        3.1046992831
C         -3.2506762792        2.1192870999        2.7296035204
H         -3.2459475726        0.3528346901       -0.2110946707
C         -3.1948982487        0.5488504510        0.8637506915
C         -3.0421027424        1.0568936287        3.6305369761
C         -2.9876732861       -0.5129292679        1.7641588054
C         -2.9098708571       -0.2589926503        3.1465553942
H         -2.9849218016        1.2540398860        4.7054730730
H         -2.8708328196       -1.5334067329        1.3883019872
H         -2.7415554119       -1.0833468863        3.8452152600
$end


$rem
N_FROZEN_CORE FC
MEM_TOTAL 3750
MEM_STATIC 1500
AUX_BASIS_CORR rimp2-def2-QZVPPD
SCF_CONVERGENCE 7
SCF_ALGORITHM  GDM
method DSD-PBEPBE-D3
GEN_SCFMAN TRUE
UNRESTRICTED True
THRESH  14
SYMMETRY FALSE
SYM_IGNORE TRUE
max_scf_cycles 200

XC_GRID 000099000590
BASIS DEF2-QZVPPD


$end










