$molecule
0 1
C         -0.4349755102        0.2783783488        0.0268070998
H         -0.6229654517        0.4200820420        1.0939622787
C         -0.3362721802        1.3880341072       -0.8350593103
H         -0.4629368059        2.4001734952       -0.4396374974
C         -0.0610445092        1.1972731022       -2.2039053959
H          0.0241155521        2.0600490984       -2.8711592524
C          0.1098565079       -0.1061327335       -2.7122145811
H          0.3268058314       -0.2548407187       -3.7741273623
C          0.0052604802       -1.2169429064       -1.8509152787
H          0.1433720336       -2.2280978995       -2.2451920865
C         -0.2633437233       -1.0243383625       -0.4815397454
H         -0.3223418209       -1.8799199799        0.1965621426
C          2.9757562175        0.1879443086       -0.5259437140
H          2.0661020896        0.2350706181       -1.1033722773
C          3.9936046615        0.1233258904        0.1673693702
H          4.9039542966        0.0794938935        0.7376733418
$end


$rem
N_FROZEN_CORE FC
MEM_TOTAL 7500
MEM_STATIC 3000
AUX_BASIS_CORR rimp2-def2-QZVPPD
SCF_CONVERGENCE 7
SCF_ALGORITHM  GDM
method DSD-PBEPBE-D3
GEN_SCFMAN TRUE
UNRESTRICTED True
THRESH  14
SYMMETRY FALSE
SYM_IGNORE TRUE
max_scf_cycles 200

XC_GRID 000099000590
BASIS DEF2-QZVPPD


$end










