$molecule
0 1
C          0.0842290338        1.4886709122        0.6158988909
H          0.1551400967        1.1667545522        1.6419618764
C         -0.0068696133        1.8394932420       -0.5625517231
H         -0.0811109863        2.1501569177       -1.5887368620
H         -2.4620584384        0.2017436225        3.6030938241
C         -1.3687060561        0.1747503458        3.6278195058
H         -1.2407188252       -1.7889092211        2.7049899209
C         -0.6813382852       -0.9467368353        3.1225894360
C         -0.6464861985        1.2640999115        4.1537345245
C          0.7269666815       -0.9779477820        3.1444680391
C          0.7614686901        1.2347338671        4.1769536284
H          1.2603414465       -1.8452535872        2.7444636226
C          1.4467372511        0.1126225489        3.6722278573
H          1.3198520201        2.0853347083        4.5746906554
H          2.5407461452        0.0943693349        3.6822465221
H         -1.1758522172        2.1413854740        4.5372495127
H          0.0914519349        4.1151429244        1.8127626261
H         -0.3498232544        5.1070192868        4.0747972402
C          0.8826867283        4.1425869651        2.5669778936
C          0.6351647945        4.6921927347        3.8395916864
C          2.1510757056        3.6111355550        2.2641006572
H          2.3329432834        3.1762847009        1.2775172937
C          1.6535532224        4.7034743863        4.8133732744
H          1.4602304540        5.1250175944        5.8042718256
C          3.1719248425        3.6287262040        3.2339712171
C          2.9230661426        4.1721944595        4.5099894324
H          4.1579964234        3.2167678775        2.9987938650
H          3.7141245287        4.1812673617        5.2657154559
$end


$rem
N_FROZEN_CORE FC
MEM_TOTAL 60000
MEM_STATIC 8000
AUX_BASIS_CORR rimp2-def2-QZVPPD
SCF_CONVERGENCE 7
SCF_ALGORITHM  GDM
method DSD-PBEPBE-D3
GEN_SCFMAN TRUE
UNRESTRICTED True
THRESH  14
SYMMETRY FALSE
SYM_IGNORE TRUE
max_scf_cycles 200

XC_GRID 000099000590
BASIS DEF2-QZVPPD


$end










