$molecule
1 1
N         -2.7212161573        0.0172406451        1.8876564589
H         -2.9483208429        1.0148851978        2.1162028275
H         -1.7699826955       -0.0460955766        1.4828448874
H         -2.7602886186       -0.5516027119        2.7371968231
H         -3.3964002466       -0.3463009762        1.2103165787
$end


$rem
N_FROZEN_CORE FC
MEM_TOTAL 3750
MEM_STATIC 1500
AUX_BASIS_CORR rimp2-def2-QZVPPD
SCF_CONVERGENCE 7
SCF_ALGORITHM  GDM
method DSD-PBEPBE-D3
GEN_SCFMAN TRUE
UNRESTRICTED True
THRESH  14
SYMMETRY FALSE
SYM_IGNORE TRUE
max_scf_cycles 200

XC_GRID 000099000590
BASIS DEF2-QZVPPD


$end










