$molecule
0 1
C          0.0842290338        1.4886709122        0.6158988909
H          0.1551400967        1.1667545522        1.6419618764
C         -0.0068696133        1.8394932420       -0.5625517231
H         -0.0811109863        2.1501569177       -1.5887368620
$end


$rem
N_FROZEN_CORE FC
MEM_TOTAL 3750
MEM_STATIC 1500
AUX_BASIS_CORR rimp2-def2-QZVPPD
SCF_CONVERGENCE 7
SCF_ALGORITHM  GDM
method DSD-PBEPBE-D3
GEN_SCFMAN TRUE
UNRESTRICTED True
THRESH  14
SYMMETRY FALSE
SYM_IGNORE TRUE
max_scf_cycles 200

XC_GRID 000099000590
BASIS DEF2-QZVPPD


$end










