$molecule
0 1
H         -2.4319890466        1.4712276611        0.4538081605
C         -3.3606025006        1.1576840299        0.9370660658
H         -2.6462202589        1.5935328273        2.9379975146
C         -3.4852619371        1.2292742193        2.3379575641
H         -4.3384591946        0.6187493717       -0.9248810329
C         -4.4361649213        0.6806271604        0.1632285262
C         -4.6869830267        0.8421912974        2.9624451964
C         -5.6371957748        0.2874084210        0.7860800210
C         -5.7642283006        0.3727438048        2.1859750800
H         -4.7846653203        0.9054665211        4.0505200207
H         -6.4713753726       -0.0834353098        0.1829255497
H         -6.6973223265        0.0697341873        2.6703015225
$end


$rem
N_FROZEN_CORE FC
MEM_TOTAL 3750
MEM_STATIC 1500
AUX_BASIS_CORR rimp2-def2-QZVPPD
SCF_CONVERGENCE 7
SCF_ALGORITHM  GDM
method DSD-PBEPBE-D3
GEN_SCFMAN TRUE
UNRESTRICTED True
THRESH  14
SYMMETRY FALSE
SYM_IGNORE TRUE
max_scf_cycles 200

XC_GRID 000099000590
BASIS DEF2-QZVPPD


$end










