$molecule
0 1
O   2.0936665395154117  7.198551479474493e-17  2.484717863744626
H   2.5115150730190137  0.5267222693251359     1.7790190619906925
H   2.8080738243306342 -0.18450826183460187    3.106645187924797
$end


$rem
N_FROZEN_CORE FC
MEM_TOTAL 3750
MEM_STATIC 1500
AUX_BASIS_CORR rimp2-def2-QZVPPD
SCF_CONVERGENCE 7
SCF_ALGORITHM  GDM
method DSD-PBEPBE-D3
GEN_SCFMAN TRUE
UNRESTRICTED True
THRESH  14
SYMMETRY FALSE
SYM_IGNORE TRUE
max_scf_cycles 200

XC_GRID 000099000590
BASIS DEF2-QZVPPD


$end










