$molecule
1 1
O         -1.2369793881        0.9126975252        2.5062249473
H         -1.7002905600        0.6984774004        1.6814943624
H         -0.2962968255        0.8077673140        2.2615622520
N         -2.1959986376        2.1651229926        4.6112510035
H         -1.8373262696        3.1211614498        4.6851978968
H         -3.2184578279        2.2006074762        4.5666065462
H         -1.8023386913        1.6843146815        3.7334425092
H         -1.9236089504        1.6420936456        5.4484884509
$end


$rem
N_FROZEN_CORE FC
MEM_TOTAL 3750
MEM_STATIC 1500
AUX_BASIS_CORR rimp2-def2-QZVPPD
SCF_CONVERGENCE 7
SCF_ALGORITHM  GDM
method DSD-PBEPBE-D3
GEN_SCFMAN TRUE
UNRESTRICTED True
THRESH  14
SYMMETRY FALSE
SYM_IGNORE TRUE
max_scf_cycles 200

XC_GRID 000099000590
BASIS DEF2-QZVPPD


$end










