$molecule
1 1
H         -1.5530917009       -0.3961928050        0.8516448491
H         -1.9374997094       -0.5777397281       -0.7753917791
N         -1.7254237133       -1.0753930440        0.1060684615
H         -0.8837675243       -1.6656018858       -0.0306322004
H         -2.5386469401       -1.6524277863        0.3457566388
$end


$rem
N_FROZEN_CORE FC
MEM_TOTAL 3750
MEM_STATIC 1500
AUX_BASIS_CORR rimp2-def2-QZVPPD
SCF_CONVERGENCE 7
SCF_ALGORITHM  GDM
method DSD-PBEPBE-D3
GEN_SCFMAN TRUE
UNRESTRICTED True
THRESH  14
SYMMETRY FALSE
SYM_IGNORE TRUE
max_scf_cycles 200

XC_GRID 000099000590
BASIS DEF2-QZVPPD


$end










