$molecule
0 1
O  2.854778386766541   3.733995675931561e-17 -1.2712311929544042
H  2.4863347573805914  0.43538495609542777   -2.0612132879943186
H  3.790113703824982  -0.12135002012838804   -1.4741578491318839
$end


$rem
N_FROZEN_CORE FC
MEM_TOTAL 3750
MEM_STATIC 1500
AUX_BASIS_CORR rimp2-def2-QZVPPD
SCF_CONVERGENCE 7
SCF_ALGORITHM  GDM
method DSD-PBEPBE-D3
GEN_SCFMAN TRUE
UNRESTRICTED True
THRESH  14
SYMMETRY FALSE
SYM_IGNORE TRUE
max_scf_cycles 200

XC_GRID 000099000590
BASIS DEF2-QZVPPD


$end










