$molecule
1 1
C         -0.0798714697       -0.2739206628       -0.0179520233
C          0.4574880061       -0.4481793484        1.2771641579
C         -0.5503023917        0.9942883670       -0.4219378716
C         -0.4802577558        2.0870260356        0.4671967771
C          0.0560974183        1.9130504209        1.7600777739
C          0.5236658813        0.6459492474        2.1667343768
H          0.8415607056       -1.4259661507        1.5822379722
H          0.9591799776        0.5159587760        3.1615887920
H         -0.1113199029       -1.1169484483       -0.7143429549
H         -0.9465541499        1.1340370677       -1.4317709444
H         -0.8147904900        3.0754169634        0.1376601284
H          0.1407200233        2.7654914581        2.4409596888
N         -2.7212161573        0.0172406451        1.8876564589
H         -2.9483208429        1.0148851978        2.1162028275
H         -1.7699826955       -0.0460955766        1.4828448874
H         -2.7602886186       -0.5516027119        2.7371968231
H         -3.3964002466       -0.3463009762        1.2103165787
O         -3.3551768926        2.6170628960        2.4960012905
H         -2.7645973736        3.3688027519        2.3519874147
H         -4.1572367700        2.9908645340        2.8875990314
$end


$rem
N_FROZEN_CORE FC
MEM_TOTAL 15000
MEM_STATIC 6000
AUX_BASIS_CORR rimp2-def2-QZVPPD
SCF_CONVERGENCE 7
SCF_ALGORITHM  GDM
method DSD-PBEPBE-D3
GEN_SCFMAN TRUE
UNRESTRICTED True
THRESH  14
SYMMETRY FALSE
SYM_IGNORE TRUE
max_scf_cycles 200

XC_GRID 000099000590
BASIS DEF2-QZVPPD


$end










