$molecule
-1 1
C         -2.2535799040       -2.1498142116       -1.7446251037
C         -2.6778835322       -0.9188912467       -2.2811683488
C         -2.5913531872       -2.4945945401       -0.4217150016
C         -3.4407047203       -0.0331727395       -1.4952446846
C         -3.3541333437       -1.6089480305        0.3642579330
C         -3.7791158220       -0.3782553819       -0.1725444942
H         -2.2547998655       -3.4471483709       -0.0024377936
H         -3.6136789972       -1.8757661538        1.3930279094
H         -1.6503529480       -2.8317055502       -2.3504426633
H         -2.4092987671       -0.6480994854       -3.3063823487
H         -3.7674650005        0.9244349505       -1.9113441355
H         -4.3676910900        0.3115867007        0.4393929338
Cl        -1.6908232689        2.8360108246       -1.4698912060
$end


$rem
N_FROZEN_CORE FC
MEM_TOTAL 7500
MEM_STATIC 3000
AUX_BASIS_CORR rimp2-def2-QZVPPD
SCF_CONVERGENCE 7
SCF_ALGORITHM  GDM
method DSD-PBEPBE-D3
GEN_SCFMAN TRUE
UNRESTRICTED True
THRESH  14
SYMMETRY FALSE
SYM_IGNORE TRUE
max_scf_cycles 200

XC_GRID 000099000590
BASIS DEF2-QZVPPD


$end










