$molecule
0 1
C         -0.3895926477       -0.0577112228        0.0438276474
I         -0.3252058495       -0.0650703322        2.2022003477
H         -0.4065173054        0.9853751982       -0.2925289000
H          0.5073808831       -0.5713413026       -0.3210699883
H         -1.2959604327       -0.5862658688       -0.2735454146
O         -0.4731566751       -0.0836529480        5.3383711860
C         -1.4707731041       -0.0871848761        6.0557481029
H         -1.3731178855       -0.0749828645        7.1625496865
H         -2.4916225401       -0.1039708580        5.6274359937
$end


$rem
N_FROZEN_CORE FC
MEM_TOTAL 3750
MEM_STATIC 1500
AUX_BASIS_CORR rimp2-def2-QZVPPD
SCF_CONVERGENCE 7
SCF_ALGORITHM  GDM
method DSD-PBEPBE-D3
GEN_SCFMAN TRUE
UNRESTRICTED True
THRESH  14
SYMMETRY FALSE
SYM_IGNORE TRUE
max_scf_cycles 200

XC_GRID 000099000590
BASIS DEF2-QZVPPD


$end










