$molecule
1 1
H         -2.6502533147       -1.3410478396       -3.7522573552
H         -2.3986800116        1.0937956793       -3.1973844039
C         -3.0214932266        0.4490976447       -2.5715374792
C         -3.9785421588       -1.7529321840       -2.0913181091
C         -3.7253225323        0.9949742668       -1.4763226192
C         -3.1622677863       -0.9205003816       -2.8825007262
H         -4.1038042340       -2.8130117940       -2.3272011560
H         -3.6473188208        2.0624583326       -1.2509661152
C         -4.6510345025       -1.1953072935       -0.9854786807
C         -4.5466733993        0.1754003447       -0.6754779782
H         -5.1053976266        0.5878278793        0.1688620037
Cl        -5.5989705710       -2.2359792339        0.0502487703
H         -1.5530917009       -0.3961928050        0.8516448491
H         -1.9374997094       -0.5777397281       -0.7753917791
N         -1.7254237133       -1.0753930440        0.1060684615
H         -0.8837675243       -1.6656018858       -0.0306322004
H         -2.5386469401       -1.6524277863        0.3457566388
$end


$rem
N_FROZEN_CORE FC
MEM_TOTAL 15000
MEM_STATIC 6000
AUX_BASIS_CORR rimp2-def2-QZVPPD
SCF_CONVERGENCE 7
SCF_ALGORITHM  GDM
method DSD-PBEPBE-D3
GEN_SCFMAN TRUE
UNRESTRICTED True
THRESH  14
SYMMETRY FALSE
SYM_IGNORE TRUE
max_scf_cycles 200

XC_GRID 000099000590
BASIS DEF2-QZVPPD


$end










