$molecule
0 1
C          0.0000000000        0.0000000000        0.0000000000
C          0.0000000000        0.0000000000        1.4089379364
C          0.0000000000        1.2157244521       -0.7100060371
C         -0.0014493241        2.4334133237        0.0001779674
C         -0.0089568064        1.2223205127        2.1050317679
C         -0.0091896206        2.4425344363        1.4046745084
H         -0.0036333417        1.2137660511       -1.8030177076
H          0.0020966872        3.3835627711       -0.5408048549
H         -0.0102821508        3.3779483205        1.9691133678
H         -0.0028191112       -0.9525443321       -0.5377216880
H         -0.0059528696       -0.9468383425        1.9601101047
O         -0.0129628726        1.2940479877        3.4827509887
H         -0.1077001669        0.3977066888        3.8376703449
O         -3.2304713335        1.0441480519        0.6433892880
H         -3.1365717408        1.8804667652        1.1176990475
H         -2.3202728454        0.8487196207        0.3732067791
$end


$rem
N_FROZEN_CORE FC
MEM_TOTAL 7500
MEM_STATIC 3000
AUX_BASIS_CORR rimp2-def2-QZVPPD
SCF_CONVERGENCE 7
SCF_ALGORITHM  GDM
method DSD-PBEPBE-D3
GEN_SCFMAN TRUE
UNRESTRICTED True
THRESH  14
SYMMETRY FALSE
SYM_IGNORE TRUE
max_scf_cycles 200

XC_GRID 000099000590
BASIS DEF2-QZVPPD


$end










