$molecule
0 1
C         -0.2655451826        0.1172669097       -0.3111707388
C         -0.2801138775        0.0936234406        1.0960462422
C         -0.0239285817        1.2587300299        1.8430033672
C          0.2139540333        2.4699032881        1.1663477129
C          0.2069574895        2.5136736790       -0.2412826579
C         -0.0208490411        1.3336932001       -0.9755997997
Br        -0.7830541879       -1.5037113884        1.9911306306
H         -0.0302516014        1.2173276724        2.9353876078 
H          0.3995363826        3.3813343679        1.7423097526
H          0.3815417939        3.4593632901       -0.7614497586
H         -0.0194253434        1.3589627945       -2.0693925752
H         -0.4676330933       -0.7982889464       -0.8729482790
$end


$rem
N_FROZEN_CORE FC
MEM_TOTAL 7500
MEM_STATIC 3000
AUX_BASIS_CORR rimp2-def2-QZVPPD
SCF_CONVERGENCE 7
SCF_ALGORITHM  GDM
method DSD-PBEPBE-D3
GEN_SCFMAN TRUE
UNRESTRICTED True
THRESH  14
SYMMETRY FALSE
SYM_IGNORE TRUE
max_scf_cycles 200

XC_GRID 000099000590
BASIS DEF2-QZVPPD


$end










