$molecule
0 1
C          0.0167754817       -0.1112990990       -0.2103780062
C          0.0854913129       -0.1489873865        1.1943152635
C          0.0226098262        1.0317262646        1.9564137673
C         -0.1137363285        2.2663552157        1.2964110330
C         -0.1823813088        2.3213838196       -0.1089469018
C         -0.1172535540        1.1315800169       -0.8581250382
Br         0.2298782104       -1.8241860750        2.0880979349
H          0.0673408806        0.9802087200        3.0468488678
H         -0.1702741007        3.1860338826        1.8862636326
H         -0.2873078333        3.2844408932       -0.6167165476
H         -0.1692857544        1.1660901419       -1.9507137465
H          0.0661750915       -1.0405349795       -0.7841991379
N         -0.5095860538       -4.1737762135        3.8273902746
C         -0.5629495069       -3.4418780061        5.0917297273
C         -1.8583381796       -4.3255587122        3.2839670806
C          0.1064622468       -5.4847492986        4.0261388556
H         -2.5254481653       -4.8974272589        3.9678554732
H         -2.2994587866       -3.3313045482        3.1152099079
H         -1.8106894205       -4.8522225032        2.3183501703
H         -0.4657950693       -6.1154967342        4.7440496275
H          0.1614842201       -6.0158417078        3.0635066932
H          1.1287635025       -5.3566624087        4.4136821739
H         -1.1748670775       -3.9697511277        5.8579336452
H          0.4563536551       -3.3105375837        5.4862654857
H         -0.9977251516       -2.4453305580        4.9187355870
$end


$rem
N_FROZEN_CORE FC
MEM_TOTAL 30000
MEM_STATIC 8000
AUX_BASIS_CORR rimp2-def2-QZVPPD
SCF_CONVERGENCE 7
SCF_ALGORITHM  GDM
method DSD-PBEPBE-D3
GEN_SCFMAN TRUE
UNRESTRICTED True
THRESH  14
SYMMETRY FALSE
SYM_IGNORE TRUE
max_scf_cycles 200

XC_GRID 000099000590
BASIS DEF2-QZVPPD


$end










