$molecule
0 1
C -1.0166350000 0.9105830000 0.0000000000
N 0.0000000000 0.2790450000 0.0000000000
C 0.4489580000 -1.0995590000 0.0000000000
H 0.0459770000 -1.6037250000 0.8809750000
H 0.0459770000 -1.6037250000 -0.8809750000
C 1.9676170000 -1.1772310000 0.0000000000
H 2.2858900000 -2.2200680000 0.0000000000
H 2.3805630000 -0.6904170000 -0.8830030000
H 2.3805630000 -0.6904170000 0.8830030000
O -1.9423260000 1.6315350000 0.0000000000
$end


$rem
N_FROZEN_CORE FC
MEM_TOTAL 3750
MEM_STATIC 1500
AUX_BASIS_CORR rimp2-def2-QZVPPD
SCF_CONVERGENCE 7
SCF_ALGORITHM  GDM
method DSD-PBEPBE-D3
GEN_SCFMAN TRUE
UNRESTRICTED True
THRESH  14
SYMMETRY FALSE
SYM_IGNORE TRUE
max_scf_cycles 200

XC_GRID 000099000590
BASIS DEF2-QZVPPD


$end










