$molecule
0 1
O 0.0000000000 0.0000000000 -0.2219960000
C 1.3951850000 -0.0004890000 3.0507270000
C 0.6971740000 1.2075420000 3.0519840000
C -0.6980160000 1.2080210000 3.0507270000
C -1.3951850000 0.0004890000 3.0507270000
C -0.6971740000 -1.2075420000 3.0519840000
C 0.6980160000 -1.2080210000 3.0507270000
H 2.4774320000 -0.0006030000 3.0493670000
H 1.2384820000 2.1451140000 3.0579670000
H -1.2392390000 2.1452170000 3.0493670000
H -2.4774320000 0.0006030000 3.0493670000
H -1.2384820000 -2.1451140000 3.0579670000
H 1.2392390000 -2.1452170000 3.0493670000
H -0.3750550000 -0.6496150000 0.3824610000
H 0.3750550000 0.6496150000 0.3824610000
$end


$rem
N_FROZEN_CORE FC
MEM_TOTAL 7500
MEM_STATIC 3000
AUX_BASIS_CORR rimp2-def2-QZVPPD
SCF_CONVERGENCE 7
SCF_ALGORITHM  GDM
method DSD-PBEPBE-D3
GEN_SCFMAN TRUE
UNRESTRICTED True
THRESH  14
SYMMETRY FALSE
SYM_IGNORE TRUE
max_scf_cycles 200

XC_GRID 000099000590
BASIS DEF2-QZVPPD


$end










