$molecule
0 1
N -2.5482627171 0.6523382723 0.0000000000
H -2.8220823290 0.1130849518 0.8160220685
H -3.1014369687 1.5033395665 0.0000000000
H -2.8220823290 0.1130849518 -0.8160220685
$end


$rem
N_FROZEN_CORE FC
MEM_TOTAL 3750
MEM_STATIC 1500
AUX_BASIS_CORR rimp2-def2-QZVPPD
SCF_CONVERGENCE 7
SCF_ALGORITHM  GDM
method DSD-PBEPBE-D3
GEN_SCFMAN TRUE
UNRESTRICTED True
THRESH  14
SYMMETRY FALSE
SYM_IGNORE TRUE
max_scf_cycles 200

XC_GRID 000099000590
BASIS DEF2-QZVPPD


$end










