$molecule
0 1
As 0.1217526224 0.5074562690 0.0000000000
F 1.7611916115 -0.0731098613 0.0000000000
F -0.3456099451 -0.5507670751 -1.2862303866
F -0.3456099451 -0.5507670751 1.2862303866
$end


$rem
N_FROZEN_CORE FC
MEM_TOTAL 3750
MEM_STATIC 1500
AUX_BASIS_CORR rimp2-def2-QZVPPD
SCF_CONVERGENCE 7
SCF_ALGORITHM  GDM
method DSD-PBEPBE-D3
GEN_SCFMAN TRUE
UNRESTRICTED True
THRESH  14
SYMMETRY FALSE
SYM_IGNORE TRUE
max_scf_cycles 200

XC_GRID 000099000590
BASIS DEF2-QZVPPD


$end










