$molecule
0 1
C 4.4952980000 -0.1164200000 0.0040150000
C 3.0563060000 0.0825060000 -0.0430830000
C 1.8608820000 0.2366920000 -0.0790380000
C 0.4672710000 0.4663210000 -0.1350500000
C -0.4672710000 -0.4663210000 0.1350500000
C -1.8608820000 -0.2366920000 0.0790380000
C -3.0563060000 -0.0825060000 0.0430830000
C -4.4952980000 0.1164200000 -0.0040150000
H 4.8063340000 -0.9006210000 -0.6893230000
H 4.8185170000 -0.4114000000 1.0045000000
H 5.0275420000 0.7978380000 -0.2638410000
H 0.1463530000 1.4637380000 -0.4154490000
H -0.1463530000 -1.4637380000 0.4154490000
H -4.8063340000 0.9006210000 0.6893230000
H -4.8185170000 0.4114000000 -1.0045000000
H -5.0275420000 -0.7978380000 0.2638410000
$end


$rem
N_FROZEN_CORE FC
MEM_TOTAL 7500
MEM_STATIC 3000
AUX_BASIS_CORR rimp2-def2-QZVPPD
SCF_CONVERGENCE 7
SCF_ALGORITHM  GDM
method DSD-PBEPBE-D3
GEN_SCFMAN TRUE
UNRESTRICTED True
THRESH  14
SYMMETRY FALSE
SYM_IGNORE TRUE
max_scf_cycles 200

XC_GRID 000099000590
BASIS DEF2-QZVPPD


$end










