$molecule
0 1
C -1.8153980000 -0.2656530000 0.1760490000
O -1.7239060000 -0.7346790000 -0.9249670000
H -2.7416520000 -0.3816400000 0.7732450000
C -0.7289090000 0.5334040000 0.8697860000
H -0.5884170000 0.1011540000 1.8653480000
C 0.5707060000 0.5916640000 0.1153340000
H -1.1215850000 1.5414930000 1.0300780000
C 1.0160690000 1.6802410000 -0.5096100000
H 0.4460700000 2.5986250000 -0.4928500000
H 1.9504500000 1.6783860000 -1.0506590000
C 1.3369860000 -0.6173260000 0.0907510000
N 1.9385220000 -1.5992230000 0.1172450000
$end


$rem
N_FROZEN_CORE FC
MEM_TOTAL 3750
MEM_STATIC 1500
AUX_BASIS_CORR rimp2-def2-QZVPPD
SCF_CONVERGENCE 7
SCF_ALGORITHM  GDM
method DSD-PBEPBE-D3
GEN_SCFMAN TRUE
UNRESTRICTED True
THRESH  14
SYMMETRY FALSE
SYM_IGNORE TRUE
max_scf_cycles 200

XC_GRID 000099000590
BASIS DEF2-QZVPPD


$end










