$molecule
0 2
C -0.0488760000 0.0743820000 0.0159360000
O -0.4823220000 1.2220760000 -0.0262870000
N 1.2676060000 -0.2475380000 0.0524510000
H 1.5516640000 -1.1934600000 -0.1317640000
H 1.9442150000 0.4914130000 -0.0294120000
N -0.9225820000 -1.0024420000 -0.0787430000
H -1.7592160000 -0.7709920000 0.4599000000
$end


$rem
N_FROZEN_CORE FC
MEM_TOTAL 3750
MEM_STATIC 1500
AUX_BASIS_CORR rimp2-def2-QZVPPD
SCF_CONVERGENCE 7
SCF_ALGORITHM  GDM
method DSD-PBEPBE-D3
GEN_SCFMAN TRUE
UNRESTRICTED True
THRESH  14
SYMMETRY FALSE
SYM_IGNORE TRUE
max_scf_cycles 200

XC_GRID 000099000590
BASIS DEF2-QZVPPD


$end










