$molecule
0 1
O 2.3166332910 0.0455008490 0.0718583890
H 2.6846161150 -0.5265765540 0.7493867160
C 2.7816383620 -0.4261290670 -1.1903007210
H 2.3508212670 0.2249646240 -1.9434147530
H 3.8676020490 -0.3753362060 -1.2646126490
H 2.4532957440 -1.4459985640 -1.3893813550
$end


$rem
N_FROZEN_CORE FC
MEM_TOTAL 3750
MEM_STATIC 1500
AUX_BASIS_CORR rimp2-def2-QZVPPD
SCF_CONVERGENCE 7
SCF_ALGORITHM  GDM
method DSD-PBEPBE-D3
GEN_SCFMAN TRUE
UNRESTRICTED True
THRESH  14
SYMMETRY FALSE
SYM_IGNORE TRUE
max_scf_cycles 200

XC_GRID 000099000590
BASIS DEF2-QZVPPD


$end










