$molecule
0 1
O 2.2104192770 -0.1221217710 -0.0121027010
H 2.6792085870 0.4922627530 -0.5817686550
C 2.7192532030 0.0348971670 1.3096146230
H 2.1656841230 -0.6532992600 1.9397455030
H 3.7782493050 -0.2155417320 1.3663377640
H 2.5668135650 1.0455912200 1.6875071690
$end


$rem
N_FROZEN_CORE FC
MEM_TOTAL 3750
MEM_STATIC 1500
AUX_BASIS_CORR rimp2-def2-QZVPPD
SCF_CONVERGENCE 7
SCF_ALGORITHM  GDM
method DSD-PBEPBE-D3
GEN_SCFMAN TRUE
UNRESTRICTED True
THRESH  14
SYMMETRY FALSE
SYM_IGNORE TRUE
max_scf_cycles 200

XC_GRID 000099000590
BASIS DEF2-QZVPPD


$end










