$molecule
0 1
N 2.2012724400 -0.0364208730 -0.0033383900
H 2.5718919920 0.4713556330 0.7897940010
H 2.5720152800 0.4279176940 -0.8225972240
C 2.6790243760 -1.4224543200 0.0341228150
H 2.2871395390 -1.9564795970 -0.8280689140
H 3.7657355320 -1.5291894880 0.0371573100
H 2.2868979750 -1.9091844890 0.9237549620
$end


$rem
N_FROZEN_CORE FC
MEM_TOTAL 3750
MEM_STATIC 1500
AUX_BASIS_CORR rimp2-def2-QZVPPD
SCF_CONVERGENCE 7
SCF_ALGORITHM  GDM
method DSD-PBEPBE-D3
GEN_SCFMAN TRUE
UNRESTRICTED True
THRESH  14
SYMMETRY FALSE
SYM_IGNORE TRUE
max_scf_cycles 200

XC_GRID 000099000590
BASIS DEF2-QZVPPD


$end










