$molecule
0 1
O -0.7069201920 0.0458303670 0.0063861040
H 0.2656236150 0.0717101430 0.0013392930
C -1.0766706670 -1.3139158130 0.0016142800
H -2.1629235760 -1.3631957700 0.0058654240
H -0.7234059450 -1.8446516760 -0.8877434980
H -0.7160797780 -1.8528208280 0.8830797750
$end


$rem
N_FROZEN_CORE FC
MEM_TOTAL 3750
MEM_STATIC 1500
AUX_BASIS_CORR rimp2-def2-QZVPPD
SCF_CONVERGENCE 7
SCF_ALGORITHM  GDM
method DSD-PBEPBE-D3
GEN_SCFMAN TRUE
UNRESTRICTED True
THRESH  14
SYMMETRY FALSE
SYM_IGNORE TRUE
max_scf_cycles 200

XC_GRID 000099000590
BASIS DEF2-QZVPPD


$end










