$molecule
0 1
O 2.2844595310 -0.0474764980 0.0278252160
H 2.5664856500 0.3224722670 -0.8120388640
C 2.6703733790 0.8641077630 1.0472613780
H 2.3471903300 0.4344750900 1.9903279220
H 3.7514286170 1.0031912320 1.0863013450
H 2.1918988170 1.8377056080 0.9320848430
$end


$rem
N_FROZEN_CORE FC
MEM_TOTAL 3750
MEM_STATIC 1500
AUX_BASIS_CORR rimp2-def2-QZVPPD
SCF_CONVERGENCE 7
SCF_ALGORITHM  GDM
method DSD-PBEPBE-D3
GEN_SCFMAN TRUE
UNRESTRICTED True
THRESH  14
SYMMETRY FALSE
SYM_IGNORE TRUE
max_scf_cycles 200

XC_GRID 000099000590
BASIS DEF2-QZVPPD


$end










