$molecule
0 1
N 2.3988934750 -0.4555211510 0.1970445180
H 2.6951621450 -0.1809834160 -0.7309407250
H 3.0224431420 -1.2032114670 0.4722393810
C 2.5591234510 0.6796894420 1.1107198220
H 2.2889331470 0.3649936620 2.1163729310
H 3.5665337620 1.1014660010 1.1476915560
H 1.8665830680 1.4654649240 0.8180625760
$end


$rem
N_FROZEN_CORE FC
MEM_TOTAL 3750
MEM_STATIC 1500
AUX_BASIS_CORR rimp2-def2-QZVPPD
SCF_CONVERGENCE 7
SCF_ALGORITHM  GDM
method DSD-PBEPBE-D3
GEN_SCFMAN TRUE
UNRESTRICTED True
THRESH  14
SYMMETRY FALSE
SYM_IGNORE TRUE
max_scf_cycles 200

XC_GRID 000099000590
BASIS DEF2-QZVPPD


$end










