$molecule
0 1
N -0.5334639680 -0.2795935120 0.1069957570
H -0.6291513760 -1.2484245520 0.3828486680
H -1.1226036350 -0.1661594440 -0.7077641010
C -1.0169094280 0.5884861020 1.1873734560
H -0.9127596740 1.6255517420 0.8795211580
H -2.0547372650 0.4150821300 1.4785035950
H -0.3850233760 0.4488008960 2.0606141860
$end


$rem
N_FROZEN_CORE FC
MEM_TOTAL 3750
MEM_STATIC 1500
AUX_BASIS_CORR rimp2-def2-QZVPPD
SCF_CONVERGENCE 7
SCF_ALGORITHM  GDM
method DSD-PBEPBE-D3
GEN_SCFMAN TRUE
UNRESTRICTED True
THRESH  14
SYMMETRY FALSE
SYM_IGNORE TRUE
max_scf_cycles 200

XC_GRID 000099000590
BASIS DEF2-QZVPPD


$end










