$molecule
0 1
O -0.6276517740 0.0874672690 0.0014712850
H 0.3436020340 0.1223033290 -0.0006004450
C -0.9779312310 -1.2785560060 0.0012384070
H -2.0633920940 -1.3420433240 0.0050089800
H -0.6148836860 -1.8063758370 -0.8853839540
H -0.6086403260 -1.8082368240 0.8841727320
$end


$rem
N_FROZEN_CORE FC
MEM_TOTAL 3750
MEM_STATIC 1500
AUX_BASIS_CORR rimp2-def2-QZVPPD
SCF_CONVERGENCE 7
SCF_ALGORITHM  GDM
method DSD-PBEPBE-D3
GEN_SCFMAN TRUE
UNRESTRICTED True
THRESH  14
SYMMETRY FALSE
SYM_IGNORE TRUE
max_scf_cycles 200

XC_GRID 000099000590
BASIS DEF2-QZVPPD


$end










