$molecule
0 1
C 2.7796018280 1.0638856840 0.1343572400
O 2.1951800650 0.0898652480 -0.3453737260
N 2.1355142640 2.1486289070 0.6022037940
H 1.1154088960 2.1930666910 0.5679024770
H 2.6535383300 2.9165901070 0.9823244440
C 4.2866010100 1.0881700640 0.2195823250
H 4.6784720740 1.9878195800 0.6867663350
H 4.6901572040 1.0006250270 -0.7861979840
H 4.6143797720 0.2175951600 0.7817626630
$end


$rem
N_FROZEN_CORE FC
MEM_TOTAL 3750
MEM_STATIC 1500
AUX_BASIS_CORR rimp2-def2-QZVPPD
SCF_CONVERGENCE 7
SCF_ALGORITHM  GDM
method DSD-PBEPBE-D3
GEN_SCFMAN TRUE
UNRESTRICTED True
THRESH  14
SYMMETRY FALSE
SYM_IGNORE TRUE
max_scf_cycles 200

XC_GRID 000099000590
BASIS DEF2-QZVPPD


$end










