$molecule
0 1
N -1.3554608930 -0.8360459360 0.7346249390
H -1.0303721840 -1.3825223170 1.5233556280
C -1.2875424910 -1.4538282820 -0.5206549960
O -0.8991211410 -2.6073762340 -0.6259767310
N -1.9899827110 1.2169098340 -0.0980718190
H -1.7058452900 -0.9871411540 -2.6119955600
C -2.0042966500 0.7008727600 -1.3643973990
H -2.2760767610 1.3947615690 -2.1456453140
C -1.6930721280 -0.5882362670 -1.6124872230
H -2.1080139950 2.2052224360 0.0568291250
C -1.6245048100 0.4889075080 1.0187183010
O -1.5396757970 0.9755179070 2.1298090480
$end


$rem
N_FROZEN_CORE FC
MEM_TOTAL 7500
MEM_STATIC 3000
AUX_BASIS_CORR rimp2-def2-QZVPPD
SCF_CONVERGENCE 7
SCF_ALGORITHM  GDM
method DSD-PBEPBE-D3
GEN_SCFMAN TRUE
UNRESTRICTED True
THRESH  14
SYMMETRY FALSE
SYM_IGNORE TRUE
max_scf_cycles 200

XC_GRID 000099000590
BASIS DEF2-QZVPPD


$end










