$molecule
0 1
C 0.6557805990 -0.1167904790 3.5307517410
H 1.0472413750 -1.1239093070 3.5262834750
H 1.3708543830 0.6932734950 3.5262501530
C -0.6557759200 0.1167921520 3.5307606320
H -1.3708478670 -0.6932723660 3.5262645440
H -1.0472390290 1.1239110500 3.5263024340
$end


$rem
N_FROZEN_CORE FC
MEM_TOTAL 3750
MEM_STATIC 1500
AUX_BASIS_CORR rimp2-def2-QZVPPD
SCF_CONVERGENCE 7
SCF_ALGORITHM  GDM
method DSD-PBEPBE-D3
GEN_SCFMAN TRUE
UNRESTRICTED True
THRESH  14
SYMMETRY FALSE
SYM_IGNORE TRUE
max_scf_cycles 200

XC_GRID 000099000590
BASIS DEF2-QZVPPD


$end










