$molecule
0 1
C 0.7260072570 0.0250534920 3.3981904370
H 1.2431249940 -0.8459344040 3.0209638420
H 1.3316182620 0.8120475360 3.8255047710
C -0.6027692440 0.1256439400 3.3489435080
H -1.2147721310 -0.6618356500 2.9320427900
H -1.1145942350 0.9967135310 3.7329432730
$end


$rem
N_FROZEN_CORE FC
MEM_TOTAL 3750
MEM_STATIC 1500
AUX_BASIS_CORR rimp2-def2-QZVPPD
SCF_CONVERGENCE 7
SCF_ALGORITHM  GDM
method DSD-PBEPBE-D3
GEN_SCFMAN TRUE
UNRESTRICTED True
THRESH  14
SYMMETRY FALSE
SYM_IGNORE TRUE
max_scf_cycles 200

XC_GRID 000099000590
BASIS DEF2-QZVPPD


$end










