$molecule
0 1
C 0.7078518390 -0.1723022120 3.2763513580
H 1.7036701090 -0.5262880650 3.1621326280
C -0.4367522460 0.2141554740 3.3825432000
H -1.4416348010 0.5428558160 3.4829073660
$end


$rem
N_FROZEN_CORE FC
MEM_TOTAL 3750
MEM_STATIC 1500
AUX_BASIS_CORR rimp2-def2-QZVPPD
SCF_CONVERGENCE 7
SCF_ALGORITHM  GDM
method DSD-PBEPBE-D3
GEN_SCFMAN TRUE
UNRESTRICTED True
THRESH  14
SYMMETRY FALSE
SYM_IGNORE TRUE
max_scf_cycles 200

XC_GRID 000099000590
BASIS DEF2-QZVPPD


$end










