$molecule
0 1
C 0.0196045810 0.6664393430 3.4872722780
H 0.9300785840 1.2259250620 3.3281574350
H -0.8899429170 1.2288435700 3.6442327820
C 0.0199372650 -0.6662479570 3.4874045170
H 0.9306729560 -1.2253304410 3.3283940840
H -0.8893508290 -1.2290727280 3.6444936680
$end


$rem
N_FROZEN_CORE FC
MEM_TOTAL 3750
MEM_STATIC 1500
AUX_BASIS_CORR rimp2-def2-QZVPPD
SCF_CONVERGENCE 7
SCF_ALGORITHM  GDM
method DSD-PBEPBE-D3
GEN_SCFMAN TRUE
UNRESTRICTED True
THRESH  14
SYMMETRY FALSE
SYM_IGNORE TRUE
max_scf_cycles 200

XC_GRID 000099000590
BASIS DEF2-QZVPPD


$end










