$molecule
0 1
C -0.7634531760 -0.7267738280 4.0598276960
H -0.8697070170 -0.5518246680 2.9875208310
H -1.4150907510 -1.5560377240 4.3329783610
C 0.7060880100 -0.9838369180 4.4039575750
H 1.2013187900 -1.6214219660 3.6733732970
H 0.7693671850 -1.4840506910 5.3714242110
C 1.3462250560 0.4215597560 4.4949104310
H 1.9964933720 0.6142306890 3.6430575070
H 1.9590922390 0.5107291790 5.3906357930
C 0.1671789330 1.4207367740 4.5217824670
H 0.0500274450 1.8797071670 3.5394971290
H 0.3127725230 2.2222416040 5.2441810700
C -1.0665928320 0.5636415850 4.8174313320
H -1.9975813420 1.0393790310 4.5115181880
H -1.1320185950 0.3543206730 5.8879665740
$end


$rem
N_FROZEN_CORE FC
MEM_TOTAL 7500
MEM_STATIC 3000
AUX_BASIS_CORR rimp2-def2-QZVPPD
SCF_CONVERGENCE 7
SCF_ALGORITHM  GDM
method DSD-PBEPBE-D3
GEN_SCFMAN TRUE
UNRESTRICTED True
THRESH  14
SYMMETRY FALSE
SYM_IGNORE TRUE
max_scf_cycles 200

XC_GRID 000099000590
BASIS DEF2-QZVPPD


$end










