$molecule
0 1
N 0.6260812820 -0.8509126530 0.8059156910
H 0.4091898940 -1.8115005580 1.0344014230
C -0.4324561940 -0.0873358070 0.2946637590
O -1.5307716200 -0.5884031280 0.1235925740
C -0.0668746180 1.2912752150 0.0196373880
H -0.8097435230 1.9518103910 -0.3928396480
C 1.1835420770 1.7179350080 0.2905332110
H 1.5018502240 2.7338706410 0.1098328370
N 2.1341297930 0.8866016040 0.8190817700
H 3.0553359350 1.2239013740 1.0434277840
C 1.9027831880 -0.4431784400 1.1283117540
O 2.7438063060 -1.1639235370 1.6285872990
$end


$rem
N_FROZEN_CORE FC
MEM_TOTAL 7500
MEM_STATIC 3000
AUX_BASIS_CORR rimp2-def2-QZVPPD
SCF_CONVERGENCE 7
SCF_ALGORITHM  GDM
method DSD-PBEPBE-D3
GEN_SCFMAN TRUE
UNRESTRICTED True
THRESH  14
SYMMETRY FALSE
SYM_IGNORE TRUE
max_scf_cycles 200

XC_GRID 000099000590
BASIS DEF2-QZVPPD


$end










