$molecule
0 1
C 0.6664003800 0.1838107770 0.4197368270
H 1.2288818230 -0.3298830140 1.1862597110
H 1.2280355580 0.6972081300 -0.3476098930
C -0.6659735770 0.1829734280 0.4196119100
H -1.2279217120 -0.3314988990 1.1861033440
H -1.2281842710 0.6956457460 -0.3477480810
$end


$rem
N_FROZEN_CORE FC
MEM_TOTAL 3750
MEM_STATIC 1500
AUX_BASIS_CORR rimp2-def2-QZVPPD
SCF_CONVERGENCE 7
SCF_ALGORITHM  GDM
method DSD-PBEPBE-D3
GEN_SCFMAN TRUE
UNRESTRICTED True
THRESH  14
SYMMETRY FALSE
SYM_IGNORE TRUE
max_scf_cycles 200

XC_GRID 000099000590
BASIS DEF2-QZVPPD


$end










