$molecule
0 1
C -0.6061893550 0.0558740630 0.5890049050
H -1.6680366690 0.0557762390 0.5890116190
C 0.6058487270 0.0555408670 0.5892662430
H 1.6676781720 0.0548632830 0.5897279420
$end


$rem
N_FROZEN_CORE FC
MEM_TOTAL 3750
MEM_STATIC 1500
AUX_BASIS_CORR rimp2-def2-QZVPPD
SCF_CONVERGENCE 7
SCF_ALGORITHM  GDM
method DSD-PBEPBE-D3
GEN_SCFMAN TRUE
UNRESTRICTED True
THRESH  14
SYMMETRY FALSE
SYM_IGNORE TRUE
max_scf_cycles 200

XC_GRID 000099000590
BASIS DEF2-QZVPPD


$end










