$molecule
0 1
N 0.0231173010 0.3520245540 6.7745446450
C 0.1778011210 1.2899861590 5.8296677650
H 0.3195719480 2.3025121640 6.1875694910
C 0.1635918540 1.0226963940 4.4631683270
H 0.2938319120 1.8237221920 3.7492829150
C -0.0207464570 -0.2889332910 4.0378778960
H -0.0373129100 -0.5320519580 2.9845299630
C -0.1825953830 -1.2739676240 5.0067369850
H -0.3291384040 -2.3091785920 4.7319654710
C -0.1533929100 -0.9066345230 6.3498264910
H -0.2769890440 -1.6541484920 7.1239274880
$end


$rem
N_FROZEN_CORE FC
MEM_TOTAL 3750
MEM_STATIC 1500
AUX_BASIS_CORR rimp2-def2-QZVPPD
SCF_CONVERGENCE 7
SCF_ALGORITHM  GDM
method DSD-PBEPBE-D3
GEN_SCFMAN TRUE
UNRESTRICTED True
THRESH  14
SYMMETRY FALSE
SYM_IGNORE TRUE
max_scf_cycles 200

XC_GRID 000099000590
BASIS DEF2-QZVPPD


$end










