$molecule
0 1
C 0.0058546610 0.0751501740 3.7794515480
H 0.0028455270 0.0575946260 2.7153760430
C 0.0095151080 0.0947310280 4.9918277210
H 0.0126275160 0.1119039560 6.0530247320
$end


$rem
N_FROZEN_CORE FC
MEM_TOTAL 3750
MEM_STATIC 1500
AUX_BASIS_CORR rimp2-def2-QZVPPD
SCF_CONVERGENCE 7
SCF_ALGORITHM  GDM
method DSD-PBEPBE-D3
GEN_SCFMAN TRUE
UNRESTRICTED True
THRESH  14
SYMMETRY FALSE
SYM_IGNORE TRUE
max_scf_cycles 200

XC_GRID 000099000590
BASIS DEF2-QZVPPD


$end










