$molecule
0 1
C -0.0073599780 0.1003373880 4.1428118970
H -0.0039655980 0.0666023360 3.0795150150
C -0.0112964010 0.1386274110 5.3542772800
H -0.0145626330 0.1720032920 6.4151886980
$end


$rem
N_FROZEN_CORE FC
MEM_TOTAL 3750
MEM_STATIC 1500
AUX_BASIS_CORR rimp2-def2-QZVPPD
SCF_CONVERGENCE 7
SCF_ALGORITHM  GDM
method DSD-PBEPBE-D3
GEN_SCFMAN TRUE
UNRESTRICTED True
THRESH  14
SYMMETRY FALSE
SYM_IGNORE TRUE
max_scf_cycles 200

XC_GRID 000099000590
BASIS DEF2-QZVPPD


$end










