$molecule
0 1
C 0.7801471710 -0.6099147330 -1.2075568910
H 0.8961915950 -1.1376395940 -2.1441446250
C 0.4779427530 0.7509936310 -1.2078954070
H 0.3569642310 1.2781678030 -2.1440540740
C 0.3272892790 1.4318678680 0.0000000000
H 0.0914650280 2.4871392150 0.0000000000
C 0.4779427540 0.7509936310 1.2078954070
H 0.3569642310 1.2781678030 2.1440540740
C 0.7801471710 -0.6099147330 1.2075568910
H 0.8961915950 -1.1376395940 2.1441446250
C 0.9316483110 -1.2899813420 0.0000000000
H 1.1684857300 -2.3452136900 0.0000000000
O -2.7438312100 -0.2692625670 0.0000000000
H -2.5790272150 -1.2139840950 0.0000000000
H -1.8565302670 0.1023277580 0.0000000000
$end


$rem
N_FROZEN_CORE FC
MEM_TOTAL 7500
MEM_STATIC 3000
AUX_BASIS_CORR rimp2-def2-QZVPPD
SCF_CONVERGENCE 7
SCF_ALGORITHM  GDM
method DSD-PBEPBE-D3
GEN_SCFMAN TRUE
UNRESTRICTED True
THRESH  14
SYMMETRY FALSE
SYM_IGNORE TRUE
max_scf_cycles 200

XC_GRID 000099000590
BASIS DEF2-QZVPPD


$end










