$molecule
0 1
O 0.0470189520 0.3061853750 3.6851132770
H 0.1331191670 0.3560584660 2.7279197320
C -0.8491316470 -0.7514286980 3.9681683160
H -0.9448523410 -0.8081632820 5.0491044520
H -1.8412812350 -0.5797309580 3.5443781120
H -0.4826713290 -1.7144697670 3.6052568000
$end


$rem
N_FROZEN_CORE FC
MEM_TOTAL 3750
MEM_STATIC 1500
AUX_BASIS_CORR rimp2-def2-QZVPPD
SCF_CONVERGENCE 7
SCF_ALGORITHM  GDM
method DSD-PBEPBE-D3
GEN_SCFMAN TRUE
UNRESTRICTED True
THRESH  14
SYMMETRY FALSE
SYM_IGNORE TRUE
max_scf_cycles 200

XC_GRID 000099000590
BASIS DEF2-QZVPPD


$end










