$molecule
0 1
C 0.7597491760 1.0312750580 0.3737723940
H 1.4350162570 1.8756642690 0.3747046160
C 1.2666177870 -0.2673623410 0.4212730760
H 2.3349159670 -0.4291801900 0.4594323380
C 0.3953205440 -1.3559911640 0.4249051090
H 0.7886619340 -2.3624925860 0.4630354900
C -0.9822056370 -1.1466544080 0.3812702360
H -1.6576563160 -1.9911401920 0.3851210030
C -1.4893461150 0.1511497910 0.3375723370
H -2.5579470390 0.3137504890 0.3077190010
C -0.6187751550 1.2403312070 0.3338837290
H -1.0117616150 2.2471068970 0.3043692150
O 0.0470189520 0.3061853750 3.6851132770
H 0.1331191670 0.3560584660 2.7279197320
C -0.8491316470 -0.7514286980 3.9681683160
H -0.9448523410 -0.8081632820 5.0491044520
H -1.8412812350 -0.5797309580 3.5443781120
H -0.4826713290 -1.7144697670 3.6052568000
$end


$rem
N_FROZEN_CORE FC
MEM_TOTAL 15000
MEM_STATIC 6000
AUX_BASIS_CORR rimp2-def2-QZVPPD
SCF_CONVERGENCE 7
SCF_ALGORITHM  GDM
method DSD-PBEPBE-D3
GEN_SCFMAN TRUE
UNRESTRICTED True
THRESH  14
SYMMETRY FALSE
SYM_IGNORE TRUE
max_scf_cycles 200

XC_GRID 000099000590
BASIS DEF2-QZVPPD


$end










