$molecule
0 1
N 0.2750647890 -0.2227172490 3.8589070850
H 0.4096831460 -0.1786767470 2.8558357280
H 0.4165573600 0.7224294870 4.1913793620
C -1.1010346860 -0.6291006580 4.1363428770
H -1.2589112520 -0.6576476650 5.2128984130
H -1.8723368730 0.0112801310 3.6962238790
H -1.2557266670 -1.6386684600 3.7607211770
$end


$rem
N_FROZEN_CORE FC
MEM_TOTAL 3750
MEM_STATIC 1500
AUX_BASIS_CORR rimp2-def2-QZVPPD
SCF_CONVERGENCE 7
SCF_ALGORITHM  GDM
method DSD-PBEPBE-D3
GEN_SCFMAN TRUE
UNRESTRICTED True
THRESH  14
SYMMETRY FALSE
SYM_IGNORE TRUE
max_scf_cycles 200

XC_GRID 000099000590
BASIS DEF2-QZVPPD


$end










