$molecule
0 1
C 0.2456217770 1.9567575940 4.2566354140
H -0.1125233220 2.1224884370 3.2433426440
H 1.2702053380 2.3134671600 4.3380769230
H -0.3584750960 2.5303934230 4.9549881330
C 0.2087754430 0.5035944820 4.6723442410
O 0.4934038480 0.1512330650 5.8108823040
N -0.1636198270 -0.3621222620 3.6931031490
H -0.3247477270 -0.0041315210 2.7670348090
C -0.2004127000 -1.7890014910 3.9111902090
H -0.1223251300 -1.9559090270 4.9811864400
H -1.1356532360 -2.2073520670 3.5444520970
H 0.6287137770 -2.2928742550 3.4138527770
$end


$rem
N_FROZEN_CORE FC
MEM_TOTAL 3750
MEM_STATIC 1500
AUX_BASIS_CORR rimp2-def2-QZVPPD
SCF_CONVERGENCE 7
SCF_ALGORITHM  GDM
method DSD-PBEPBE-D3
GEN_SCFMAN TRUE
UNRESTRICTED True
THRESH  14
SYMMETRY FALSE
SYM_IGNORE TRUE
max_scf_cycles 200

XC_GRID 000099000590
BASIS DEF2-QZVPPD


$end










