$molecule
0 1
N -0.9412112410 0.7900413570 0.0117189070
C -0.9227552410 -0.5523781430 0.0353787530
H 0.0572405120 -1.0155880010 0.0513549110
C -2.0765190700 -1.3330181280 0.0392903530
H -1.9965289490 -2.4105857260 0.0588772020
C -3.3163129370 -0.7033395470 0.0175990460
H -4.2315748870 -1.2790842890 0.0197937680
C -3.3488952800 0.6870188060 -0.0070859560
H -4.2854441420 1.2261045470 -0.0246589940
C -2.1431038210 1.3826335630 -0.0088900490
H -2.1380997440 2.4656525850 -0.0277829730
$end


$rem
N_FROZEN_CORE FC
MEM_TOTAL 3750
MEM_STATIC 1500
AUX_BASIS_CORR rimp2-def2-QZVPPD
SCF_CONVERGENCE 7
SCF_ALGORITHM  GDM
method DSD-PBEPBE-D3
GEN_SCFMAN TRUE
UNRESTRICTED True
THRESH  14
SYMMETRY FALSE
SYM_IGNORE TRUE
max_scf_cycles 200

XC_GRID 000099000590
BASIS DEF2-QZVPPD


$end










