$molecule
0 1
C -1.0068672190 -0.0305682130 -0.0247728540
H 0.0590033290 -0.0609397370 -0.0493656180
C -2.2187437960 0.0031734700 0.0025991960
H -3.2792773020 0.0335249060 0.0272004800
O 2.2639046020 -0.1455700550 -0.1154708150
H 2.8342610170 -0.7353394360 0.3815561110
H 2.8359004440 0.2054179670 -0.8008429690
$end


$rem
N_FROZEN_CORE FC
MEM_TOTAL 3750
MEM_STATIC 1500
AUX_BASIS_CORR rimp2-def2-QZVPPD
SCF_CONVERGENCE 7
SCF_ALGORITHM  GDM
method DSD-PBEPBE-D3
GEN_SCFMAN TRUE
UNRESTRICTED True
THRESH  14
SYMMETRY FALSE
SYM_IGNORE TRUE
max_scf_cycles 200

XC_GRID 000099000590
BASIS DEF2-QZVPPD


$end










