$molecule
0 1
C -0.6105625660 0.2275030960 -0.1706020700
H 0.1073850580 0.8614360270 -0.6342092390
C -1.3862757280 -0.5253255040 0.3799735270
H -2.0807032380 -1.1740673930 0.8543793690
$end


$rem
N_FROZEN_CORE FC
MEM_TOTAL 3750
MEM_STATIC 1500
AUX_BASIS_CORR rimp2-def2-QZVPPD
SCF_CONVERGENCE 7
SCF_ALGORITHM  GDM
method DSD-PBEPBE-D3
GEN_SCFMAN TRUE
UNRESTRICTED True
THRESH  14
SYMMETRY FALSE
SYM_IGNORE TRUE
max_scf_cycles 200

XC_GRID 000099000590
BASIS DEF2-QZVPPD


$end










