$molecule
0 1
C -0.4835614890 -0.2878631500 4.1212515370
O -0.9061754290 -1.4030433970 3.9241049580
O -1.2972538470 0.7711023680 4.3538410170
H -2.1980159560 0.4167218300 4.3133052770
C 0.9567055740 0.1218029310 4.1384569200
H 1.5825286390 -0.7483780140 3.9803017610
H 1.1327429880 0.8560765650 3.3553323400
H 1.1940168210 0.5911038850 5.0902593110
$end


$rem
N_FROZEN_CORE FC
MEM_TOTAL 3750
MEM_STATIC 1500
AUX_BASIS_CORR rimp2-def2-QZVPPD
SCF_CONVERGENCE 7
SCF_ALGORITHM  GDM
method DSD-PBEPBE-D3
GEN_SCFMAN TRUE
UNRESTRICTED True
THRESH  14
SYMMETRY FALSE
SYM_IGNORE TRUE
max_scf_cycles 200

XC_GRID 000099000590
BASIS DEF2-QZVPPD


$end










