$molecule
0 1
C 0.4718360220 -0.0060581870 5.5417189600
H 0.5872460660 -0.0054839950 6.5967327820
C 0.3397662590 -0.0066079220 4.3354716600
H 0.2216181430 -0.0063454940 3.2709661860
$end


$rem
N_FROZEN_CORE FC
MEM_TOTAL 3750
MEM_STATIC 1500
AUX_BASIS_CORR rimp2-def2-QZVPPD
SCF_CONVERGENCE 7
SCF_ALGORITHM  GDM
method DSD-PBEPBE-D3
GEN_SCFMAN TRUE
UNRESTRICTED True
THRESH  14
SYMMETRY FALSE
SYM_IGNORE TRUE
max_scf_cycles 200

XC_GRID 000099000590
BASIS DEF2-QZVPPD


$end










