$molecule
0 1
N -0.5410591980 0.0295762020 -0.2089950770
H 0.0555533510 -0.7861180990 -0.1302933460
H -1.4696694040 -0.2747084520 0.0531433820
C -0.0787992660 1.0423903650 0.7384588620
H -0.7201529360 1.9194137670 0.6719802620
H -0.0507581890 0.7238229300 1.7855145290
H 0.9264307240 1.3566037920 0.4619991880
$end


$rem
N_FROZEN_CORE FC
MEM_TOTAL 3750
MEM_STATIC 1500
AUX_BASIS_CORR rimp2-def2-QZVPPD
SCF_CONVERGENCE 7
SCF_ALGORITHM  GDM
method DSD-PBEPBE-D3
GEN_SCFMAN TRUE
UNRESTRICTED True
THRESH  14
SYMMETRY FALSE
SYM_IGNORE TRUE
max_scf_cycles 200

XC_GRID 000099000590
BASIS DEF2-QZVPPD


$end










