$molecule
0 1
N 2.3418502210 -1.2568001020 0.0301529980
C 2.6802865370 -0.4444560370 -0.9815594780
H 2.1376193180 -0.5889940180 -1.9069408370
C 3.6516157990 0.5476777580 -0.8811924740
H 3.8764682390 1.1720180450 -1.7340431670
C 4.3124558660 0.7172191960 0.3310719640
H 5.0703098110 1.4794565320 0.4474560930
C 3.9723229570 -0.1177433290 1.3901949170
H 4.4549113630 -0.0272810900 2.3528955710
C 2.9885413920 -1.0825323370 1.1910115360
H 2.7024570620 -1.7462799450 1.9976221930
$end


$rem
N_FROZEN_CORE FC
MEM_TOTAL 3750
MEM_STATIC 1500
AUX_BASIS_CORR rimp2-def2-QZVPPD
SCF_CONVERGENCE 7
SCF_ALGORITHM  GDM
method DSD-PBEPBE-D3
GEN_SCFMAN TRUE
UNRESTRICTED True
THRESH  14
SYMMETRY FALSE
SYM_IGNORE TRUE
max_scf_cycles 200

XC_GRID 000099000590
BASIS DEF2-QZVPPD


$end










