$molecule
0 1
O -1.6289300000 -0.0413800000 0.3713700000
H -0.6980300000 -0.0916800000 0.0933700000
H -2.0666300000 -0.7349800000 -0.1366300000
O 1.2145700000 0.0317200000 -0.2762300000
H 1.4492700000 0.9167200000 -0.5857300000
H 1.7297700000 -0.0803800000 0.5338700000
$end


$rem
N_FROZEN_CORE FC
MEM_TOTAL 3750
MEM_STATIC 1500
AUX_BASIS_CORR rimp2-def2-QZVPPD
SCF_CONVERGENCE 7
SCF_ALGORITHM  GDM
method DSD-PBEPBE-D3
GEN_SCFMAN TRUE
UNRESTRICTED True
THRESH  14
SYMMETRY FALSE
SYM_IGNORE TRUE
max_scf_cycles 200

XC_GRID 000099000590
BASIS DEF2-QZVPPD


$end










