$molecule
0 1
O -1.1318700000 -1.1197900000 -0.3583300000
H -1.7686700000 -1.5831900000 0.1983700000
H -1.2384700000 -0.1730900000 -0.1396300000
O 1.5601300000 -0.3510900000 -0.3259300000
H 0.7784300000 -0.9376900000 -0.3131300000
H 2.2318300000 -0.8100900000 0.1919700000
O -0.4482700000 1.5692100000 0.0176700000
H -0.4297700000 2.2294100000 0.7204700000
H 0.4466300000 1.1763100000 0.0085700000
$end


$rem
N_FROZEN_CORE FC
MEM_TOTAL 3750
MEM_STATIC 1500
AUX_BASIS_CORR rimp2-def2-QZVPPD
SCF_CONVERGENCE 7
SCF_ALGORITHM  GDM
method DSD-PBEPBE-D3
GEN_SCFMAN TRUE
UNRESTRICTED True
THRESH  14
SYMMETRY FALSE
SYM_IGNORE TRUE
max_scf_cycles 200

XC_GRID 000099000590
BASIS DEF2-QZVPPD


$end










