$molecule
0 1
O 0.0577900000 -1.9796600000 -0.3241600000
H -0.0588100000 -1.7705600000 0.6237400000
H 0.0113900000 -2.9415600000 -0.3868600000
O -0.1593100000 -0.3422600000 1.8956400000
H 0.6023900000 0.0954400000 1.4370400000
H 0.0121900000 -0.2534600000 2.8406400000
O 1.7608900000 0.4669400000 0.1758400000
H 1.6490900000 -0.3555600000 -0.3264600000
H 1.3367900000 1.1413400000 -0.3983600000
O 0.1190900000 2.1253400000 -1.3529600000
H -0.6676100000 1.5817400000 -1.1232600000
H 0.1190900000 2.1743400000 -2.3165600000
O -1.7893100000 0.2941400000 -0.4830600000
H -1.6429100000 0.2997400000 0.4780400000
H -1.3507100000 -0.5359600000 -0.7392600000
$end


$rem
N_FROZEN_CORE FC
MEM_TOTAL 7500
MEM_STATIC 3000
AUX_BASIS_CORR rimp2-def2-QZVPPD
SCF_CONVERGENCE 7
SCF_ALGORITHM  GDM
method DSD-PBEPBE-D3
GEN_SCFMAN TRUE
UNRESTRICTED True
THRESH  14
SYMMETRY FALSE
SYM_IGNORE TRUE
max_scf_cycles 200

XC_GRID 000099000590
BASIS DEF2-QZVPPD


$end










