$molecule
0 1
O 1.4379100000 -1.9530500000 -0.1536700000
H 0.4877100000 -2.0496500000 -0.3758700000
H 1.6414100000 -2.7223500000 0.3920300000
O -1.3618900000 -1.8944500000 -0.5468700000
H -1.5146900000 -0.9534500000 -0.3214700000
H -1.9301900000 -2.3801500000 0.0634300000
O -1.3599900000 0.7867500000 0.3506300000
H -1.9206900000 1.1482500000 1.0481300000
H -0.4568900000 0.6751500000 0.7575300000
O 1.2265100000 0.5952500000 0.9785300000
H 1.4195100000 1.2269500000 0.2619300000
H 1.4700100000 -0.2823500000 0.6131300000
O 0.5998100000 2.4111500000 -1.1763700000
H 0.5318100000 3.3476500000 -0.9506700000
H -0.2703900000 2.0442500000 -0.9403700000
$end


$rem
N_FROZEN_CORE FC
MEM_TOTAL 7500
MEM_STATIC 3000
AUX_BASIS_CORR rimp2-def2-QZVPPD
SCF_CONVERGENCE 7
SCF_ALGORITHM  GDM
method DSD-PBEPBE-D3
GEN_SCFMAN TRUE
UNRESTRICTED True
THRESH  14
SYMMETRY FALSE
SYM_IGNORE TRUE
max_scf_cycles 200

XC_GRID 000099000590
BASIS DEF2-QZVPPD


$end










