$molecule
0 1
Br 0.0000000000 0.0000000000 3.0858490000
Br 0.0000000000 0.0000000000 0.7651380000
C 0.0000000000 1.1429490000 -2.4911990000
C 0.0000000000 1.1928010000 -3.8750670000
C 0.0000000000 0.0000000000 -4.5789970000
C 0.0000000000 -1.1928010000 -3.8750670000
C 0.0000000000 -1.1429490000 -2.4911990000
N 0.0000000000 0.0000000000 -1.8130800000
H 0.0000000000 2.0504430000 -1.8976510000
H 0.0000000000 2.1470230000 -4.3834900000
H 0.0000000000 0.0000000000 -5.6615080000
H 0.0000000000 -2.1470230000 -4.3834900000
H 0.0000000000 -2.0504430000 -1.8976510000
$end


$rem
N_FROZEN_CORE FC
MEM_TOTAL 7500
MEM_STATIC 3000
AUX_BASIS_CORR rimp2-def2-QZVPPD
SCF_CONVERGENCE 7
SCF_ALGORITHM  GDM
method DSD-PBEPBE-D3
GEN_SCFMAN TRUE
UNRESTRICTED True
THRESH  14
SYMMETRY FALSE
SYM_IGNORE TRUE
max_scf_cycles 200

XC_GRID 000099000590
BASIS DEF2-QZVPPD


$end










