$molecule
0 1
C -0.6628260000 1.5264400000 0.0000000000
O -1.8587670000 1.6776830000 0.0000000000
H 0.0269550000 2.3881630000 0.0000000000
C 0.0000000000 0.1879720000 0.0000000000
C -0.7318300000 -0.9392800000 0.0000000000
C -0.2140160000 -2.3266310000 0.0000000000
H -0.5926630000 -2.8641260000 0.8734940000
H -1.8073700000 -0.7981610000 0.0000000000
H -0.5926630000 -2.8641260000 -0.8734940000
H 0.8725540000 -2.3698860000 0.0000000000
C 1.4269610000 0.1720160000 0.0000000000
N 2.5790850000 0.1947960000 0.0000000000
$end


$rem
N_FROZEN_CORE FC
MEM_TOTAL 3750
MEM_STATIC 1500
AUX_BASIS_CORR rimp2-def2-QZVPPD
SCF_CONVERGENCE 7
SCF_ALGORITHM  GDM
method DSD-PBEPBE-D3
GEN_SCFMAN TRUE
UNRESTRICTED True
THRESH  14
SYMMETRY FALSE
SYM_IGNORE TRUE
max_scf_cycles 200

XC_GRID 000099000590
BASIS DEF2-QZVPPD


$end










