$molecule
0 1
C 0.4587028820 0.4070862090 0.0000000000
O 1.0624206060 1.4646841620 0.0000000000
N 1.1031140480 -0.7958499710 0.0000000000
H 2.1073082870 -0.7977823570 0.0000000000
H 0.6060771380 -1.6650558320 0.0000000000
C -1.0543773650 0.3391875230 0.0000000000
H -1.4225047570 0.8641902450 0.8804124490
H -1.4382350840 -0.6806512240 0.0000000000
H -1.4225047570 0.8641902450 -0.8804124490
$end


$rem
N_FROZEN_CORE FC
MEM_TOTAL 3750
MEM_STATIC 1500
AUX_BASIS_CORR rimp2-def2-QZVPPD
SCF_CONVERGENCE 7
SCF_ALGORITHM  GDM
method DSD-PBEPBE-D3
GEN_SCFMAN TRUE
UNRESTRICTED True
THRESH  14
SYMMETRY FALSE
SYM_IGNORE TRUE
max_scf_cycles 200

XC_GRID 000099000590
BASIS DEF2-QZVPPD


$end










