$molecule
0 2
C 1.2788090000 0.4443770000 0.1588650000
H 1.7349690000 1.3311040000 0.6172580000
N -0.0170270000 0.6093620000 -0.2940340000
O 1.8592690000 -0.5986450000 -0.0463960000
C -1.0165980000 -0.3193720000 0.0036610000
H -0.6257370000 -1.3417510000 0.1400140000
O -2.1796840000 -0.0269690000 0.0871230000
$end


$rem
N_FROZEN_CORE FC
MEM_TOTAL 3750
MEM_STATIC 1500
AUX_BASIS_CORR rimp2-def2-QZVPPD
SCF_CONVERGENCE 7
SCF_ALGORITHM  GDM
method DSD-PBEPBE-D3
GEN_SCFMAN TRUE
UNRESTRICTED True
THRESH  14
SYMMETRY FALSE
SYM_IGNORE TRUE
max_scf_cycles 200

XC_GRID 000099000590
BASIS DEF2-QZVPPD


$end










