$molecule
0 1
C -0.4201680000 0.6579340000 0.7900020000
C -0.4201680000 0.6579340000 -0.7900020000
C 0.4201680000 -0.6579340000 0.7900020000
C 0.4201680000 -0.6579340000 -0.7900020000
C 0.4201680000 1.9093270000 0.6677910000
C 0.4201680000 1.9093270000 -0.6677910000
C -0.4201680000 -1.9093270000 0.6677910000
C -0.4201680000 -1.9093270000 -0.6677910000
H -0.9147770000 -2.5196320000 1.4126970000
H -0.9147770000 -2.5196320000 -1.4126970000
H 1.3265500000 -0.6792740000 -1.3919390000
H 1.3265500000 -0.6792740000 1.3919390000
H -1.3265500000 0.6792740000 1.3919390000
H -1.3265500000 0.6792740000 -1.3919390000
H 0.9147770000 2.5196320000 -1.4126970000
H 0.9147770000 2.5196320000 1.4126970000
$end


$rem
N_FROZEN_CORE FC
MEM_TOTAL 7500
MEM_STATIC 3000
AUX_BASIS_CORR rimp2-def2-QZVPPD
SCF_CONVERGENCE 7
SCF_ALGORITHM  GDM
method DSD-PBEPBE-D3
GEN_SCFMAN TRUE
UNRESTRICTED True
THRESH  14
SYMMETRY FALSE
SYM_IGNORE TRUE
max_scf_cycles 200

XC_GRID 000099000590
BASIS DEF2-QZVPPD


$end










