$molecule
0 1
C -0.0696750000 0.4267570000 -0.0005170000
H -0.0298320000 1.5099080000 -0.0080990000
C -1.2491820000 -0.1960330000 0.0138680000
H -1.3303390000 -1.2756940000 0.0166090000
H -2.1649640000 0.3735610000 0.0067340000
H 1.2205980000 -1.1530690000 0.1372480000
N 1.1817820000 -0.1694170000 -0.0795450000
H 1.9452100000 0.3468680000 0.3242160000
$end


$rem
N_FROZEN_CORE FC
MEM_TOTAL 3750
MEM_STATIC 1500
AUX_BASIS_CORR rimp2-def2-QZVPPD
SCF_CONVERGENCE 7
SCF_ALGORITHM  GDM
method DSD-PBEPBE-D3
GEN_SCFMAN TRUE
UNRESTRICTED True
THRESH  14
SYMMETRY FALSE
SYM_IGNORE TRUE
max_scf_cycles 200

XC_GRID 000099000590
BASIS DEF2-QZVPPD


$end










