$molecule
0 1
C -2.0461295860 0.0099351830 0.0000000000
O -1.4571445830 1.0932837220 0.0000000000
N -1.3994755240 -1.1697439150 0.0000000000
H -0.3766996420 -1.1934343380 0.0000000000
H -1.9167894050 -2.0282864500 0.0000000000
C -3.5581406140 -0.0376827830 0.0000000000
H -3.9188010580 0.4931099670 0.8803385330
H -3.9551065020 -1.0522589850 0.0000000000
H -3.9188010580 0.4931099670 -0.8803385330
C 2.0461295860 -0.0099351830 0.0000000000
O 1.4571445830 -1.0932837220 0.0000000000
N 1.3994755240 1.1697439150 0.0000000000
H 0.3766996420 1.1934343380 0.0000000000
H 1.9167894050 2.0282864500 0.0000000000
C 3.5581406140 0.0376827830 0.0000000000
H 3.9551065020 1.0522589850 0.0000000000
H 3.9188010580 -0.4931099670 -0.8803385330
H 3.9188010580 -0.4931099670 0.8803385330
$end


$rem
N_FROZEN_CORE FC
MEM_TOTAL 7500
MEM_STATIC 3000
AUX_BASIS_CORR rimp2-def2-QZVPPD
SCF_CONVERGENCE 7
SCF_ALGORITHM  GDM
method DSD-PBEPBE-D3
GEN_SCFMAN TRUE
UNRESTRICTED True
THRESH  14
SYMMETRY FALSE
SYM_IGNORE TRUE
max_scf_cycles 200

XC_GRID 000099000590
BASIS DEF2-QZVPPD


$end










