$molecule
0 1
C 0.0000000000 0.7819380000 1.3109880000
C 0.0000000000 -0.7819380000 1.3109880000
C 0.0000000000 0.7392880000 -0.2133710000
C 0.0000000000 -0.7392880000 -0.2133710000
C 0.0000000000 1.6689350000 -1.1606680000
C 0.0000000000 -1.6689350000 -1.1606680000
H 0.8851140000 1.2383330000 1.7526870000
H -0.8851140000 1.2383330000 1.7526870000
H 0.8851140000 -1.2383330000 1.7526870000
H -0.8851140000 -1.2383330000 1.7526870000
H 0.0000000000 2.7231320000 -0.9171470000
H 0.0000000000 1.4037590000 -2.2099230000
H 0.0000000000 -1.4037590000 -2.2099230000
H 0.0000000000 -2.7231320000 -0.9171470000
$end


$rem
N_FROZEN_CORE FC
MEM_TOTAL 7500
MEM_STATIC 3000
AUX_BASIS_CORR rimp2-def2-QZVPPD
SCF_CONVERGENCE 7
SCF_ALGORITHM  GDM
method DSD-PBEPBE-D3
GEN_SCFMAN TRUE
UNRESTRICTED True
THRESH  14
SYMMETRY FALSE
SYM_IGNORE TRUE
max_scf_cycles 200

XC_GRID 000099000590
BASIS DEF2-QZVPPD


$end










