$molecule
0 1
C -1.4056010000 0.7950380000 -0.2838040000
O -1.0128550000 1.8240420000 0.1956330000
H -2.2552970000 0.7405340000 -0.9890270000
C -0.8153970000 -0.5809670000 0.0587990000
C 0.4772960000 -0.6063680000 0.8382650000
C 1.6203240000 -0.5260710000 -0.1432080000
O -1.4051000000 -1.5585240000 -0.3365260000
H 0.5069380000 0.2440340000 1.5173900000
C 2.3614280000 0.5553180000 -0.3403560000
H 2.1930140000 1.4674550000 0.2177680000
H 3.1616220000 0.5617740000 -1.0675810000
H 1.7954430000 -1.4208350000 -0.7300880000
H 0.5136230000 -1.5388000000 1.4005010000
$end


$rem
N_FROZEN_CORE FC
MEM_TOTAL 7500
MEM_STATIC 3000
AUX_BASIS_CORR rimp2-def2-QZVPPD
SCF_CONVERGENCE 7
SCF_ALGORITHM  GDM
method DSD-PBEPBE-D3
GEN_SCFMAN TRUE
UNRESTRICTED True
THRESH  14
SYMMETRY FALSE
SYM_IGNORE TRUE
max_scf_cycles 200

XC_GRID 000099000590
BASIS DEF2-QZVPPD


$end










