$molecule
0 1
C 1.2663740000 0.8416340000 0.0000000000
H 1.8577360000 -0.0743510000 0.0000000000
N 0.0000000000 0.8501640000 0.0000000000
C 2.0034580000 2.1436620000 0.0000000000
H 1.3125290000 2.9830610000 0.0000000000
H 2.6488940000 2.2033680000 0.8792580000
H 2.6488940000 2.2033680000 -0.8792580000
Br -0.8024870000 -0.8908100000 0.0000000000
$end


$rem
N_FROZEN_CORE FC
MEM_TOTAL 3750
MEM_STATIC 1500
AUX_BASIS_CORR rimp2-def2-QZVPPD
SCF_CONVERGENCE 7
SCF_ALGORITHM  GDM
method DSD-PBEPBE-D3
GEN_SCFMAN TRUE
UNRESTRICTED True
THRESH  14
SYMMETRY FALSE
SYM_IGNORE TRUE
max_scf_cycles 200

XC_GRID 000099000590
BASIS DEF2-QZVPPD


$end










