$molecule
0 1
C 0.0000000000 0.7678490000 0.0000000000
H -0.8229010000 1.4869890000 0.0000000000
H 1.3678000000 2.0706120000 0.0000000000
H 0.6024690000 -1.4648380000 0.0000000000
N 1.2287280000 1.0619690000 0.0000000000
S -0.6092790000 -0.8833520000 0.0000000000
$end


$rem
N_FROZEN_CORE FC
MEM_TOTAL 3750
MEM_STATIC 1500
AUX_BASIS_CORR rimp2-def2-QZVPPD
SCF_CONVERGENCE 7
SCF_ALGORITHM  GDM
method DSD-PBEPBE-D3
GEN_SCFMAN TRUE
UNRESTRICTED True
THRESH  14
SYMMETRY FALSE
SYM_IGNORE TRUE
max_scf_cycles 200

XC_GRID 000099000590
BASIS DEF2-QZVPPD


$end










