$molecule
0 1
C 0.0000000000 0.0000000000 -0.7277510000
C 0.0000000000 0.0000000000 -2.0473260000
C 0.0000000000 1.2818110000 -2.8360060000
C 0.0000000000 -1.2818110000 -2.8360060000
H 0.0000000000 -2.1554430000 -2.1893430000
H 0.8779460000 -1.3271460000 -3.4870620000
H -0.8779460000 -1.3271460000 -3.4870620000
H 0.0000000000 2.1554430000 -2.1893430000
H 0.8779460000 1.3271460000 -3.4870620000
H -0.8779460000 1.3271460000 -3.4870620000
C 0.0000000000 0.0000000000 0.5361780000
C 0.0000000000 0.0000000000 1.8223680000
C 0.0000000000 0.0000000000 3.0871640000
C 0.0000000000 0.0000000000 4.4007280000
H 0.0000000000 -0.9248950000 4.9654170000
H 0.0000000000 0.9248950000 4.9654170000
$end


$rem
N_FROZEN_CORE FC
MEM_TOTAL 7500
MEM_STATIC 3000
AUX_BASIS_CORR rimp2-def2-QZVPPD
SCF_CONVERGENCE 7
SCF_ALGORITHM  GDM
method DSD-PBEPBE-D3
GEN_SCFMAN TRUE
UNRESTRICTED True
THRESH  14
SYMMETRY FALSE
SYM_IGNORE TRUE
max_scf_cycles 200

XC_GRID 000099000590
BASIS DEF2-QZVPPD


$end










