$molecule
0 2
C 0.0000000000 0.4809420000 0.0000000000
H -0.5474590000 1.4354500000 0.0000000000
N 1.2414350000 0.5153940000 0.0000000000
C -0.8323470000 -0.7794290000 0.0000000000
H -0.1972750000 -1.6616470000 0.0000000000
H -1.4756120000 -0.7953180000 0.8811440000
H -1.4756120000 -0.7953180000 -0.8811440000
$end


$rem
N_FROZEN_CORE FC
MEM_TOTAL 3750
MEM_STATIC 1500
AUX_BASIS_CORR rimp2-def2-QZVPPD
SCF_CONVERGENCE 7
SCF_ALGORITHM  GDM
method DSD-PBEPBE-D3
GEN_SCFMAN TRUE
UNRESTRICTED True
THRESH  14
SYMMETRY FALSE
SYM_IGNORE TRUE
max_scf_cycles 200

XC_GRID 000099000590
BASIS DEF2-QZVPPD


$end










