$molecule
0 1
C 0.2446220000 1.4875250000 0.6395180000
C 0.2446220000 1.4875250000 -0.6395180000
C -0.4436070000 0.2943960000 0.0000000000
H 0.4733890000 1.9435260000 1.5838540000
H 0.4733890000 1.9435260000 -1.5838540000
H -1.5282630000 0.2264670000 0.0000000000
C 0.2446220000 -1.0160070000 0.0000000000
H 1.3546760000 -0.9482080000 0.0000000000
O -0.3143430000 -2.0857430000 0.0000000000
$end


$rem
N_FROZEN_CORE FC
MEM_TOTAL 3750
MEM_STATIC 1500
AUX_BASIS_CORR rimp2-def2-QZVPPD
SCF_CONVERGENCE 7
SCF_ALGORITHM  GDM
method DSD-PBEPBE-D3
GEN_SCFMAN TRUE
UNRESTRICTED True
THRESH  14
SYMMETRY FALSE
SYM_IGNORE TRUE
max_scf_cycles 200

XC_GRID 000099000590
BASIS DEF2-QZVPPD


$end










