$molecule
0 1
C 0.0000000000 0.7590380000 0.0000000000
H -0.7811740000 1.5097170000 0.0000000000
C 1.2803820000 1.1126610000 0.0000000000
H 2.0845150000 0.3888500000 0.0000000000
H 1.5556700000 2.1579950000 0.0000000000
H 0.4685510000 -1.5417480000 0.0000000000
S -0.6881160000 -0.8590630000 0.0000000000
$end


$rem
N_FROZEN_CORE FC
MEM_TOTAL 3750
MEM_STATIC 1500
AUX_BASIS_CORR rimp2-def2-QZVPPD
SCF_CONVERGENCE 7
SCF_ALGORITHM  GDM
method DSD-PBEPBE-D3
GEN_SCFMAN TRUE
UNRESTRICTED True
THRESH  14
SYMMETRY FALSE
SYM_IGNORE TRUE
max_scf_cycles 200

XC_GRID 000099000590
BASIS DEF2-QZVPPD


$end










