$molecule
0 1
C -0.0128370000 0.6640020000 0.9090290000
C 0.0128370000 -0.6640020000 0.9090290000
C -0.0128370000 1.5847650000 -0.2875010000
C 0.0128370000 -1.5847650000 -0.2875010000
C -1.1745160000 2.4711650000 -0.3126260000
C 1.1745160000 -2.4711650000 -0.3126260000
C -2.1309260000 3.1946700000 -0.3184770000
C 2.1309260000 -3.1946700000 -0.3184770000
H -0.0326750000 1.1716030000 1.8666950000
H 0.0326750000 -1.1716030000 1.8666950000
H 0.8922600000 2.2012710000 -0.2591440000
H 0.0317060000 1.0251230000 -1.2224040000
H -0.8922600000 -2.2012710000 -0.2591440000
H -0.0317060000 -1.0251230000 -1.2224040000
H 2.9769870000 -3.8353050000 -0.3277000000
H -2.9769870000 3.8353050000 -0.3277000000
$end


$rem
N_FROZEN_CORE FC
MEM_TOTAL 7500
MEM_STATIC 3000
AUX_BASIS_CORR rimp2-def2-QZVPPD
SCF_CONVERGENCE 7
SCF_ALGORITHM  GDM
method DSD-PBEPBE-D3
GEN_SCFMAN TRUE
UNRESTRICTED True
THRESH  14
SYMMETRY FALSE
SYM_IGNORE TRUE
max_scf_cycles 200

XC_GRID 000099000590
BASIS DEF2-QZVPPD


$end










