$molecule
0 1
C -1.2803680000 0.6313450000 0.0000000000
C 0.0000000000 0.2197510000 0.0000000000
C -0.3504580000 -1.2554430000 0.0000000000
C -1.8443970000 -0.7704650000 0.0000000000
H -1.7434810000 1.6094820000 0.0000000000
H -0.0435800000 -1.8073120000 0.8870770000
H -0.0435800000 -1.8073120000 -0.8870770000
H -2.4194720000 -1.0423910000 0.8861140000
C 1.2584030000 0.9489520000 0.0000000000
H 1.1572690000 2.0529060000 0.0000000000
O 2.3516550000 0.4240230000 0.0000000000
H -2.4194720000 -1.0423910000 -0.8861140000
$end


$rem
N_FROZEN_CORE FC
MEM_TOTAL 3750
MEM_STATIC 1500
AUX_BASIS_CORR rimp2-def2-QZVPPD
SCF_CONVERGENCE 7
SCF_ALGORITHM  GDM
method DSD-PBEPBE-D3
GEN_SCFMAN TRUE
UNRESTRICTED True
THRESH  14
SYMMETRY FALSE
SYM_IGNORE TRUE
max_scf_cycles 200

XC_GRID 000099000590
BASIS DEF2-QZVPPD


$end










