$molecule
0 1
C 0.0000000000 0.4210350000 0.0000000000
H -0.3830630000 1.4480420000 0.0000000000
H -0.6595560000 -1.3436440000 0.0000000000
O 1.1585180000 0.1170880000 0.0000000000
O -1.0281910000 -0.4459140000 0.0000000000
$end


$rem
N_FROZEN_CORE FC
MEM_TOTAL 3750
MEM_STATIC 1500
AUX_BASIS_CORR rimp2-def2-QZVPPD
SCF_CONVERGENCE 7
SCF_ALGORITHM  GDM
method DSD-PBEPBE-D3
GEN_SCFMAN TRUE
UNRESTRICTED True
THRESH  14
SYMMETRY FALSE
SYM_IGNORE TRUE
max_scf_cycles 200

XC_GRID 000099000590
BASIS DEF2-QZVPPD


$end










