$molecule
0 1
C 0.0000000000 0.6331070000 0.0000000000
C 1.3800560000 -0.0484860000 0.0000000000
C -0.6161170000 -0.6995350000 0.0000000000
C 0.5689130000 -1.3448070000 0.0000000000
H 1.9876780000 0.1288730000 0.8902360000
H 1.9876780000 0.1288730000 -0.8902360000
C -0.4024540000 1.8987730000 0.0000000000
H 0.3543880000 2.6766790000 0.0000000000
C -1.8328340000 2.3416730000 0.0000000000
H -2.5145390000 1.4915020000 0.0000000000
H -2.0596120000 2.9539650000 0.8770800000
H -2.0596120000 2.9539650000 -0.8770800000
H -1.6410680000 -1.0447510000 0.0000000000
C 0.9980630000 -2.7613800000 0.0000000000
H 1.6135820000 -2.9832810000 0.8764530000
H 0.1441580000 -3.4386270000 0.0000000000
H 1.6135820000 -2.9832810000 -0.8764530000
$end


$rem
N_FROZEN_CORE FC
MEM_TOTAL 7500
MEM_STATIC 3000
AUX_BASIS_CORR rimp2-def2-QZVPPD
SCF_CONVERGENCE 7
SCF_ALGORITHM  GDM
method DSD-PBEPBE-D3
GEN_SCFMAN TRUE
UNRESTRICTED True
THRESH  14
SYMMETRY FALSE
SYM_IGNORE TRUE
max_scf_cycles 200

XC_GRID 000099000590
BASIS DEF2-QZVPPD


$end










