$molecule
0 1
C 0.0000000000 0.4188340000 0.0000000000
H -0.4460280000 1.4286070000 0.0000000000
O 1.1965470000 0.2331300000 0.0000000000
H -1.9178490000 -0.3459160000 0.0000000000
H -0.6468900000 -1.5260420000 0.0000000000
N -0.9373720000 -0.5620990000 0.0000000000
$end


$rem
N_FROZEN_CORE FC
MEM_TOTAL 3750
MEM_STATIC 1500
AUX_BASIS_CORR rimp2-def2-QZVPPD
SCF_CONVERGENCE 7
SCF_ALGORITHM  GDM
method DSD-PBEPBE-D3
GEN_SCFMAN TRUE
UNRESTRICTED True
THRESH  14
SYMMETRY FALSE
SYM_IGNORE TRUE
max_scf_cycles 200

XC_GRID 000099000590
BASIS DEF2-QZVPPD


$end










