$molecule
0 1
C 0.0000000000 0.6012398000 -1.3538397600
O 0.0000000000 -0.5930181400 -1.5520902100
H 0.9354225000 1.1742762400 -1.2651513200
H -0.9354225000 1.1742762400 -1.2651513200
C 0.0000000000 -0.6020047600 1.5522886600
O 0.0000000000 0.5923863800 1.3551132800
H 0.0000000000 -1.0093798200 2.5752463500
H 0.0000000000 -1.3200290600 0.7169499700
$end


$rem
N_FROZEN_CORE FC
MEM_TOTAL 3750
MEM_STATIC 1500
AUX_BASIS_CORR rimp2-def2-QZVPPD
SCF_CONVERGENCE 7
SCF_ALGORITHM  GDM
method DSD-PBEPBE-D3
GEN_SCFMAN TRUE
UNRESTRICTED True
THRESH  14
SYMMETRY FALSE
SYM_IGNORE TRUE
max_scf_cycles 200

XC_GRID 000099000590
BASIS DEF2-QZVPPD


$end










