$molecule
0 1
C -0.6512180000 -1.3101720000 0.7371000000
C 0.6512180000 -1.1758140000 0.0000000000
C 1.3304100000 0.1907930000 0.0000000000
C 0.6512180000 1.3101720000 0.7371000000
C -0.6512180000 1.1758140000 0.0000000000
C -1.3304100000 -0.1907930000 0.0000000000
C -0.6512180000 -1.3101720000 -0.7371000000
C 0.6512180000 1.3101720000 -0.7371000000
H 1.3102550000 -2.0364820000 0.0000000000
H 2.4144170000 0.1853310000 0.0000000000
H -1.3102550000 2.0364820000 0.0000000000
H -2.4144170000 -0.1853310000 0.0000000000
H -1.0084710000 -2.0289220000 -1.4547380000
H -1.0084710000 -2.0289220000 1.4547380000
H 1.0084710000 2.0289220000 1.4547380000
H 1.0084710000 2.0289220000 -1.4547380000
$end


$rem
N_FROZEN_CORE FC
MEM_TOTAL 7500
MEM_STATIC 3000
AUX_BASIS_CORR rimp2-def2-QZVPPD
SCF_CONVERGENCE 7
SCF_ALGORITHM  GDM
method DSD-PBEPBE-D3
GEN_SCFMAN TRUE
UNRESTRICTED True
THRESH  14
SYMMETRY FALSE
SYM_IGNORE TRUE
max_scf_cycles 200

XC_GRID 000099000590
BASIS DEF2-QZVPPD


$end










