$molecule
0 1
C 0.0000000000 0.8823190000 0.0000000000
C 1.2214480000 0.0508740000 0.0000000000
C 0.8994260000 -1.2442490000 0.0000000000
C -0.5857580000 -1.4866660000 0.0000000000
C -1.1949050000 -0.0763710000 0.0000000000
H 2.2133100000 0.4762730000 0.0000000000
H 1.6097630000 -2.0601410000 0.0000000000
H -0.8809380000 -2.0728390000 0.8732210000
H -1.8107160000 0.1236280000 0.8762240000
H -1.8107160000 0.1236280000 -0.8762240000
O -0.0601280000 2.0908550000 0.0000000000
H -0.8809380000 -2.0728390000 -0.8732210000
$end


$rem
N_FROZEN_CORE FC
MEM_TOTAL 3750
MEM_STATIC 1500
AUX_BASIS_CORR rimp2-def2-QZVPPD
SCF_CONVERGENCE 7
SCF_ALGORITHM  GDM
method DSD-PBEPBE-D3
GEN_SCFMAN TRUE
UNRESTRICTED True
THRESH  14
SYMMETRY FALSE
SYM_IGNORE TRUE
max_scf_cycles 200

XC_GRID 000099000590
BASIS DEF2-QZVPPD


$end










