$molecule
0 1
C 0.0000000000 0.4594290000 0.0000000000
H -0.4963700000 1.4522810000 0.0000000000
O 1.2023080000 0.3853950000 0.0000000000
C -0.9303150000 -0.7176850000 0.0000000000
H -0.3764750000 -1.6534570000 0.0000000000
H -1.5818660000 -0.6662260000 0.8763620000
H -1.5818660000 -0.6662260000 -0.8763620000
$end


$rem
N_FROZEN_CORE FC
MEM_TOTAL 3750
MEM_STATIC 1500
AUX_BASIS_CORR rimp2-def2-QZVPPD
SCF_CONVERGENCE 7
SCF_ALGORITHM  GDM
method DSD-PBEPBE-D3
GEN_SCFMAN TRUE
UNRESTRICTED True
THRESH  14
SYMMETRY FALSE
SYM_IGNORE TRUE
max_scf_cycles 200

XC_GRID 000099000590
BASIS DEF2-QZVPPD


$end










