$molecule
0 1
C 1.1909860000 -0.1141320000 0.0000000000
C 0.5826500000 -1.5399550000 0.0000000000
C 0.0000000000 0.8342680000 0.0000000000
C -0.9019570000 -1.2957460000 0.0000000000
C -1.2006600000 0.0063900000 0.0000000000
C 0.0438140000 2.1670260000 0.0000000000
H 1.8174720000 0.0543600000 0.8756130000
H 1.8174720000 0.0543600000 -0.8756130000
H 0.8903490000 -2.1204230000 0.8735140000
H 0.8903490000 -2.1204230000 -0.8735140000
H -1.6251910000 -2.0992190000 0.0000000000
H -2.1988230000 0.4211060000 0.0000000000
H 0.9818530000 2.7056130000 0.0000000000
H -0.8624770000 2.7575230000 0.0000000000
$end


$rem
N_FROZEN_CORE FC
MEM_TOTAL 7500
MEM_STATIC 3000
AUX_BASIS_CORR rimp2-def2-QZVPPD
SCF_CONVERGENCE 7
SCF_ALGORITHM  GDM
method DSD-PBEPBE-D3
GEN_SCFMAN TRUE
UNRESTRICTED True
THRESH  14
SYMMETRY FALSE
SYM_IGNORE TRUE
max_scf_cycles 200

XC_GRID 000099000590
BASIS DEF2-QZVPPD


$end










