$molecule
-2 1
S 0.0000000000 0.0000000000 -0.7036840000
O 0.0821770000 1.2257760000 0.1838690000
O -0.0821770000 -1.2257760000 0.1838690000
O 1.2326860000 -0.0721850000 -1.5529270000
O -1.2326860000 0.0721850000 -1.5529270000
O -2.8832600000 -1.2047060000 0.2442020000
H -1.9804320000 -1.4652010000 0.5206870000
H -2.5871810000 -0.6960810000 -0.5439290000
O 2.8832600000 1.2047060000 0.2442020000
H 1.9804320000 1.4652010000 0.5206870000
H 2.5871810000 0.6960810000 -0.5439290000
O 2.3271760000 -1.4341600000 1.6251010000
H 1.4603800000 -1.4464770000 1.1579140000
H 2.6841680000 -0.5925510000 1.2999460000
O -2.3271760000 1.4341600000 1.6251010000
H -2.6841680000 0.5925510000 1.2999460000
H -1.4603800000 1.4464770000 1.1579140000
$end


$rem
N_FROZEN_CORE FC
MEM_TOTAL 15000
MEM_STATIC 6000
AUX_BASIS_CORR rimp2-def2-QZVPPD
SCF_CONVERGENCE 7
SCF_ALGORITHM  GDM
method DSD-PBEPBE-D3
GEN_SCFMAN TRUE
UNRESTRICTED True
THRESH  14
SYMMETRY FALSE
SYM_IGNORE TRUE
max_scf_cycles 200

XC_GRID 000099000590
BASIS DEF2-QZVPPD


$end










