$molecule
0 1
C 1.0936230000 0.2877510000 0.0000000000
N 0.0000000000 0.7909000000 0.0000000000
C -1.3354920000 0.3082920000 0.0000000000
H -1.8517620000 0.6539570000 0.8955190000
F -1.3804180000 -1.0795910000 0.0000000000
H -1.8517620000 0.6539570000 -0.8955190000
O 2.1973130000 -0.0880190000 0.0000000000
$end


$rem
N_FROZEN_CORE FC
MEM_TOTAL 3750
MEM_STATIC 1500
AUX_BASIS_CORR rimp2-def2-QZVPPD
SCF_CONVERGENCE 7
SCF_ALGORITHM  GDM
method DSD-PBEPBE-D3
GEN_SCFMAN TRUE
UNRESTRICTED True
THRESH  14
SYMMETRY FALSE
SYM_IGNORE TRUE
max_scf_cycles 200

XC_GRID 000099000590
BASIS DEF2-QZVPPD


$end










