$molecule
0 1
C 0.0000000000 0.0000000000 0.8550640000
C 0.0000000000 1.2411760000 -0.0431090000
C 0.0000000000 0.6656980000 -1.4295460000
C 0.0000000000 -0.6656980000 -1.4295460000
C 0.0000000000 -1.2411760000 -0.0431090000
H 0.8750880000 1.8580540000 0.1788430000
H -0.8750880000 1.8580540000 0.1788430000
H 0.0000000000 1.2802190000 -2.3183350000
H 0.0000000000 -1.2802190000 -2.3183350000
H 0.8750880000 -1.8580540000 0.1788430000
H -0.8750880000 -1.8580540000 0.1788430000
O 0.0000000000 0.0000000000 2.0578480000
$end


$rem
N_FROZEN_CORE FC
MEM_TOTAL 3750
MEM_STATIC 1500
AUX_BASIS_CORR rimp2-def2-QZVPPD
SCF_CONVERGENCE 7
SCF_ALGORITHM  GDM
method DSD-PBEPBE-D3
GEN_SCFMAN TRUE
UNRESTRICTED True
THRESH  14
SYMMETRY FALSE
SYM_IGNORE TRUE
max_scf_cycles 200

XC_GRID 000099000590
BASIS DEF2-QZVPPD


$end










