$molecule
0 1
C 1.1368100000 -0.2982010000 0.0000000000
C 0.0000000000 0.6917340000 0.0000000000
C 0.4477190000 -1.6328530000 0.0000000000
C -1.1564760000 0.0039540000 0.0000000000
C -0.8798190000 -1.4341040000 0.0000000000
H 1.7834950000 -0.1688170000 0.8749340000
H 1.7834950000 -0.1688170000 -0.8749340000
H 0.9626920000 -2.5804860000 0.0000000000
H -2.1459750000 0.4384280000 0.0000000000
H -1.6387840000 -2.2025720000 0.0000000000
C 0.1987800000 2.1685820000 0.0000000000
H 0.7640680000 2.4963350000 -0.8768900000
H -0.7551440000 2.6949230000 0.0000000000
H 0.7640680000 2.4963350000 0.8768900000
$end


$rem
N_FROZEN_CORE FC
MEM_TOTAL 7500
MEM_STATIC 3000
AUX_BASIS_CORR rimp2-def2-QZVPPD
SCF_CONVERGENCE 7
SCF_ALGORITHM  GDM
method DSD-PBEPBE-D3
GEN_SCFMAN TRUE
UNRESTRICTED True
THRESH  14
SYMMETRY FALSE
SYM_IGNORE TRUE
max_scf_cycles 200

XC_GRID 000099000590
BASIS DEF2-QZVPPD


$end










