$molecule
1 1
C 0.0000000000 0.0000000000 -1.2931411850
N 0.0000000000 0.0000000000 -2.6272413570
N 1.1466729110 0.0000000000 -0.6221839210
N -1.1466729110 0.0000000000 -0.6221839210
H 2.0280780620 0.0000000000 -1.1025579830
H -2.0280780620 0.0000000000 -1.1025579830
H -1.1289448400 0.0000000000 0.3892730700
H 1.1289448400 0.0000000000 0.3892730700
H 0.8595282910 0.0000000000 -3.1461010920
H -0.8595282910 0.0000000000 -3.1461010920
O 0.0000000000 0.0000000000 2.0254425220
C 0.0000000000 0.0000000000 3.2425382290
H -0.9393887100 0.0000000000 3.8081073200
H 0.9393887100 0.0000000000 3.8081073200
$end


$rem
N_FROZEN_CORE FC
MEM_TOTAL 3750
MEM_STATIC 1500
AUX_BASIS_CORR rimp2-def2-QZVPPD
SCF_CONVERGENCE 7
SCF_ALGORITHM  GDM
method DSD-PBEPBE-D3
GEN_SCFMAN TRUE
UNRESTRICTED True
THRESH  14
SYMMETRY FALSE
SYM_IGNORE TRUE
max_scf_cycles 200

XC_GRID 000099000590
BASIS DEF2-QZVPPD


$end










