$molecule
0 1
C 0.0000000000 0.4451810000 0.0000000000
H 0.3893450000 1.4707900000 0.0000000000
C 1.0306510000 -0.6365770000 0.0000000000
H 1.6767640000 -0.5445850000 0.8767900000
H 0.5569050000 -1.6159220000 0.0000000000
H 1.6767640000 -0.5445850000 -0.8767900000
N -1.2412140000 0.1909110000 0.0000000000
H -1.7951860000 1.0463000000 0.0000000000
$end


$rem
N_FROZEN_CORE FC
MEM_TOTAL 3750
MEM_STATIC 1500
AUX_BASIS_CORR rimp2-def2-QZVPPD
SCF_CONVERGENCE 7
SCF_ALGORITHM  GDM
method DSD-PBEPBE-D3
GEN_SCFMAN TRUE
UNRESTRICTED True
THRESH  14
SYMMETRY FALSE
SYM_IGNORE TRUE
max_scf_cycles 200

XC_GRID 000099000590
BASIS DEF2-QZVPPD


$end










