$molecule
0 1
C -0.1557120000 2.4522610000 0.0000000000
C 0.0000000000 0.9703390000 0.0000000000
C -0.9613340000 -0.1320990000 0.0000000000
C 0.0514040000 -1.0815630000 0.0000000000
C 1.0784810000 0.0961800000 0.0000000000
C 2.0878830000 -0.8615770000 0.0000000000
C 1.1375440000 -1.9513200000 0.0000000000
C -2.4506810000 -0.1791820000 0.0000000000
H 0.8160330000 2.9433540000 0.0000000000
H -0.7113080000 2.7917390000 0.8786300000
H -0.7113080000 2.7917390000 -0.8786300000
H 3.1710140000 -0.8165200000 0.0000000000
H 1.2402390000 -3.0305110000 0.0000000000
H -2.8624580000 0.3252830000 -0.8785710000
H -2.8624580000 0.3252830000 0.8785710000
H -2.8052710000 -1.2086010000 0.0000000000
$end


$rem
N_FROZEN_CORE FC
MEM_TOTAL 7500
MEM_STATIC 3000
AUX_BASIS_CORR rimp2-def2-QZVPPD
SCF_CONVERGENCE 7
SCF_ALGORITHM  GDM
method DSD-PBEPBE-D3
GEN_SCFMAN TRUE
UNRESTRICTED True
THRESH  14
SYMMETRY FALSE
SYM_IGNORE TRUE
max_scf_cycles 200

XC_GRID 000099000590
BASIS DEF2-QZVPPD


$end










