$molecule
0 1
C 0.0000000000 1.3861530000 1.2627530000
C 0.0000000000 1.3927310000 -0.1921660000
C 0.0000000000 0.0000000000 -0.2432270000
C 0.0000000000 0.0000000000 1.3164130000
C 0.0000000000 -1.3861530000 1.2627530000
C 0.0000000000 -1.3927310000 -0.1921660000
C 0.0000000000 2.4832800000 -1.2075400000
H -0.8786190000 3.1239190000 -1.0962340000
H 0.0000000000 2.0743820000 -2.2165450000
H 0.8786190000 3.1239190000 -1.0962340000
H 0.0000000000 2.1711190000 2.0111770000
C 0.0000000000 -2.4832800000 -1.2075400000
H 0.0000000000 -2.0743820000 -2.2165450000
H 0.8786190000 -3.1239190000 -1.0962340000
H -0.8786190000 -3.1239190000 -1.0962340000
H 0.0000000000 -2.1711190000 2.0111770000
$end


$rem
N_FROZEN_CORE FC
MEM_TOTAL 7500
MEM_STATIC 3000
AUX_BASIS_CORR rimp2-def2-QZVPPD
SCF_CONVERGENCE 7
SCF_ALGORITHM  GDM
method DSD-PBEPBE-D3
GEN_SCFMAN TRUE
UNRESTRICTED True
THRESH  14
SYMMETRY FALSE
SYM_IGNORE TRUE
max_scf_cycles 200

XC_GRID 000099000590
BASIS DEF2-QZVPPD


$end










