$molecule
0 1
C 0.0000000000 0.6573860000 0.0000000000
H -0.5320750000 1.6048890000 0.0000000000
H 1.7662860000 0.0168780000 0.0000000000
O 1.3136520000 0.8769810000 0.0000000000
S -0.7339640000 -0.7863710000 0.0000000000
$end


$rem
N_FROZEN_CORE FC
MEM_TOTAL 3750
MEM_STATIC 1500
AUX_BASIS_CORR rimp2-def2-QZVPPD
SCF_CONVERGENCE 7
SCF_ALGORITHM  GDM
method DSD-PBEPBE-D3
GEN_SCFMAN TRUE
UNRESTRICTED True
THRESH  14
SYMMETRY FALSE
SYM_IGNORE TRUE
max_scf_cycles 200

XC_GRID 000099000590
BASIS DEF2-QZVPPD


$end










