$molecule
0 1
C 1.3039940000 0.8363650000 0.1929560000
C 0.0617010000 1.5736160000 0.0233710000
C -0.6683270000 0.3927710000 -0.0912510000
C 0.6683270000 -0.3927710000 0.0912510000
C -0.0617010000 -1.5736160000 -0.0233710000
C -1.3039940000 -0.8363650000 -0.1929560000
C -0.2729700000 3.0252080000 -0.0107350000
H -2.3346910000 -1.1423280000 -0.3421660000
H 0.2586680000 3.5353470000 -0.8182620000
H 0.0118240000 3.5193450000 0.9218410000
H -1.3415130000 3.1707660000 -0.1609800000
C 0.2729700000 -3.0252080000 0.0107350000
H -0.2586680000 -3.5353470000 0.8182620000
H -0.0118240000 -3.5193450000 -0.9218410000
H 1.3415130000 -3.1707660000 0.1609800000
H 2.3346910000 1.1423280000 0.3421660000
$end


$rem
N_FROZEN_CORE FC
MEM_TOTAL 7500
MEM_STATIC 3000
AUX_BASIS_CORR rimp2-def2-QZVPPD
SCF_CONVERGENCE 7
SCF_ALGORITHM  GDM
method DSD-PBEPBE-D3
GEN_SCFMAN TRUE
UNRESTRICTED True
THRESH  14
SYMMETRY FALSE
SYM_IGNORE TRUE
max_scf_cycles 200

XC_GRID 000099000590
BASIS DEF2-QZVPPD


$end










