$molecule
0 1
C 0.0000000000 0.6361410000 0.0000000000
H -0.5537430000 1.5742020000 0.0000000000
H 1.7300880000 1.7416420000 0.0000000000
H 1.9406760000 0.0211840000 0.0000000000
N 1.3271880000 0.8202260000 0.0000000000
S -0.7754590000 -0.8059660000 0.0000000000
$end


$rem
N_FROZEN_CORE FC
MEM_TOTAL 3750
MEM_STATIC 1500
AUX_BASIS_CORR rimp2-def2-QZVPPD
SCF_CONVERGENCE 7
SCF_ALGORITHM  GDM
method DSD-PBEPBE-D3
GEN_SCFMAN TRUE
UNRESTRICTED True
THRESH  14
SYMMETRY FALSE
SYM_IGNORE TRUE
max_scf_cycles 200

XC_GRID 000099000590
BASIS DEF2-QZVPPD


$end










