$molecule
0 1
C 0.0000000000 0.6170050000 0.0000000000
H 0.5175210000 1.5773010000 0.0000000000
C -1.4858980000 0.7141080000 0.0000000000
H -1.9570930000 -0.2655370000 0.0000000000
H -1.8192180000 1.2821780000 0.8744960000
H -1.8192180000 1.2821780000 -0.8744960000
S 0.8745870000 -0.7414250000 0.0000000000
$end


$rem
N_FROZEN_CORE FC
MEM_TOTAL 3750
MEM_STATIC 1500
AUX_BASIS_CORR rimp2-def2-QZVPPD
SCF_CONVERGENCE 7
SCF_ALGORITHM  GDM
method DSD-PBEPBE-D3
GEN_SCFMAN TRUE
UNRESTRICTED True
THRESH  14
SYMMETRY FALSE
SYM_IGNORE TRUE
max_scf_cycles 200

XC_GRID 000099000590
BASIS DEF2-QZVPPD


$end










