$molecule
0 1
O -3.2537719450 0.4646832580 0.0000000000
H -3.7891094150 1.2581127940 0.0000000000
H -2.3368633210 0.7835746230 0.0000000000
C -0.6771084320 -1.4288448740 0.0000000000
H -0.0237730050 -2.3010244690 0.0000000000
H -1.3241630980 -1.4543965320 -0.8761743650
H -1.3241630980 -1.4543965320 0.8761743650
C 0.0842481100 -0.1235222430 0.0000000000
O -0.4922495920 0.9623951290 0.0000000000
N 1.4360359170 -0.2224475310 0.0000000000
H 1.8414623300 -1.1406518370 0.0000000000
C 2.3079892890 0.9378063590 0.0000000000
H 1.6747554870 1.8215205360 0.0000000000
H 2.9393943870 0.9480141590 0.8890791340
H 2.9393943870 0.9480141590 -0.8890791340
$end


$rem
N_FROZEN_CORE FC
MEM_TOTAL 7500
MEM_STATIC 3000
AUX_BASIS_CORR rimp2-def2-QZVPPD
SCF_CONVERGENCE 7
SCF_ALGORITHM  GDM
method DSD-PBEPBE-D3
GEN_SCFMAN TRUE
UNRESTRICTED True
THRESH  14
SYMMETRY FALSE
SYM_IGNORE TRUE
max_scf_cycles 200

XC_GRID 000099000590
BASIS DEF2-QZVPPD


$end










