$molecule
0 1
C 0.8445420000 -1.2856320000 0.0000000000
C -0.6579800000 -1.2207870000 0.0000000000
C 1.2571740000 0.1795790000 0.0000000000
C -1.1253120000 0.0257460000 0.0000000000
C 0.0000000000 1.0323530000 0.0000000000
C 2.5021390000 0.6333070000 0.0000000000
H 1.2364180000 -1.8139740000 0.8750810000
H 1.2364180000 -1.8139740000 -0.8750810000
H -1.2803830000 -2.1057490000 0.0000000000
H 3.3506250000 -0.0389410000 0.0000000000
H 2.7204230000 1.6935820000 0.0000000000
H -0.0479150000 1.6897920000 -0.8744750000
H -0.0479150000 1.6897920000 0.8744750000
C -2.5519240000 0.4592150000 0.0000000000
H -2.7741620000 1.0745810000 -0.8765370000
H -3.2311790000 -0.3923750000 0.0000000000
H -2.7741620000 1.0745810000 0.8765370000
$end


$rem
N_FROZEN_CORE FC
MEM_TOTAL 7500
MEM_STATIC 3000
AUX_BASIS_CORR rimp2-def2-QZVPPD
SCF_CONVERGENCE 7
SCF_ALGORITHM  GDM
method DSD-PBEPBE-D3
GEN_SCFMAN TRUE
UNRESTRICTED True
THRESH  14
SYMMETRY FALSE
SYM_IGNORE TRUE
max_scf_cycles 200

XC_GRID 000099000590
BASIS DEF2-QZVPPD


$end










