$molecule
0 1
C 0.0000000000 1.1904740000 0.0264730000
C 0.0000000000 0.7321340000 -1.2374760000
C 0.0000000000 -0.7321340000 -1.2374760000
C 0.0000000000 -1.1904740000 0.0264730000
C 0.0000000000 0.0000000000 0.9524370000
C 0.0000000000 2.6021820000 0.5029700000
C 0.0000000000 -2.6021820000 0.5029700000
H 0.0000000000 1.3454160000 -2.1275600000
H 0.0000000000 -1.3454160000 -2.1275600000
H -0.8750550000 0.0000000000 1.6119080000
H 0.8750550000 0.0000000000 1.6119080000
H -0.8768770000 2.8178960000 1.1202350000
H 0.0000000000 3.3000090000 -0.3339230000
H 0.8768770000 2.8178960000 1.1202350000
H 0.0000000000 -3.3000090000 -0.3339230000
H -0.8768770000 -2.8178960000 1.1202350000
H 0.8768770000 -2.8178960000 1.1202350000
$end


$rem
N_FROZEN_CORE FC
MEM_TOTAL 7500
MEM_STATIC 3000
AUX_BASIS_CORR rimp2-def2-QZVPPD
SCF_CONVERGENCE 7
SCF_ALGORITHM  GDM
method DSD-PBEPBE-D3
GEN_SCFMAN TRUE
UNRESTRICTED True
THRESH  14
SYMMETRY FALSE
SYM_IGNORE TRUE
max_scf_cycles 200

XC_GRID 000099000590
BASIS DEF2-QZVPPD


$end










