$molecule
1 1
C -0.6800668120 0.0000000000 -0.9670014610
C 0.6800668120 0.0000000000 -0.9670014610
N 1.0713599150 0.0000000000 0.3588933590
C 0.0000000000 0.0000000000 1.1478142230
N -1.0713599150 0.0000000000 0.3588933590
H 1.3895262390 0.0000000000 -1.7751913640
H -1.3895262390 0.0000000000 -1.7751913640
H 0.0000000000 0.0000000000 2.2246405620
H -2.0244644360 0.0000000000 0.6917480740
H 2.0244644360 0.0000000000 0.6917480740
$end


$rem
N_FROZEN_CORE FC
MEM_TOTAL 3750
MEM_STATIC 1500
AUX_BASIS_CORR rimp2-def2-QZVPPD
SCF_CONVERGENCE 7
SCF_ALGORITHM  GDM
method DSD-PBEPBE-D3
GEN_SCFMAN TRUE
UNRESTRICTED True
THRESH  14
SYMMETRY FALSE
SYM_IGNORE TRUE
max_scf_cycles 200

XC_GRID 000099000590
BASIS DEF2-QZVPPD


$end










