$molecule
0 1
C 0.2799920000 0.7162010000 -1.2226030000
C -0.2799920000 -0.7162010000 -1.2226030000
C 0.0000000000 0.0000000000 1.1035850000
C 0.0000000000 1.2048470000 0.1799990000
C 0.0000000000 -1.2048470000 0.1799990000
C -0.2607270000 2.4554100000 0.5329190000
C 0.2607270000 -2.4554100000 0.5329190000
H -0.1488970000 1.3605060000 -1.9881180000
H 1.3618610000 0.6796290000 -1.3867490000
H 0.1488970000 -1.3605060000 -1.9881180000
H -1.3618610000 -0.6796290000 -1.3867490000
H -0.8764110000 0.0062980000 1.7554930000
H 0.8764110000 -0.0062980000 1.7554930000
H -0.2659850000 3.2579620000 -0.1930910000
H -0.4749160000 2.7229480000 1.5598140000
H 0.2659850000 -3.2579620000 -0.1930910000
H 0.4749160000 -2.7229480000 1.5598140000
$end


$rem
N_FROZEN_CORE FC
MEM_TOTAL 7500
MEM_STATIC 3000
AUX_BASIS_CORR rimp2-def2-QZVPPD
SCF_CONVERGENCE 7
SCF_ALGORITHM  GDM
method DSD-PBEPBE-D3
GEN_SCFMAN TRUE
UNRESTRICTED True
THRESH  14
SYMMETRY FALSE
SYM_IGNORE TRUE
max_scf_cycles 200

XC_GRID 000099000590
BASIS DEF2-QZVPPD


$end










