$molecule
0 1
N 0.4340017260 -0.8058328450 0.0000000000
H 0.0828781960 -1.3020861830 0.8090186990
H 0.0828781960 -1.3020861830 -0.8090186990
C -0.0672212340 0.5713452470 0.0000000000
H 0.3170019750 1.0892570870 -0.8787162650
H -1.1591948340 0.6634807910 0.0000000000
H 0.3170019750 1.0892570870 0.8787162650
$end


$rem
N_FROZEN_CORE FC
MEM_TOTAL 3750
MEM_STATIC 1500
AUX_BASIS_CORR rimp2-def2-QZVPPD
SCF_CONVERGENCE 7
SCF_ALGORITHM  GDM
method DSD-PBEPBE-D3
GEN_SCFMAN TRUE
UNRESTRICTED True
THRESH  14
SYMMETRY FALSE
SYM_IGNORE TRUE
max_scf_cycles 200

XC_GRID 000099000590
BASIS DEF2-QZVPPD


$end










