$molecule
0 1
C -1.5188146360 -0.6663946090 0.0000000000
N -0.9951377770 0.7070201120 0.0000000000
H -2.6099343290 -0.7273296080 0.0000000000
H -1.1389982940 -1.1870573420 -0.8770221850
H -1.1389982940 -1.1870573420 0.8770221850
H -1.3355595200 1.2088666230 -0.8098872820
H -1.3355595200 1.2088666230 0.8098872820
O 1.7250465190 -0.2199295350 0.0000000000
H 0.8826435050 0.2663034870 0.0000000000
H 2.4023123450 0.4560905910 0.0000000000
$end


$rem
N_FROZEN_CORE FC
MEM_TOTAL 3750
MEM_STATIC 1500
AUX_BASIS_CORR rimp2-def2-QZVPPD
SCF_CONVERGENCE 7
SCF_ALGORITHM  GDM
method DSD-PBEPBE-D3
GEN_SCFMAN TRUE
UNRESTRICTED True
THRESH  14
SYMMETRY FALSE
SYM_IGNORE TRUE
max_scf_cycles 200

XC_GRID 000099000590
BASIS DEF2-QZVPPD


$end










