$molecule
0 1
Br 0.0000000000 0.0000000000 1.6333980000
C 0.0000000000 1.1563490000 -0.9695670000
N 0.0000000000 0.0000000000 -0.1856280000
O 0.0000000000 2.2845980000 -0.5725970000
O 0.0000000000 -2.2845980000 -0.5725970000
C 0.0000000000 -1.1563490000 -0.9695670000
C 0.0000000000 -0.6619240000 -2.3863210000
C 0.0000000000 0.6619240000 -2.3863210000
H 0.0000000000 1.3482480000 -3.2186690000
H 0.0000000000 -1.3482480000 -3.2186690000
$end


$rem
N_FROZEN_CORE FC
MEM_TOTAL 3750
MEM_STATIC 1500
AUX_BASIS_CORR rimp2-def2-QZVPPD
SCF_CONVERGENCE 7
SCF_ALGORITHM  GDM
method DSD-PBEPBE-D3
GEN_SCFMAN TRUE
UNRESTRICTED True
THRESH  14
SYMMETRY FALSE
SYM_IGNORE TRUE
max_scf_cycles 200

XC_GRID 000099000590
BASIS DEF2-QZVPPD


$end










