$molecule
0 1
C -0.5549180000 -0.4865530000 0.0000000000
N 0.0000000000 0.5731760000 0.0000000000
C 1.3299130000 1.1254810000 0.0000000000
H 1.2617970000 2.2105390000 0.0000000000
H 1.8808980000 0.8132120000 0.8877600000
H 1.8808980000 0.8132120000 -0.8877600000
O -1.2091950000 -1.4603450000 0.0000000000
$end


$rem
N_FROZEN_CORE FC
MEM_TOTAL 3750
MEM_STATIC 1500
AUX_BASIS_CORR rimp2-def2-QZVPPD
SCF_CONVERGENCE 7
SCF_ALGORITHM  GDM
method DSD-PBEPBE-D3
GEN_SCFMAN TRUE
UNRESTRICTED True
THRESH  14
SYMMETRY FALSE
SYM_IGNORE TRUE
max_scf_cycles 200

XC_GRID 000099000590
BASIS DEF2-QZVPPD


$end










