$molecule
0 1
C 0.0068770000 0.7244530000 0.0000000000
C -0.0068770000 -0.7244530000 0.0000000000
C -1.0857730000 1.4927970000 0.0000000000
C 1.0857730000 -1.4927970000 0.0000000000
C -1.0857730000 2.9862760000 0.0000000000
C 1.0857730000 -2.9862760000 0.0000000000
H 0.9843050000 1.2000010000 0.0000000000
H -0.9843050000 -1.2000010000 0.0000000000
H -2.0587370000 1.0089900000 0.0000000000
H 2.0587370000 -1.0089900000 0.0000000000
H -1.6068880000 3.3826460000 0.8759870000
H -1.6068880000 3.3826460000 -0.8759870000
H -0.0714050000 3.3853230000 0.0000000000
H 1.6068880000 -3.3826460000 -0.8759870000
H 1.6068880000 -3.3826460000 0.8759870000
H 0.0714050000 -3.3853230000 0.0000000000
$end


$rem
N_FROZEN_CORE FC
MEM_TOTAL 7500
MEM_STATIC 3000
AUX_BASIS_CORR rimp2-def2-QZVPPD
SCF_CONVERGENCE 7
SCF_ALGORITHM  GDM
method DSD-PBEPBE-D3
GEN_SCFMAN TRUE
UNRESTRICTED True
THRESH  14
SYMMETRY FALSE
SYM_IGNORE TRUE
max_scf_cycles 200

XC_GRID 000099000590
BASIS DEF2-QZVPPD


$end










