$molecule
0 1
Br 0.0000000000 0.0000000000 1.7941450000
C 0.0000000000 0.0000000000 -0.0976500000
C 0.0000000000 1.2070990000 -0.7757960000
C 0.0000000000 1.1996650000 -2.1630220000
C 0.0000000000 0.0000000000 -2.8580180000
C 0.0000000000 -1.1996650000 -2.1630220000
C 0.0000000000 -1.2070990000 -0.7757960000
H 0.0000000000 2.1390280000 -0.2275680000
H 0.0000000000 2.1395000000 -2.6999810000
H 0.0000000000 0.0000000000 -3.9401570000
H 0.0000000000 -2.1395000000 -2.6999810000
H 0.0000000000 -2.1390280000 -0.2275680000
$end


$rem
N_FROZEN_CORE FC
MEM_TOTAL 7500
MEM_STATIC 3000
AUX_BASIS_CORR rimp2-def2-QZVPPD
SCF_CONVERGENCE 7
SCF_ALGORITHM  GDM
method DSD-PBEPBE-D3
GEN_SCFMAN TRUE
UNRESTRICTED True
THRESH  14
SYMMETRY FALSE
SYM_IGNORE TRUE
max_scf_cycles 200

XC_GRID 000099000590
BASIS DEF2-QZVPPD


$end










