$molecule
0 1
O 0.2259351730 1.0710633820 0.0000000000
H 1.1832727090 1.0525688310 0.0000000000
C -0.2425753140 -0.2706285860 0.0000000000
H -1.3291602740 -0.2221356480 0.0000000000
H 0.0812638530 -0.8154344890 -0.8909840260
H 0.0812638530 -0.8154344890 0.8909840260
$end


$rem
N_FROZEN_CORE FC
MEM_TOTAL 3750
MEM_STATIC 1500
AUX_BASIS_CORR rimp2-def2-QZVPPD
SCF_CONVERGENCE 7
SCF_ALGORITHM  GDM
method DSD-PBEPBE-D3
GEN_SCFMAN TRUE
UNRESTRICTED True
THRESH  14
SYMMETRY FALSE
SYM_IGNORE TRUE
max_scf_cycles 200

XC_GRID 000099000590
BASIS DEF2-QZVPPD


$end










