$molecule
0 1
O -0.7819383490 0.0547758360 0.0000000000
H 0.1808436200 0.0350644090 0.0000000000
C -1.2381275980 -1.2862159790 0.0000000000
H -2.3258628620 -1.2595156130 0.0000000000
H -0.9063605590 -1.8310855060 -0.8884041150
H -0.9063605590 -1.8310855060 0.8884041150
O 2.1275314670 -0.0537790640 0.0000000000
H 2.5354448650 0.3645845920 -0.7600170660
H 2.5354448650 0.3645845920 0.7600170660
$end


$rem
N_FROZEN_CORE FC
MEM_TOTAL 3750
MEM_STATIC 1500
AUX_BASIS_CORR rimp2-def2-QZVPPD
SCF_CONVERGENCE 7
SCF_ALGORITHM  GDM
method DSD-PBEPBE-D3
GEN_SCFMAN TRUE
UNRESTRICTED True
THRESH  14
SYMMETRY FALSE
SYM_IGNORE TRUE
max_scf_cycles 200

XC_GRID 000099000590
BASIS DEF2-QZVPPD


$end










