$molecule
0 1
O -0.6326165960 -0.0266751750 0.2796533870
H 0.3102214430 -0.0424487440 0.0762934200
C -1.1554737010 -1.3153350120 0.0150102100
H -2.2151741780 -1.2949688320 0.2654671910
H -1.0550872760 -1.5904761750 -1.0395581940
H -0.6720788020 -2.0866713100 0.6233971130
O 2.2137775390 -0.1195037470 -0.0113359380
H 2.6764286900 0.4915943960 -0.5863850900
C 2.7199249620 0.0342438400 1.3147387650
H 2.1621033990 -0.6566854920 1.9420274110
H 3.7809803230 -0.2169646980 1.3640297220
H 2.5651282840 1.0488213690 1.6865949730
$end


$rem
N_FROZEN_CORE FC
MEM_TOTAL 3750
MEM_STATIC 1500
AUX_BASIS_CORR rimp2-def2-QZVPPD
SCF_CONVERGENCE 7
SCF_ALGORITHM  GDM
method DSD-PBEPBE-D3
GEN_SCFMAN TRUE
UNRESTRICTED True
THRESH  14
SYMMETRY FALSE
SYM_IGNORE TRUE
max_scf_cycles 200

XC_GRID 000099000590
BASIS DEF2-QZVPPD


$end










