$molecule
0 1
C 0.0000000000 1.1357400000 0.7175030000
C 0.0000000000 1.1906610000 -0.6681080000
C 0.0000000000 0.0000000000 -1.3749440000
C 0.0000000000 -1.1906610000 -0.6681080000
C 0.0000000000 -1.1357400000 0.7175030000
N 0.0000000000 0.0000000000 1.4089920000
H 0.0000000000 2.0499110000 1.3017220000
H 0.0000000000 2.1458890000 -1.1758620000
H 0.0000000000 0.0000000000 -2.4577350000
H 0.0000000000 -2.1458890000 -1.1758620000
H 0.0000000000 -2.0499110000 1.3017220000
$end


$rem
N_FROZEN_CORE FC
MEM_TOTAL 3750
MEM_STATIC 1500
AUX_BASIS_CORR rimp2-def2-QZVPPD
SCF_CONVERGENCE 7
SCF_ALGORITHM  GDM
method DSD-PBEPBE-D3
GEN_SCFMAN TRUE
UNRESTRICTED True
THRESH  14
SYMMETRY FALSE
SYM_IGNORE TRUE
max_scf_cycles 200

XC_GRID 000099000590
BASIS DEF2-QZVPPD


$end










