$molecule
0 1
C  -0.488474000241  -0.078965000165  2.70980600254
C  0.715151000816  0.198421000328  1.81634300197
C  0.557995000531  -0.337484000249  0.394779000505
C  -0.557995000531  0.337484000249  -0.394779000505
C  -0.715151000816  -0.198421000328  -1.81634300197
C  0.488474000241  0.078965000165  -2.70980600254
H  -0.708012000727  -1.14681600089  2.73748800263
H  -1.38052200148  0.43474700034  2.35655900216
H  -0.303773000144  0.24967800033  3.73140800392
H  1.60300000175  -0.248732000216  2.26672600202
H  0.900418000961  1.27445700147  1.77329100158
H  0.365775000279  -1.4143880013  0.435571000227
H  1.50413600129  -0.211270000208  -0.133700000173
H  -0.365775000279  1.4143880013  -0.435571000227
H  -1.50413600129  0.211270000208  0.133700000173
H  -1.60300000175  0.248732000216  -2.26672600202
H  -0.900418000961  -1.27445700147  -1.77329100158
H  0.303773000144  -0.24967800033  -3.73140800392
H  1.38052200148  -0.43474700034  -2.35655900216
H  0.708012000727  1.14681600089  -2.73748800263
$end


$rem
N_FROZEN_CORE FC
MEM_TOTAL 15000
MEM_STATIC 6000
AUX_BASIS_CORR rimp2-def2-QZVPPD
SCF_CONVERGENCE 7
SCF_ALGORITHM  GDM
method DSD-PBEPBE-D3
GEN_SCFMAN TRUE
UNRESTRICTED True
THRESH  14
SYMMETRY FALSE
SYM_IGNORE TRUE
max_scf_cycles 200

XC_GRID 000099000590
BASIS DEF2-QZVPPD


$end










