$molecule
0 1
C  0.703015000603  1.81564500183  0.0
H  0.188715000035  2.20208300206  0.879664001049
H  0.188715000035  2.20208300206  -0.879664001049
H  1.71433600193  2.2189270023  0.0
C  0.703015000603  0.292668000198  0.0
H  1.24341800145  -0.076944000283  -0.874426000905
H  1.24341800145  -0.076944000283  0.874426000905
C  -0.703015000603  -0.292668000198  0.0
H  -1.24341800145  0.076944000283  -0.874426000905
H  -1.24341800145  0.076944000283  0.874426000905
C  -0.703015000603  -1.81564500183  0.0
H  -0.188715000035  -2.20208300206  0.879664001049
H  -1.71433600193  -2.2189270023  0.0
H  -0.188715000035  -2.20208300206  -0.879664001049
$end


$rem
N_FROZEN_CORE FC
MEM_TOTAL 3750
MEM_STATIC 1500
AUX_BASIS_CORR rimp2-def2-QZVPPD
SCF_CONVERGENCE 7
SCF_ALGORITHM  GDM
method DSD-PBEPBE-D3
GEN_SCFMAN TRUE
UNRESTRICTED True
THRESH  14
SYMMETRY FALSE
SYM_IGNORE TRUE
max_scf_cycles 200

XC_GRID 000099000590
BASIS DEF2-QZVPPD


$end










