$molecule
0 1
C  0.0  0.0  0.619074354923
C  0.0  1.26823145291  -0.229766915872
C  0.0  -1.26823145291  -0.229766915872
H  0.877100523265  0.0  1.2763394974
H  -0.877100523265  0.0  1.2763394974
H  0.0  2.16788377424  0.392479322458
H  -0.883888921029  1.30485246602  -0.874294540725
H  0.883888921029  1.30485246602  -0.874294540725
H  0.0  -2.16788377424  0.392479322458
H  -0.883888921029  -1.30485246602  -0.874294540725
H  0.883888921029  -1.30485246602  -0.874294540725
$end


$rem
N_FROZEN_CORE FC
MEM_TOTAL 3750
MEM_STATIC 1500
AUX_BASIS_CORR rimp2-def2-QZVPPD
SCF_CONVERGENCE 7
SCF_ALGORITHM  GDM
method DSD-PBEPBE-D3
GEN_SCFMAN TRUE
UNRESTRICTED True
THRESH  14
SYMMETRY FALSE
SYM_IGNORE TRUE
max_scf_cycles 200

XC_GRID 000099000590
BASIS DEF2-QZVPPD


$end










