$molecule
0 1
C  0.645551230564  -0.407563145565  1.94603569504
C  -0.645551230564  0.407563145565  1.94603569504
C  1.90524468047  0.455548162703  1.94603469504
C  -1.90524468047  -0.455548162703  1.94603469504
C  3.18887213893  -0.370459132313  1.94603469504
C  -3.18887213893  0.370459132313  1.94603469504
H  0.658791235293  -1.06667838097  2.82483100891
H  0.658791235293  -1.06667738097  1.06723938117
H  -0.658791235293  1.06667838097  2.82483100891
H  -0.658791235293  1.06667738097  1.06723938117
H  1.89040967518  1.11346239768  1.06802638145
H  1.89040867517  1.11346339768  2.82404400863
H  -1.89040967518  -1.11346239768  1.06802638145
H  -1.89040867517  -1.11346339768  2.82404400863
H  4.0768974561  0.268530095908  1.94603469504
H  3.2377871564  -1.0138303621  1.0619863793
H  3.2377871564  -1.0138303621  2.83008201079
H  -4.0768974561  -0.268530095908  1.94603469504
H  -3.2377871564  1.0138303621  1.0619863793
H  -3.2377871564  1.0138303621  2.83008201079
C  0.645551230564  0.407563145565  -1.94603569504
C  -0.645551230564  -0.407563145565  -1.94603569504
C  1.90524468047  -0.455548162703  -1.94603469504
C  -1.90524468047  0.455548162703  -1.94603469504
C  3.18887213893  0.370459132313  -1.94603469504
C  -3.18887213893  -0.370459132313  -1.94603469504
H  0.658791235293  1.06667838097  -2.82483100891
H  0.658791235293  1.06667738097  -1.06723938117
H  -0.658791235293  -1.06667838097  -2.82483100891
H  -0.658791235293  -1.06667738097  -1.06723938117
H  1.89040967518  -1.11346239768  -1.06802638145
H  1.89040867517  -1.11346339768  -2.82404400863
H  -1.89040967518  1.11346239768  -1.06802638145
H  -1.89040867517  1.11346339768  -2.82404400863
H  4.0768974561  -0.268530095908  -1.94603469504
H  3.2377871564  1.0138303621  -1.0619863793
H  3.2377871564  1.0138303621  -2.83008201079
H  -4.0768974561  0.268530095908  -1.94603469504
H  -3.2377871564  -1.0138303621  -1.0619863793
H  -3.2377871564  -1.0138303621  -2.83008201079
$end


$rem
N_FROZEN_CORE FC
MEM_TOTAL 60000
MEM_STATIC 8000
AUX_BASIS_CORR rimp2-def2-QZVPPD
SCF_CONVERGENCE 7
SCF_ALGORITHM  GDM
method DSD-PBEPBE-D3
GEN_SCFMAN TRUE
UNRESTRICTED True
THRESH  14
SYMMETRY FALSE
SYM_IGNORE TRUE
max_scf_cycles 200

XC_GRID 000099000590
BASIS DEF2-QZVPPD


$end










