$molecule
0 1
C  0.0  0.0  0.516829471498
C  0.0  1.27525845544  -0.323286828534
C  0.0  -1.27525845544  -0.323286828534
C  0.0  2.55137991124  0.515349470949
C  0.0  -2.55137991124  0.515349470949
C  0.0  3.81878536386  -0.335355832844
C  0.0  -3.81878536386  -0.335355832844
H  -0.878864725214  0.0  1.17586487951
H  0.878864725214  0.0  1.17586487951
H  -0.878790693283  1.27565345556  -0.982525891284
H  0.878790693283  1.27565345556  -0.982525891284
H  -0.878790693283  -1.27565345556  -0.982525891284
H  0.878790693283  -1.27565345556  -0.982525891284
H  -0.878024722612  2.54927691047  1.17342087941
H  0.878024722612  2.54927691047  1.17342087941
H  -0.878024722612  -2.54927691047  1.17342087941
H  0.878024722612  -2.54927691047  1.17342087941
H  -0.884050697937  3.85521637689  -0.979549895146
H  0.884050697937  3.85521637689  -0.979549895146
H  0.0  4.71902068543  0.286323389223
H  -0.884050697937  -3.85521637689  -0.979549895146
H  0.884050697937  -3.85521637689  -0.979549895146
H  0.0  -4.71902068543  0.286323389223
$end


$rem
N_FROZEN_CORE FC
MEM_TOTAL 15000
MEM_STATIC 6000
AUX_BASIS_CORR rimp2-def2-QZVPPD
SCF_CONVERGENCE 7
SCF_ALGORITHM  GDM
method DSD-PBEPBE-D3
GEN_SCFMAN TRUE
UNRESTRICTED True
THRESH  14
SYMMETRY FALSE
SYM_IGNORE TRUE
max_scf_cycles 200

XC_GRID 000099000590
BASIS DEF2-QZVPPD


$end










