$molecule
0 1
C  0.645551230534  -0.407563145533  0.0
C  -0.645551230534  0.407563145533  0.0
C  1.90524468042  0.455548162698  0.0
C  -1.90524468042  -0.455548162698  0.0
C  3.18887213888  -0.370459132293  0.0
C  -3.18887213888  0.370459132293  0.0
H  0.65879123525  -1.06667838093  0.878796113863
H  0.65879123525  -1.06667838093  -0.878796113863
H  -0.65879123525  1.06667838093  0.878796113863
H  -0.65879123525  1.06667838093  -0.878796113863
H  1.89040967515  1.11346239768  -0.878008513561
H  1.89040967515  1.11346239768  0.878008513561
H  -1.89040967515  -1.11346239768  -0.878008513561
H  -1.89040967515  -1.11346239768  0.878008513561
H  4.07689745607  0.26853009588  0.0
H  3.23778715638  -1.01383036206  -0.884048515746
H  3.23778715638  -1.01383036206  0.884048515746
H  -4.07689745607  -0.26853009588  0.0
H  -3.23778715638  1.01383036206  -0.884048515746
H  -3.23778715638  1.01383036206  0.884048515746
$end


$rem
N_FROZEN_CORE FC
MEM_TOTAL 15000
MEM_STATIC 6000
AUX_BASIS_CORR rimp2-def2-QZVPPD
SCF_CONVERGENCE 7
SCF_ALGORITHM  GDM
method DSD-PBEPBE-D3
GEN_SCFMAN TRUE
UNRESTRICTED True
THRESH  14
SYMMETRY FALSE
SYM_IGNORE TRUE
max_scf_cycles 200

XC_GRID 000099000590
BASIS DEF2-QZVPPD


$end










