$molecule
0 1
C  0.0  0.0  0.289053867912
C  0.0  1.27595745567  -0.549419431485
C  0.0  -1.27595745567  -0.549419431485
C  0.0  2.54341390839  0.301165872266
C  0.0  -2.54341390839  0.301165872266
H  0.878729313862  0.0  0.948514103424
H  -0.878729313862  0.0  0.948514103424
H  0.878010313566  1.27393345498  -1.20751766654
H  -0.878010313566  1.27393345498  -1.20751766654
H  0.878010313566  -1.27393345498  -1.20751766654
H  -0.878010313566  -1.27393345498  -1.20751766654
H  0.884025315749  2.57989892141  0.945381102325
H  -0.884025315749  2.57989892141  0.945381102325
H  0.0  3.44361722987  -0.320514349735
H  0.884025315749  -2.57989892141  0.945381102325
H  -0.884025315749  -2.57989892141  0.945381102325
H  0.0  -3.44361722987  -0.320514349735
$end


$rem
N_FROZEN_CORE FC
MEM_TOTAL 7500
MEM_STATIC 3000
AUX_BASIS_CORR rimp2-def2-QZVPPD
SCF_CONVERGENCE 7
SCF_ALGORITHM  GDM
method DSD-PBEPBE-D3
GEN_SCFMAN TRUE
UNRESTRICTED True
THRESH  14
SYMMETRY FALSE
SYM_IGNORE TRUE
max_scf_cycles 200

XC_GRID 000099000590
BASIS DEF2-QZVPPD


$end










