$molecule
0 1
C  0.623249222599  0.44075815742  -1.95016369652
C  -0.623249222599  -0.44075815742  -1.95016369652
C  1.9195876856  -0.364720130263  -1.95016269652
C  -1.9195876856  0.364720130263  -1.95016269652
H  0.597629213448  1.09858239237  -1.07222438295
H  0.597628213448  1.09858339237  -2.82810201008
H  -0.597629213448  -1.09858239237  -1.07222438295
H  -0.597628213448  -1.09858339237  -2.82810201008
H  2.79738699911  0.288091102894  -1.95016269652
H  1.97878770674  -1.00728335976  -1.06614838078
H  1.97878870674  -1.00728435976  -2.83417601225
H  -2.79738699911  -0.288091102894  -1.95016269652
H  -1.97878770674  1.00728335976  -1.06614838078
H  -1.97878870674  1.00728435976  -2.83417601225
C  0.623249222599  -0.44075815742  1.95016369652
C  -0.623249222599  0.44075815742  1.95016369652
C  1.9195876856  0.364720130263  1.95016269652
C  -1.9195876856  -0.364720130263  1.95016269652
H  0.597629213448  -1.09858239237  1.07222438295
H  0.597628213448  -1.09858339237  2.82810201008
H  -0.597629213448  1.09858239237  1.07222438295
H  -0.597628213448  1.09858339237  2.82810201008
H  2.79738699911  -0.288091102894  1.95016269652
H  1.97878770674  1.00728335976  1.06614838078
H  1.97878870674  1.00728435976  2.83417601225
H  -2.79738699911  0.288091102894  1.95016269652
H  -1.97878770674  -1.00728335976  1.06614838078
H  -1.97878870674  -1.00728435976  2.83417601225
$end


$rem
N_FROZEN_CORE FC
MEM_TOTAL 30000
MEM_STATIC 8000
AUX_BASIS_CORR rimp2-def2-QZVPPD
SCF_CONVERGENCE 7
SCF_ALGORITHM  GDM
method DSD-PBEPBE-D3
GEN_SCFMAN TRUE
UNRESTRICTED True
THRESH  14
SYMMETRY FALSE
SYM_IGNORE TRUE
max_scf_cycles 200

XC_GRID 000099000590
BASIS DEF2-QZVPPD


$end










