$molecule
0 1
C  0.420472150175  1.88176967209  0.0
C  -0.420472150175  1.99728671335  1.26823145296
C  -0.420472150175  1.99728671335  -1.26823145296
H  1.19098642537  2.66126195049  0.0
H  0.952261340108  0.923385329795  0.0
H  0.195985069998  1.9126056831  2.16788377428
H  -1.17929142119  1.20933443192  1.30485246604
H  -0.938718335271  2.96066305743  1.30485246604
H  0.195985069998  1.9126056831  -2.16788377428
H  -1.17929142119  1.20933443192  -1.30485246604
H  -0.938718335271  2.96066305743  -1.30485246604
C  -0.420472150175  -1.88176967209  0.0
C  0.420472150175  -1.99728671335  -1.26823145296
C  0.420472150175  -1.99728671335  1.26823145296
H  -0.952261340108  -0.923385329795  0.0
H  -1.19098642537  -2.66126195049  0.0
H  -0.195985069998  -1.9126056831  -2.16788377428
H  0.938718335271  -2.96066305743  -1.30485246604
H  1.17929142119  -1.20933443192  -1.30485246604
H  -0.195985069998  -1.9126056831  2.16788377428
H  0.938718335271  -2.96066305743  1.30485246604
H  1.17929142119  -1.20933443192  1.30485246604
$end


$rem
N_FROZEN_CORE FC
MEM_TOTAL 15000
MEM_STATIC 6000
AUX_BASIS_CORR rimp2-def2-QZVPPD
SCF_CONVERGENCE 7
SCF_ALGORITHM  GDM
method DSD-PBEPBE-D3
GEN_SCFMAN TRUE
UNRESTRICTED True
THRESH  14
SYMMETRY FALSE
SYM_IGNORE TRUE
max_scf_cycles 200

XC_GRID 000099000590
BASIS DEF2-QZVPPD


$end










