$molecule
0 1
C  -1.90987768213  0.090593032356  0.0
C  -1.90987768213  -0.749523267698  1.27525845547
C  -1.90987768213  -0.749523267698  -1.27525845547
C  -1.90987768213  0.0891130318275  2.55137991125
C  -1.90987768213  0.0891130318275  -2.55137991125
C  -1.90987768213  -0.761592272009  3.81878536391
C  -1.90987768213  -0.761592272009  -3.81878536391
H  -1.03101436824  0.749629267736  0.0
H  -2.78874199602  0.749629267736  0.0
H  -1.03108636826  -1.40876150315  1.27565345561
H  -2.788669996  -1.40876150315  1.27565345561
H  -1.03108636826  -1.40876150315  -1.27565345561
H  -2.788669996  -1.40876150315  -1.27565345561
H  -1.03185436854  0.747185266863  2.5492769105
H  -2.78790199572  0.747185266863  2.5492769105
H  -1.03185436854  0.747185266863  -2.5492769105
H  -2.78790199572  0.747185266863  -2.5492769105
H  -1.02582636638  -1.40578550209  3.85521637692
H  -2.79392999788  -1.40578550209  3.85521637692
H  -1.90987768213  -0.139913049971  4.71902068544
H  -1.02582636638  -1.40578550209  -3.85521637692
H  -2.79392999788  -1.40578550209  -3.85521637692
H  -1.90987768213  -0.139913049971  -4.71902068544
C  1.90987768213  -0.090593032356  0.0
C  1.90987768213  0.749523267698  -1.27525845547
C  1.90987768213  0.749523267698  1.27525845547
C  1.90987768213  -0.0891130318275  -2.55137991125
C  1.90987768213  -0.0891130318275  2.55137991125
C  1.90987768213  0.761592272009  -3.81878536391
C  1.90987768213  0.761592272009  3.81878536391
H  2.78874199602  -0.749629267736  0.0
H  1.03101436824  -0.749629267736  0.0
H  2.788669996  1.40876150315  -1.27565345561
H  1.03108636826  1.40876150315  -1.27565345561
H  2.788669996  1.40876150315  1.27565345561
H  1.03108636826  1.40876150315  1.27565345561
H  2.78790199572  -0.747185266863  -2.5492769105
H  1.03185436854  -0.747185266863  -2.5492769105
H  2.78790199572  -0.747185266863  2.5492769105
H  1.03185436854  -0.747185266863  2.5492769105
H  2.79392999788  1.40578550209  -3.85521637692
H  1.02582636638  1.40578550209  -3.85521637692
H  1.90987768213  0.139913049971  -4.71902068544
H  2.79392999788  1.40578550209  3.85521637692
H  1.02582636638  1.40578550209  3.85521637692
H  1.90987768213  0.139913049971  4.71902068544
$end


$rem
N_FROZEN_CORE FC
MEM_TOTAL 120000
MEM_STATIC 8000
AUX_BASIS_CORR rimp2-def2-QZVPPD
SCF_CONVERGENCE 7
SCF_ALGORITHM  GDM
method DSD-PBEPBE-D3
GEN_SCFMAN TRUE
UNRESTRICTED True
THRESH  14
SYMMETRY FALSE
SYM_IGNORE TRUE
max_scf_cycles 200

XC_GRID 000099000590
BASIS DEF2-QZVPPD


$end










