$molecule
0 1
C  0.623249222595  0.440758157391  0.0
C  -0.623249222595  -0.440758157391  0.0
C  1.91958768558  -0.364720130255  0.0
C  -1.91958768558  0.364720130255  0.0
H  0.597629213402  1.09858239234  0.877938456421
H  0.597629213402  1.09858239234  -0.877938456421
H  -0.597629213402  -1.09858239234  0.877938456421
H  -0.597629213402  -1.09858239234  -0.877938456421
H  2.79738699909  0.288091102885  0.0
H  1.97878770674  -1.00728335976  0.884014458587
H  1.97878770674  -1.00728335976  -0.884014458587
H  -2.79738699909  -0.288091102885  0.0
H  -1.97878770674  1.00728335976  0.884014458587
H  -1.97878770674  1.00728335976  -0.884014458587
$end


$rem
N_FROZEN_CORE FC
MEM_TOTAL 3750
MEM_STATIC 1500
AUX_BASIS_CORR rimp2-def2-QZVPPD
SCF_CONVERGENCE 7
SCF_ALGORITHM  GDM
method DSD-PBEPBE-D3
GEN_SCFMAN TRUE
UNRESTRICTED True
THRESH  14
SYMMETRY FALSE
SYM_IGNORE TRUE
max_scf_cycles 200

XC_GRID 000099000590
BASIS DEF2-QZVPPD


$end










