$molecule
-1 1 
  O      0.37914126      1.17006536     -0.63503913
  H     -0.13413605      1.61143182     -1.32322936
  N     -1.06750105      0.05997920      1.41694900
  H     -0.73623194     -0.89988195      1.43112069
  H     -0.65329102      0.48808552      2.23939266
  H     -0.56988127      0.51320705      0.58796765
$end


$rem
N_FROZEN_CORE FC
MEM_TOTAL 3750
MEM_STATIC 1500
AUX_BASIS_CORR rimp2-def2-QZVPPD
SCF_CONVERGENCE 7
SCF_ALGORITHM  GDM
method DSD-PBEPBE-D3
GEN_SCFMAN TRUE
UNRESTRICTED True
THRESH  14
SYMMETRY FALSE
SYM_IGNORE TRUE
max_scf_cycles 200

XC_GRID 000099000590
BASIS DEF2-QZVPPD


$end










