$molecule
0 1 
  H      2.30499465      2.01523558     -0.28866606
  O      3.23686387      2.37650656     -0.26222526
  C      4.08715257      1.23732458     -0.32691746
  H      5.05209288      1.49309783      0.14605501
  H      3.63898796      0.37456525      0.19473751
  H      4.29416473      0.93841922     -1.37563229
$end


$rem
N_FROZEN_CORE FC
MEM_TOTAL 3750
MEM_STATIC 1500
AUX_BASIS_CORR rimp2-def2-QZVPPD
SCF_CONVERGENCE 7
SCF_ALGORITHM  GDM
method DSD-PBEPBE-D3
GEN_SCFMAN TRUE
UNRESTRICTED True
THRESH  14
SYMMETRY FALSE
SYM_IGNORE TRUE
max_scf_cycles 200

XC_GRID 000099000590
BASIS DEF2-QZVPPD


$end










