$molecule
-1 1 
  O      1.37088589     -0.63951214      0.00955920
  O      0.92684716      1.60675965     -0.18182350
  C      0.62193618      0.36289945     -0.06180930
  H     -0.48781772      0.18146382     -0.01741873
  F      3.22218326      2.48267378     -0.31645419
  H      2.31862974      2.04960990     -0.25557296
$end


$rem
N_FROZEN_CORE FC
MEM_TOTAL 3750
MEM_STATIC 1500
AUX_BASIS_CORR rimp2-def2-QZVPPD
SCF_CONVERGENCE 7
SCF_ALGORITHM  GDM
method DSD-PBEPBE-D3
GEN_SCFMAN TRUE
UNRESTRICTED True
THRESH  14
SYMMETRY FALSE
SYM_IGNORE TRUE
max_scf_cycles 200

XC_GRID 000099000590
BASIS DEF2-QZVPPD


$end










