$molecule
-1 1 
 Cl     -0.05269980      1.43421219     -1.14799707
  N     -1.10346063     -0.08276288      1.64126479
  H     -0.60746391     -0.96403360      1.55976728
  H     -0.58603413      0.44582929      2.33563939
  H     -0.90847074      0.40265240      0.75370716
$end


$rem
N_FROZEN_CORE FC
MEM_TOTAL 3750
MEM_STATIC 1500
AUX_BASIS_CORR rimp2-def2-QZVPPD
SCF_CONVERGENCE 7
SCF_ALGORITHM  GDM
method DSD-PBEPBE-D3
GEN_SCFMAN TRUE
UNRESTRICTED True
THRESH  14
SYMMETRY FALSE
SYM_IGNORE TRUE
max_scf_cycles 200

XC_GRID 000099000590
BASIS DEF2-QZVPPD


$end










