$molecule
-1 1 
  O      1.23583426     -0.09177426     -0.06793615
  H      1.54755831      0.57192835      0.55691305
  O     -1.23110973      0.09790429     -0.05372440
  H     -0.11773792      0.03366878     -0.06528348
  H     -1.46896962     -0.65591986      0.49310314
$end


$rem
N_FROZEN_CORE FC
MEM_TOTAL 3750
MEM_STATIC 1500
AUX_BASIS_CORR rimp2-def2-QZVPPD
SCF_CONVERGENCE 7
SCF_ALGORITHM  GDM
method DSD-PBEPBE-D3
GEN_SCFMAN TRUE
UNRESTRICTED True
THRESH  14
SYMMETRY FALSE
SYM_IGNORE TRUE
max_scf_cycles 200

XC_GRID 000099000590
BASIS DEF2-QZVPPD


$end










