$molecule
-1 1 
 Cl     -1.38565744      2.76073507      0.04152025
  S     -0.45137805     -0.50737958      0.08418545
  H      0.84282198     -0.17577977      0.07333611
  H     -0.85771821      0.83838221      0.06533087
$end


$rem
N_FROZEN_CORE FC
MEM_TOTAL 3750
MEM_STATIC 1500
AUX_BASIS_CORR rimp2-def2-QZVPPD
SCF_CONVERGENCE 7
SCF_ALGORITHM  GDM
method DSD-PBEPBE-D3
GEN_SCFMAN TRUE
UNRESTRICTED True
THRESH  14
SYMMETRY FALSE
SYM_IGNORE TRUE
max_scf_cycles 200

XC_GRID 000099000590
BASIS DEF2-QZVPPD


$end










