$molecule
-1 1 
  O      1.08158457      0.53552235      1.16453411
  O      0.73140531      1.11728859     -1.02901220
  C      0.55296274      0.41582213      0.01932584
  H     -0.18253542     -0.43603415     -0.09503084
$end


$rem
N_FROZEN_CORE FC
MEM_TOTAL 3750
MEM_STATIC 1500
AUX_BASIS_CORR rimp2-def2-QZVPPD
SCF_CONVERGENCE 7
SCF_ALGORITHM  GDM
method DSD-PBEPBE-D3
GEN_SCFMAN TRUE
UNRESTRICTED True
THRESH  14
SYMMETRY FALSE
SYM_IGNORE TRUE
max_scf_cycles 200

XC_GRID 000099000590
BASIS DEF2-QZVPPD


$end










