$molecule
-1 1 
  O      1.59775368     -0.22644652     -0.02752025
  O      0.47496511      1.77146334     -0.18450988
  C      0.56040284      0.50807434     -0.07229434
  H     -0.42314163     -0.03974608     -0.00335370
  H      2.40394321      2.35207776     -0.27886580
  O      3.32462766      2.01895321     -0.26876004
  H      3.07796730      1.07413405     -0.17750953
$end


$rem
N_FROZEN_CORE FC
MEM_TOTAL 3750
MEM_STATIC 1500
AUX_BASIS_CORR rimp2-def2-QZVPPD
SCF_CONVERGENCE 7
SCF_ALGORITHM  GDM
method DSD-PBEPBE-D3
GEN_SCFMAN TRUE
UNRESTRICTED True
THRESH  14
SYMMETRY FALSE
SYM_IGNORE TRUE
max_scf_cycles 200

XC_GRID 000099000590
BASIS DEF2-QZVPPD


$end










