$molecule
-1 1 
  O      1.38050831     -0.61427585      0.64553692
  O      0.75999638      1.34165130     -0.38416264
  C      0.56237196      0.17240266      0.09422137
  H     -0.50009988     -0.19426003      0.00145233
$end


$rem
N_FROZEN_CORE FC
MEM_TOTAL 3750
MEM_STATIC 1500
AUX_BASIS_CORR rimp2-def2-QZVPPD
SCF_CONVERGENCE 7
SCF_ALGORITHM  GDM
method DSD-PBEPBE-D3
GEN_SCFMAN TRUE
UNRESTRICTED True
THRESH  14
SYMMETRY FALSE
SYM_IGNORE TRUE
max_scf_cycles 200

XC_GRID 000099000590
BASIS DEF2-QZVPPD


$end










