$molecule
-1 1 
  N     -1.73329119      3.59149372      0.14063878
  N     -1.21103786      2.50571306      0.11806779
  N     -2.25487580      4.67309593      0.15983177
  S      0.23822045     -0.32759885      0.22386308
  H      1.45500849      0.22343806      0.25687266
  H     -0.39093681      0.89386854      0.17792180
$end


$rem
N_FROZEN_CORE FC
MEM_TOTAL 3750
MEM_STATIC 1500
AUX_BASIS_CORR rimp2-def2-QZVPPD
SCF_CONVERGENCE 7
SCF_ALGORITHM  GDM
method DSD-PBEPBE-D3
GEN_SCFMAN TRUE
UNRESTRICTED True
THRESH  14
SYMMETRY FALSE
SYM_IGNORE TRUE
max_scf_cycles 200

XC_GRID 000099000590
BASIS DEF2-QZVPPD


$end










