$molecule
-1 1 
  S      0.77161186      1.32626876     -0.93871661
  H     -0.19075129      1.84274060     -1.71747519
  N     -1.14955058     -0.03994433      1.59773591
  H     -0.79938973     -0.99197454      1.58883828
  H     -0.71314780      0.39769793      2.40214495
  H     -0.70067253      0.40809859      0.78463418
$end


$rem
N_FROZEN_CORE FC
MEM_TOTAL 3750
MEM_STATIC 1500
AUX_BASIS_CORR rimp2-def2-QZVPPD
SCF_CONVERGENCE 7
SCF_ALGORITHM  GDM
method DSD-PBEPBE-D3
GEN_SCFMAN TRUE
UNRESTRICTED True
THRESH  14
SYMMETRY FALSE
SYM_IGNORE TRUE
max_scf_cycles 200

XC_GRID 000099000590
BASIS DEF2-QZVPPD


$end










