$molecule
0 1 
  N     -1.07146819     -0.00912580      1.50279456
  H     -0.61757278     -0.91698377      1.47414861
  H     -0.60090013      0.48687624      2.25355584
  H     -0.76307217      0.48318498      0.60817267
$end


$rem
N_FROZEN_CORE FC
MEM_TOTAL 3750
MEM_STATIC 1500
AUX_BASIS_CORR rimp2-def2-QZVPPD
SCF_CONVERGENCE 7
SCF_ALGORITHM  GDM
method DSD-PBEPBE-D3
GEN_SCFMAN TRUE
UNRESTRICTED True
THRESH  14
SYMMETRY FALSE
SYM_IGNORE TRUE
max_scf_cycles 200

XC_GRID 000099000590
BASIS DEF2-QZVPPD


$end










