$molecule
0 1
   C          0.00000000      1.73000800     -0.24260810
   AL         0.00000000      0.00000000      0.69738890
   C          0.00000000     -1.73000800     -0.24260810
   H          0.00000000      0.00000000      2.28535790
   H          0.00000000      1.63396200     -1.32844310
   H          0.87344300      2.32376400      0.03983890
   H         -0.87344300      2.32376400      0.03983890
   H         -0.87344300     -2.32376400      0.03983890
   H          0.87344300     -2.32376400      0.03983890
   H          0.00000000     -1.63396200     -1.32844310
$end


$rem
N_FROZEN_CORE FC
MEM_TOTAL 3750
MEM_STATIC 1500
AUX_BASIS_CORR rimp2-def2-QZVPPD
SCF_CONVERGENCE 7
SCF_ALGORITHM  GDM
method DSD-PBEPBE-D3
GEN_SCFMAN TRUE
UNRESTRICTED True
THRESH  14
SYMMETRY FALSE
SYM_IGNORE TRUE
max_scf_cycles 200

XC_GRID 000099000590
BASIS DEF2-QZVPPD


$end










