$molecule
0 1
   C          1.75853000      0.00000000      2.19220200
   AL         0.00000000      0.00000000      1.31372300
   C         -1.75853000      0.00000000      2.19220200
   H          0.00000000      1.14812600      0.00000000
   AL         0.00000000      0.00000000     -1.31372300
   C          1.75853000      0.00000000     -2.19220200
   H          0.00000000     -1.14812600      0.00000000
   C         -1.75853000      0.00000000     -2.19220200
   H         -1.88047800     -0.87780100     -2.83052300
   H         -2.57966300      0.00000000     -1.47383800
   H         -1.88047800      0.87780100     -2.83052300
   H          1.88047800     -0.87780100     -2.83052300
   H          1.88047800      0.87780100     -2.83052300
   H          2.57966300      0.00000000     -1.47383800
   H         -1.88047800     -0.87780100      2.83052300
   H         -1.88047800      0.87780100      2.83052300
   H         -2.57966300      0.00000000      1.47383800
   H          1.88047800     -0.87780100      2.83052300
   H          2.57966300      0.00000000      1.47383800
   H          1.88047800      0.87780100      2.83052300
$end


$rem
N_FROZEN_CORE FC
MEM_TOTAL 15000
MEM_STATIC 6000
AUX_BASIS_CORR rimp2-def2-QZVPPD
SCF_CONVERGENCE 7
SCF_ALGORITHM  GDM
method DSD-PBEPBE-D3
GEN_SCFMAN TRUE
UNRESTRICTED True
THRESH  14
SYMMETRY FALSE
SYM_IGNORE TRUE
max_scf_cycles 200

XC_GRID 000099000590
BASIS DEF2-QZVPPD


$end










