$molecule
0 1
   AL         0.00000000      0.00000000     -1.30656400
   AL         0.00000000      0.00000000      1.30656400
   H          0.00000000      1.14549300      0.00000000
   H          0.00000000     -1.14549300      0.00000000
   H          1.41072100      0.00000000     -1.99677300
   H         -1.41072100      0.00000000     -1.99677300
   H         -1.41072100      0.00000000      1.99677300
   H          1.41072100      0.00000000      1.99677300
$end


$rem
N_FROZEN_CORE FC
MEM_TOTAL 3750
MEM_STATIC 1500
AUX_BASIS_CORR rimp2-def2-QZVPPD
SCF_CONVERGENCE 7
SCF_ALGORITHM  GDM
method DSD-PBEPBE-D3
GEN_SCFMAN TRUE
UNRESTRICTED True
THRESH  14
SYMMETRY FALSE
SYM_IGNORE TRUE
max_scf_cycles 200

XC_GRID 000099000590
BASIS DEF2-QZVPPD


$end










