$molecule
0 1
   C          0.00000000      2.41233300     -1.62084492
   AL         0.00000000      1.30756600      0.00944308
   C          0.00000000      2.05852500      1.83323408
   C         -1.69230800      0.00000000     -0.22299592
   AL         0.00000000     -1.30756600      0.00944308
   C          0.00000000     -2.41233300     -1.62084492
   C          1.69230800      0.00000000     -0.22299592
   C          0.00000000     -2.05852500      1.83323408
   H          0.87649900     -2.68848000      2.00708608
   H          0.00000000     -1.28808800      2.60730908
   H         -0.87649900     -2.68848000      2.00708608
   H          0.87717000     -3.06285200     -1.66447392
   H         -0.87717000     -3.06285200     -1.66447392
   H          0.00000000     -1.80746300     -2.53042792
   H          0.87649900      2.68848000      2.00708608
   H         -0.87649900      2.68848000      2.00708608
   H          0.00000000      1.28808800      2.60730908
   H          0.87717000      3.06285200     -1.66447392
   H          0.00000000      1.80746300     -2.53042792
   H         -0.87717000      3.06285200     -1.66447392
   H          1.98499300      0.00000000     -1.27297992
   H          2.19790300     -0.84782500      0.25601908
   H          2.19790300      0.84782500      0.25601908
   H         -1.98499300      0.00000000     -1.27297992
   H         -2.19790300      0.84782500      0.25601908
   H         -2.19790300     -0.84782500      0.25601908
$end


$rem
N_FROZEN_CORE FC
MEM_TOTAL 30000
MEM_STATIC 8000
AUX_BASIS_CORR rimp2-def2-QZVPPD
SCF_CONVERGENCE 7
SCF_ALGORITHM  GDM
method DSD-PBEPBE-D3
GEN_SCFMAN TRUE
UNRESTRICTED True
THRESH  14
SYMMETRY FALSE
SYM_IGNORE TRUE
max_scf_cycles 200

XC_GRID 000099000590
BASIS DEF2-QZVPPD


$end










