$molecule
0 1
Li    0.8400478   -0.8400478    0.8400478 
Li   -0.8400478    0.8400478    0.8400478 
Li   -0.8400478   -0.8400478   -0.8400478 
Li    0.8400478    0.8400478   -0.8400478 
C    -1.2620881   -1.2620881    1.2620881 
C     1.2620881   -1.2620881   -1.2620881 
C    -1.2620881    1.2620881   -1.2620881 
C     1.2620881    1.2620881    1.2620881 
H    -2.3468341   -1.1299156    1.1299156 
H    -1.1299156   -2.3468341    1.1299156 
H    -1.1299156   -1.1299156    2.3468341 
H     1.1299156    2.3468341    1.1299156 
H     1.1299156    1.1299156    2.3468341 
H     2.3468341    1.1299156    1.1299156 
H     1.1299156   -1.1299156   -2.3468341 
H     2.3468341   -1.1299156   -1.1299156 
H     1.1299156   -2.3468341   -1.1299156 
H    -1.1299156    1.1299156   -2.3468341 
H    -2.3468341    1.1299156   -1.1299156 
H    -1.1299156    2.3468341   -1.1299156 
$end


$rem
N_FROZEN_CORE FC
MEM_TOTAL 7500
MEM_STATIC 3000
AUX_BASIS_CORR rimp2-def2-QZVPPD
SCF_CONVERGENCE 7
SCF_ALGORITHM  GDM
method DSD-PBEPBE-D3
GEN_SCFMAN TRUE
UNRESTRICTED True
THRESH  14
SYMMETRY FALSE
SYM_IGNORE TRUE
max_scf_cycles 200

XC_GRID 000099000590
BASIS DEF2-QZVPPD


$end










