$molecule
0 1
Na   -0.0000000   -1.4299872   -0.0035112 
Li    0.0000000    1.1385615    0.0028029 
H    -1.4397499    0.1457128    0.0003542 
H     1.4397499    0.1457128    0.0003542 
$end


$rem
N_FROZEN_CORE FC
MEM_TOTAL 3750
MEM_STATIC 1500
AUX_BASIS_CORR rimp2-def2-QZVPPD
SCF_CONVERGENCE 7
SCF_ALGORITHM  GDM
method DSD-PBEPBE-D3
GEN_SCFMAN TRUE
UNRESTRICTED True
THRESH  14
SYMMETRY FALSE
SYM_IGNORE TRUE
max_scf_cycles 200

XC_GRID 000099000590
BASIS DEF2-QZVPPD


$end










