$molecule
0 1
C    -0.0000000    0.0000000   -0.1355349 
Li    0.0000000    0.0000000    1.8389425 
H    -0.5035124    0.8721091   -0.5678726 
H    -0.5035124   -0.8721091   -0.5678726 
H     1.0070249    0.0000000   -0.5678726 
$end


$rem
N_FROZEN_CORE FC
MEM_TOTAL 3750
MEM_STATIC 1500
AUX_BASIS_CORR rimp2-def2-QZVPPD
SCF_CONVERGENCE 7
SCF_ALGORITHM  GDM
method DSD-PBEPBE-D3
GEN_SCFMAN TRUE
UNRESTRICTED True
THRESH  14
SYMMETRY FALSE
SYM_IGNORE TRUE
max_scf_cycles 200

XC_GRID 000099000590
BASIS DEF2-QZVPPD


$end










