$molecule
0 1
C    -2.2672042   -1.2336456   -0.0021687 
H    -2.8073993   -1.5228670    0.8952294 
C    -1.8664339    0.0963059    0.0018329 
H    -2.7953434   -1.5210411   -0.9073265 
N    -1.4164892    1.1752514    0.0060550 
Li   -0.2861359   -1.9726867    0.0063779 
C     2.2672042    1.2336456   -0.0021687 
H     2.8073993    1.5228670    0.8952294 
C     1.8664339   -0.0963059    0.0018329 
H     2.7953434    1.5210411   -0.9073265 
N     1.4164892   -1.1752514    0.0060550 
Li    0.2861359    1.9726867    0.0063779 
$end


$rem
N_FROZEN_CORE FC
MEM_TOTAL 3750
MEM_STATIC 1500
AUX_BASIS_CORR rimp2-def2-QZVPPD
SCF_CONVERGENCE 7
SCF_ALGORITHM  GDM
method DSD-PBEPBE-D3
GEN_SCFMAN TRUE
UNRESTRICTED True
THRESH  14
SYMMETRY FALSE
SYM_IGNORE TRUE
max_scf_cycles 200

XC_GRID 000099000590
BASIS DEF2-QZVPPD


$end










