$molecule
0 1
C     0.0221521    0.9322105    0.0000000 
Li   -0.0846323   -3.6131345    0.0000000 
H    -0.9408839    1.4659113    0.0000000 
H     0.5339901    1.3618377   -0.8736898 
H     0.5339901    1.3618377    0.8736898 
Li    1.1637452   -0.7805582    0.0000000 
Li   -1.2283611   -0.7281045    0.0000000 
$end


$rem
N_FROZEN_CORE FC
MEM_TOTAL 3750
MEM_STATIC 1500
AUX_BASIS_CORR rimp2-def2-QZVPPD
SCF_CONVERGENCE 7
SCF_ALGORITHM  GDM
method DSD-PBEPBE-D3
GEN_SCFMAN TRUE
UNRESTRICTED True
THRESH  14
SYMMETRY FALSE
SYM_IGNORE TRUE
max_scf_cycles 200

XC_GRID 000099000590
BASIS DEF2-QZVPPD


$end










