$molecule
0 1
C    -0.5934616   -0.0828801    2.1976505 
C     0.5934616    0.0828801    2.1976505 
C     2.5657378    0.4795932   -1.2562971 
C     1.5016280    0.9242954   -0.9287088 
C    -2.5657378   -0.4795932   -1.2562971 
C    -1.5016280   -0.9242954   -0.9287088 
H    -1.6464558   -0.2314043    2.1854517 
H     1.6464558    0.2314043    2.1854517 
H     3.5092755    0.0890095   -1.5537781 
H     0.5528529    1.3075657   -0.6343544 
H    -3.5092755   -0.0890095   -1.5537781 
H    -0.5528529   -1.3075657   -0.6343544 
$end


$rem
N_FROZEN_CORE FC
MEM_TOTAL 3750
MEM_STATIC 1500
AUX_BASIS_CORR rimp2-def2-QZVPPD
SCF_CONVERGENCE 7
SCF_ALGORITHM  GDM
method DSD-PBEPBE-D3
GEN_SCFMAN TRUE
UNRESTRICTED True
THRESH  14
SYMMETRY FALSE
SYM_IGNORE TRUE
max_scf_cycles 200

XC_GRID 000099000590
BASIS DEF2-QZVPPD


$end










