$molecule
0 1
C       -0.000000    2.874398   -0.323485 
H       -0.000000    3.385117    0.631698 
H       -0.000000    3.492141   -1.210236 
C       -0.000000    1.539951   -0.398036 
H       -0.000000    1.075585   -1.377015 
C       -0.000000    0.674047    0.760621 
H       -0.000000    1.178768    1.720953 
C       -0.000000   -0.674047    0.760621 
H       -0.000000   -1.178768    1.720953 
C       -0.000000   -1.539951   -0.398036 
H       -0.000000   -1.075585   -1.377015 
C       -0.000000   -2.874398   -0.323485 
H       -0.000000   -3.385117    0.631698 
H       -0.000000   -3.492141   -1.210236 
$end


$rem
N_FROZEN_CORE FC
MEM_TOTAL 3750
MEM_STATIC 1500
AUX_BASIS_CORR rimp2-def2-QZVPPD
SCF_CONVERGENCE 7
SCF_ALGORITHM  GDM
method DSD-PBEPBE-D3
GEN_SCFMAN TRUE
UNRESTRICTED True
THRESH  14
SYMMETRY FALSE
SYM_IGNORE TRUE
max_scf_cycles 200

XC_GRID 000099000590
BASIS DEF2-QZVPPD


$end










