$molecule
0 1
C    0.6533690   0.0693460  -0.0003480
C   -1.4309430  -0.6163080   0.1067110
O   -1.3809080   0.7856450  -0.0956930
N   -0.0018230   1.1592650   0.0441200
C    2.1281920  -0.0594010   0.0216720
H    2.4456950  -0.6641640   0.8715330
H    2.4701370  -0.5558130  -0.8876390
H    2.5803130   0.9260620   0.0864270
H   -1.7217180  -0.8565670   1.1372560
H   -2.1010480  -1.0742440  -0.6185630
O   -0.0896330  -1.0671390  -0.1125650
$end


$rem
N_FROZEN_CORE FC
MEM_TOTAL 3750
MEM_STATIC 1500
AUX_BASIS_CORR rimp2-def2-QZVPPD
SCF_CONVERGENCE 7
SCF_ALGORITHM  GDM
method DSD-PBEPBE-D3
GEN_SCFMAN TRUE
UNRESTRICTED True
THRESH  14
SYMMETRY FALSE
SYM_IGNORE TRUE
max_scf_cycles 200

XC_GRID 000099000590
BASIS DEF2-QZVPPD


$end










