$molecule
0 1
H       -0.886815    1.242017   -1.140582 
C        0.000000    0.784676   -0.698625 
C       -0.000000   -0.784676   -0.698625 
C        0.000000    0.667583    0.812457 
C       -0.000000   -0.667583    0.812457 
H        0.886815   -1.242017   -1.140582 
H        0.000000   -1.411149    1.598168 
H        0.886815    1.242017   -1.140582 
H       -0.886815   -1.242017   -1.140582 
H        0.000000    1.411149    1.598168 
$end


$rem
N_FROZEN_CORE FC
MEM_TOTAL 3750
MEM_STATIC 1500
AUX_BASIS_CORR rimp2-def2-QZVPPD
SCF_CONVERGENCE 7
SCF_ALGORITHM  GDM
method DSD-PBEPBE-D3
GEN_SCFMAN TRUE
UNRESTRICTED True
THRESH  14
SYMMETRY FALSE
SYM_IGNORE TRUE
max_scf_cycles 200

XC_GRID 000099000590
BASIS DEF2-QZVPPD


$end










