$molecule
0 1
C       -0.105688   -1.198939    1.125941 
C        0.186624    0.119580    1.471254 
C       -0.105688    1.237852    0.701120 
C       -0.105688    1.237852   -0.701120 
C        0.186624    0.119580   -1.471254 
C       -0.105688   -1.198939   -1.125941 
H        0.829843    0.290911    2.330561 
H       -0.007195    2.209579    1.171191 
H       -0.007195    2.209579   -1.171191 
H        0.829843    0.290911   -2.330561 
H        0.451832   -1.992121   -1.612986 
H       -1.125971   -1.459328   -0.923124 
H        0.451832   -1.992121    1.612986 
H       -1.125971   -1.459328    0.923124 
$end


$rem
N_FROZEN_CORE FC
MEM_TOTAL 7500
MEM_STATIC 3000
AUX_BASIS_CORR rimp2-def2-QZVPPD
SCF_CONVERGENCE 7
SCF_ALGORITHM  GDM
method DSD-PBEPBE-D3
GEN_SCFMAN TRUE
UNRESTRICTED True
THRESH  14
SYMMETRY FALSE
SYM_IGNORE TRUE
max_scf_cycles 200

XC_GRID 000099000590
BASIS DEF2-QZVPPD


$end










