$molecule
0 1
H 0.000000 1.610008 0.000000
H 1.531209 0.497520 0.000000
H 0.946339 -1.302524 0.000000
H -1.531209 0.497520 0.000000
H -0.946339 -1.302524 0.000000
F 1.847845 -0.600401 0.000000
F 1.142031 1.571871 0.000000
F -1.142031 1.571871 0.000000
F 0.000000 -1.942939 0.000000
F -1.847845 -0.600401 0.000000
$end


$rem
N_FROZEN_CORE FC
MEM_TOTAL 3750
MEM_STATIC 1500
AUX_BASIS_CORR rimp2-def2-QZVPPD
SCF_CONVERGENCE 7
SCF_ALGORITHM  GDM
method DSD-PBEPBE-D3
GEN_SCFMAN TRUE
UNRESTRICTED True
THRESH  14
SYMMETRY FALSE
SYM_IGNORE TRUE
max_scf_cycles 200

XC_GRID 000099000590
BASIS DEF2-QZVPPD


$end










