$molecule
0 1
H -1.710690 -0.579609 0.003110
H -0.579609 1.710690 -0.003110
H 2.081757 1.949474 -0.823544
H -2.081757 -1.949474 -0.823544
H -1.949474 2.081757 0.823544
H 1.710690 0.579609 0.003110
H 0.579609 -1.710690 -0.003110
H 1.949474 -2.081757 0.823544
N -1.596691 1.596691 0.006345
N -1.596691 -1.596691 -0.006345
N 1.596691 1.596691 -0.006345
N 1.596691 -1.596691 0.006345
H 2.084236 1.965445 0.802282
H -1.965445 2.084236 -0.802282
H -2.084236 -1.965445 0.802282
H 1.965445 -2.084236 -0.802282
$end


$rem
N_FROZEN_CORE FC
MEM_TOTAL 3750
MEM_STATIC 1500
AUX_BASIS_CORR rimp2-def2-QZVPPD
SCF_CONVERGENCE 7
SCF_ALGORITHM  GDM
method DSD-PBEPBE-D3
GEN_SCFMAN TRUE
UNRESTRICTED True
THRESH  14
SYMMETRY FALSE
SYM_IGNORE TRUE
max_scf_cycles 200

XC_GRID 000099000590
BASIS DEF2-QZVPPD


$end










