$molecule
0 1
C       -1.445489    0.598499    0.018740 
C       -1.373643   -0.759311   -0.010791 
N        1.021992   -1.083845   -0.121466 
N        1.264410    0.141429    0.019460 
C        0.736712    1.226482    0.050915 
H       -1.613997    1.157364   -0.892631 
H       -1.647787    1.122829    0.941207 
H       -1.401327   -1.305970   -0.939718 
H       -1.449189   -1.343646    0.894804 
H        1.507424   -1.628558    0.591931 
H        1.094578    2.200866   -0.234734 
$end


$rem
N_FROZEN_CORE FC
MEM_TOTAL 3750
MEM_STATIC 1500
AUX_BASIS_CORR rimp2-def2-QZVPPD
SCF_CONVERGENCE 7
SCF_ALGORITHM  GDM
method DSD-PBEPBE-D3
GEN_SCFMAN TRUE
UNRESTRICTED True
THRESH  14
SYMMETRY FALSE
SYM_IGNORE TRUE
max_scf_cycles 200

XC_GRID 000099000590
BASIS DEF2-QZVPPD


$end










