$molecule
0 1
C   -0.6762780  -0.1553570  -0.0070500
C    2.1196570   0.0400250   0.2833420
O    1.8107940  -0.9876040  -0.2971170
N   -0.2866830  -1.3290020   0.0235470
S   -0.2936520   1.4556340  -0.0794980
C   -2.2355860  -0.6894780   0.0732860
H   -2.6045820  -0.2168460   0.9769270
H   -2.6665950  -0.2816880  -0.8349460
H   -2.3790320  -1.7636870   0.1144170
H    1.8598970   0.2174250   1.3330780
H    2.7624150   0.7873610  -0.2028680
$end


$rem
N_FROZEN_CORE FC
MEM_TOTAL 3750
MEM_STATIC 1500
AUX_BASIS_CORR rimp2-def2-QZVPPD
SCF_CONVERGENCE 7
SCF_ALGORITHM  GDM
method DSD-PBEPBE-D3
GEN_SCFMAN TRUE
UNRESTRICTED True
THRESH  14
SYMMETRY FALSE
SYM_IGNORE TRUE
max_scf_cycles 200

XC_GRID 000099000590
BASIS DEF2-QZVPPD


$end










