$molecule
0 1
C        1.152770   -0.294600    0.000000 
H        1.155682   -1.371011    0.000000 
H        2.048339    0.299460    0.000000 
N        0.000000    0.330087    0.000000 
H        0.081539    1.346952    0.000000 
N       -1.192582   -0.198701    0.000000 
H       -1.854103    0.572493    0.000000 
$end


$rem
N_FROZEN_CORE FC
MEM_TOTAL 3750
MEM_STATIC 1500
AUX_BASIS_CORR rimp2-def2-QZVPPD
SCF_CONVERGENCE 7
SCF_ALGORITHM  GDM
method DSD-PBEPBE-D3
GEN_SCFMAN TRUE
UNRESTRICTED True
THRESH  14
SYMMETRY FALSE
SYM_IGNORE TRUE
max_scf_cycles 200

XC_GRID 000099000590
BASIS DEF2-QZVPPD


$end










