$molecule
0 1
C     1.6836471    0.6105785    0.0000000 
C     1.6836471   -0.6105785    0.0000000 
C    -0.3130471   -1.7633704    0.0000000 
C    -1.3706000   -1.1527919    0.0000000 
C    -1.3706000    1.1527919    0.0000000 
C    -0.3130471    1.7633704    0.0000000 
H     2.1448223    1.5689895    0.0000000 
H     2.1448223   -1.5689895    0.0000000 
H     0.2863736   -2.6419654    0.0000000 
H    -2.4311959   -1.0729759    0.0000000 
H    -2.4311959    1.0729759    0.0000000 
H     0.2863736    2.6419654    0.0000000 
$end


$rem
N_FROZEN_CORE FC
MEM_TOTAL 3750
MEM_STATIC 1500
AUX_BASIS_CORR rimp2-def2-QZVPPD
SCF_CONVERGENCE 7
SCF_ALGORITHM  GDM
method DSD-PBEPBE-D3
GEN_SCFMAN TRUE
UNRESTRICTED True
THRESH  14
SYMMETRY FALSE
SYM_IGNORE TRUE
max_scf_cycles 200

XC_GRID 000099000590
BASIS DEF2-QZVPPD


$end










