$molecule
0 1
O -1.703649 0.000000 0.039217
H 0.935877 0.935877 0.000000
H -0.935877 0.935877 0.000000
O 0.000000 1.703649 -0.039217
H -0.935877 -0.935877 0.000000
O 0.000000 -1.703649 -0.039217
H 0.935877 -0.935877 0.000000
O 1.703649 0.000000 0.039217
H 2.295559 0.000000 -0.717948
H 0.000000 2.295559 0.717948
H -2.295559 0.000000 -0.717948
H 0.000000 -2.295559 0.717948
$end


$rem
N_FROZEN_CORE FC
MEM_TOTAL 3750
MEM_STATIC 1500
AUX_BASIS_CORR rimp2-def2-QZVPPD
SCF_CONVERGENCE 7
SCF_ALGORITHM  GDM
method DSD-PBEPBE-D3
GEN_SCFMAN TRUE
UNRESTRICTED True
THRESH  14
SYMMETRY FALSE
SYM_IGNORE TRUE
max_scf_cycles 200

XC_GRID 000099000590
BASIS DEF2-QZVPPD


$end










