$molecule
0 1
C       -1.318514   -0.608777    0.001769 
C       -1.218572    0.769008    0.016246 
N        0.873795    1.009163   -0.103101 
N        1.228034   -0.202249    0.020287 
N        0.690173   -1.234730    0.002762 
H       -1.537599   -1.148582    0.910412 
H       -1.545436   -1.123495   -0.920460 
H       -1.342952    1.314548    0.940742 
H       -1.368355    1.339003   -0.887303 
H        1.472849    1.651857    0.408883 
$end


$rem
N_FROZEN_CORE FC
MEM_TOTAL 3750
MEM_STATIC 1500
AUX_BASIS_CORR rimp2-def2-QZVPPD
SCF_CONVERGENCE 7
SCF_ALGORITHM  GDM
method DSD-PBEPBE-D3
GEN_SCFMAN TRUE
UNRESTRICTED True
THRESH  14
SYMMETRY FALSE
SYM_IGNORE TRUE
max_scf_cycles 200

XC_GRID 000099000590
BASIS DEF2-QZVPPD


$end










