$molecule
0 1
C        0.015653   -0.901043    1.314849 
C        0.015653   -0.901043   -1.314849 
C        0.015653    0.504816    1.206620 
C        0.015653    0.504816   -1.206620 
C       -0.144869    1.177930   -0.000000 
H        0.508875   -1.202194    0.000000 
H        0.509740   -1.321319    2.186230 
H        0.509740   -1.321319   -2.186230 
H       -0.879021   -1.452378    1.052501 
H       -0.879021   -1.452378   -1.052501 
H        0.399409    1.089412    2.036138 
H        0.399409    1.089412   -2.036138 
H       -0.075587    2.257915   -0.000000 
$end


$rem
N_FROZEN_CORE FC
MEM_TOTAL 3750
MEM_STATIC 1500
AUX_BASIS_CORR rimp2-def2-QZVPPD
SCF_CONVERGENCE 7
SCF_ALGORITHM  GDM
method DSD-PBEPBE-D3
GEN_SCFMAN TRUE
UNRESTRICTED True
THRESH  14
SYMMETRY FALSE
SYM_IGNORE TRUE
max_scf_cycles 200

XC_GRID 000099000590
BASIS DEF2-QZVPPD


$end










