$molecule
0 1
C    1.0670700  -0.3707980   0.0203240
C   -1.1157700  -0.2391350   0.0818600
O   -0.5375810   1.0476190  -0.0910200
N    0.8796290   0.8825180   0.0468300
H   -1.5250960  -0.3541030   1.0922990
H   -1.8688070  -0.4165430  -0.6838620
H    2.0352290  -0.8416620   0.0533630
O   -0.0257360  -1.1608350  -0.0843190
$end


$rem
N_FROZEN_CORE FC
MEM_TOTAL 3750
MEM_STATIC 1500
AUX_BASIS_CORR rimp2-def2-QZVPPD
SCF_CONVERGENCE 7
SCF_ALGORITHM  GDM
method DSD-PBEPBE-D3
GEN_SCFMAN TRUE
UNRESTRICTED True
THRESH  14
SYMMETRY FALSE
SYM_IGNORE TRUE
max_scf_cycles 200

XC_GRID 000099000590
BASIS DEF2-QZVPPD


$end










