$molecule
0 1
C        1.075716   -0.380570    0.000000 
H        0.972833   -1.452990    0.000000 
H        2.025942    0.126185    0.000000 
N        0.000000    0.346783    0.000000 
H        0.154561    1.364193    0.000000 
O       -1.200954   -0.022682    0.000000 
$end


$rem
N_FROZEN_CORE FC
MEM_TOTAL 3750
MEM_STATIC 1500
AUX_BASIS_CORR rimp2-def2-QZVPPD
SCF_CONVERGENCE 7
SCF_ALGORITHM  GDM
method DSD-PBEPBE-D3
GEN_SCFMAN TRUE
UNRESTRICTED True
THRESH  14
SYMMETRY FALSE
SYM_IGNORE TRUE
max_scf_cycles 200

XC_GRID 000099000590
BASIS DEF2-QZVPPD


$end










