$molecule
0 1
C        0.267466    1.437404   -0.000000 
C       -0.267466   -1.437404   -0.000000 
C       -0.267466    1.021127    1.214422 
C        0.267466   -1.021127   -1.214422 
C       -0.267466    1.021127   -1.214422 
C        0.267466   -1.021127    1.214422 
H        0.194585    1.343307    2.138738 
H       -0.194585   -1.343307   -2.138738 
H       -1.330944    0.838852    1.287615 
H        1.330944   -0.838852   -1.287615 
H       -1.330944    0.838852   -1.287615 
H        1.330944   -0.838852    1.287615 
H        0.194585    1.343307   -2.138738 
H       -0.194585   -1.343307    2.138738 
H        1.283894    1.817991   -0.000000 
H       -1.283894   -1.817991   -0.000000 
$end


$rem
N_FROZEN_CORE FC
MEM_TOTAL 7500
MEM_STATIC 3000
AUX_BASIS_CORR rimp2-def2-QZVPPD
SCF_CONVERGENCE 7
SCF_ALGORITHM  GDM
method DSD-PBEPBE-D3
GEN_SCFMAN TRUE
UNRESTRICTED True
THRESH  14
SYMMETRY FALSE
SYM_IGNORE TRUE
max_scf_cycles 200

XC_GRID 000099000590
BASIS DEF2-QZVPPD


$end










