$molecule
0 1
C        0.600210    1.742159    0.000000 
C        0.600210    0.408204    0.000000 
C       -0.600210   -0.408204    0.000000 
H        1.545641   -0.125648    0.000000 
H       -1.545641    0.125648   -0.000000 
C       -0.600210   -1.742159    0.000000 
H        0.324993   -2.305266   -0.000000 
H        1.519630    2.310308    0.000000 
H       -0.324993    2.305266   -0.000000 
H       -1.519630   -2.310308    0.000000 
$end


$rem
N_FROZEN_CORE FC
MEM_TOTAL 3750
MEM_STATIC 1500
AUX_BASIS_CORR rimp2-def2-QZVPPD
SCF_CONVERGENCE 7
SCF_ALGORITHM  GDM
method DSD-PBEPBE-D3
GEN_SCFMAN TRUE
UNRESTRICTED True
THRESH  14
SYMMETRY FALSE
SYM_IGNORE TRUE
max_scf_cycles 200

XC_GRID 000099000590
BASIS DEF2-QZVPPD


$end










