$molecule
0 1
C        0.096140   -1.170411    0.000000 
N        0.000000    0.099792   -0.000000 
C       -0.240139    1.289479   -0.000000 
H        0.134298   -1.701851    0.939844 
H        0.134298   -1.701851   -0.939844 
H        0.595397    1.990750   -0.000000 
$end


$rem
N_FROZEN_CORE FC
MEM_TOTAL 3750
MEM_STATIC 1500
AUX_BASIS_CORR rimp2-def2-QZVPPD
SCF_CONVERGENCE 7
SCF_ALGORITHM  GDM
method DSD-PBEPBE-D3
GEN_SCFMAN TRUE
UNRESTRICTED True
THRESH  14
SYMMETRY FALSE
SYM_IGNORE TRUE
max_scf_cycles 200

XC_GRID 000099000590
BASIS DEF2-QZVPPD


$end










