$molecule
0 1
C        0.499998   -0.425061    1.426197 
C        0.499998   -0.425061   -1.426197 
C       -0.261463   -1.315253    0.698997 
C       -0.261463   -1.315253   -0.698997 
C       -0.261463    1.547060    0.691490 
C       -0.261463    1.547060   -0.691490 
H        0.385246   -0.367998    2.500257 
H        1.455519   -0.088617    1.055196 
H        0.385246   -0.367998   -2.500257 
H        1.455519   -0.088617   -1.055196 
H       -1.035048   -1.877129    1.209138 
H       -1.035048   -1.877129   -1.209138 
H        0.519923    2.067039    1.227311 
H       -1.188074    1.426230    1.230646 
H        0.519923    2.067039   -1.227311 
H       -1.188074    1.426230   -1.230646 
$end


$rem
N_FROZEN_CORE FC
MEM_TOTAL 7500
MEM_STATIC 3000
AUX_BASIS_CORR rimp2-def2-QZVPPD
SCF_CONVERGENCE 7
SCF_ALGORITHM  GDM
method DSD-PBEPBE-D3
GEN_SCFMAN TRUE
UNRESTRICTED True
THRESH  14
SYMMETRY FALSE
SYM_IGNORE TRUE
max_scf_cycles 200

XC_GRID 000099000590
BASIS DEF2-QZVPPD


$end










