$molecule
0 1
C    -1.2797608    0.0000000   -0.6723207 
C    -1.1948914    0.0000000    0.6825489 
B     0.0000000    0.0000000   -1.4931833 
N     0.0000000    0.0000000    1.3275112 
C     1.1948914    0.0000000    0.6825489 
C     1.2797608    0.0000000   -0.6723207 
H     0.0000000    0.0000000   -2.6888907 
H     2.2802929    0.0000000   -1.0904151 
H     2.0567974    0.0000000    1.3407333 
H     0.0000000    0.0000000    2.3328861 
H    -2.0567974    0.0000000    1.3407333 
H    -2.2802929    0.0000000   -1.0904151 
$end


$rem
N_FROZEN_CORE FC
MEM_TOTAL 3750
MEM_STATIC 1500
AUX_BASIS_CORR rimp2-def2-QZVPPD
SCF_CONVERGENCE 7
SCF_ALGORITHM  GDM
method DSD-PBEPBE-D3
GEN_SCFMAN TRUE
UNRESTRICTED True
THRESH  14
SYMMETRY FALSE
SYM_IGNORE TRUE
max_scf_cycles 200

XC_GRID 000099000590
BASIS DEF2-QZVPPD


$end










