$molecule
0 1
C        0.210555   -0.490070    0.555764 
C       -0.210555    0.490070   -0.555764 
C        0.439700    0.180991   -1.867947 
C       -0.202425   -0.149585   -2.980780 
C       -0.439700   -0.180991    1.867947 
C        0.202425    0.149585    2.980780 
H       -0.059757   -1.502257    0.239596 
H        1.297140   -0.473371    0.668505 
H       -1.297140    0.473371   -0.668505 
H        0.059757    1.502257   -0.239596 
H        1.525710    0.223487   -1.879456 
H       -1.284114   -0.206835   -3.013315 
H        0.325883   -0.371522   -3.898246 
H       -1.525710   -0.223487    1.879456 
H       -0.325883    0.371522    3.898246 
H        1.284114    0.206835    3.013315 
$end


$rem
N_FROZEN_CORE FC
MEM_TOTAL 7500
MEM_STATIC 3000
AUX_BASIS_CORR rimp2-def2-QZVPPD
SCF_CONVERGENCE 7
SCF_ALGORITHM  GDM
method DSD-PBEPBE-D3
GEN_SCFMAN TRUE
UNRESTRICTED True
THRESH  14
SYMMETRY FALSE
SYM_IGNORE TRUE
max_scf_cycles 200

XC_GRID 000099000590
BASIS DEF2-QZVPPD


$end










