$molecule
0 1
H 0.285998 1.756818 0.000000
H 1.759211 0.270887 0.000000
H -1.264009 -1.253190 0.000000
H -1.582455 0.814887 0.000000
H 0.801255 -1.589401 0.000000
F 1.699610 1.234839 0.000000
F -0.649193 1.998011 0.000000
F -0.649193 -1.998011 0.000000
F -2.100833 0.000000 0.000000
F 1.699610 -1.234839 0.000000
$end


$rem
N_FROZEN_CORE FC
MEM_TOTAL 3750
MEM_STATIC 1500
AUX_BASIS_CORR rimp2-def2-QZVPPD
SCF_CONVERGENCE 7
SCF_ALGORITHM  GDM
method DSD-PBEPBE-D3
GEN_SCFMAN TRUE
UNRESTRICTED True
THRESH  14
SYMMETRY FALSE
SYM_IGNORE TRUE
max_scf_cycles 200

XC_GRID 000099000590
BASIS DEF2-QZVPPD


$end










