$molecule
0 1
C    -0.7184417   -0.3002624   -1.3415095 
C     0.5990982   -0.1959236   -1.2462078 
B    -1.0586319    0.4780889    0.0000000 
N     0.9070790    0.4666427    0.0000000 
C     0.5990982   -0.1959236    1.2462078 
C    -0.7184417   -0.3002624    1.3415095 
H    -1.5040560    1.5877572    0.0000000 
H    -1.2693859   -0.8296936    2.1051986 
H     1.4016927   -0.5307005    1.8963227 
H     1.6491416    1.1506652    0.0000000 
H     1.4016927   -0.5307005   -1.8963227 
H    -1.2693859   -0.8296936   -2.1051986 
$end


$rem
N_FROZEN_CORE FC
MEM_TOTAL 3750
MEM_STATIC 1500
AUX_BASIS_CORR rimp2-def2-QZVPPD
SCF_CONVERGENCE 7
SCF_ALGORITHM  GDM
method DSD-PBEPBE-D3
GEN_SCFMAN TRUE
UNRESTRICTED True
THRESH  14
SYMMETRY FALSE
SYM_IGNORE TRUE
max_scf_cycles 200

XC_GRID 000099000590
BASIS DEF2-QZVPPD


$end










