$molecule
0 1
C   -1.1983100  -0.1524910   0.0417170
C    1.5160650   0.5676360   0.2389170
O    1.2597460  -0.4779380  -0.3261910
N   -0.4434510  -1.1810180   0.1426900
H    0.9893370   0.8876460   1.1404480
H    2.3198180   1.2019200  -0.1550940
H   -2.0926690  -0.8464040   0.2979180
O   -1.2621040   1.0445750  -0.1695470
$end


$rem
N_FROZEN_CORE FC
MEM_TOTAL 3750
MEM_STATIC 1500
AUX_BASIS_CORR rimp2-def2-QZVPPD
SCF_CONVERGENCE 7
SCF_ALGORITHM  GDM
method DSD-PBEPBE-D3
GEN_SCFMAN TRUE
UNRESTRICTED True
THRESH  14
SYMMETRY FALSE
SYM_IGNORE TRUE
max_scf_cycles 200

XC_GRID 000099000590
BASIS DEF2-QZVPPD


$end










