$molecule
0 1
C    0.0000000   1.1071930   0.0000000
C   -0.4691930  -1.7262040   0.0000000
O   -1.4219260  -0.9993630   0.0000000
N   -1.2424250   0.9576370   0.0000000
S    1.3391590   0.1109700   0.0000000
C    0.0597860   2.6819730   0.0000000
H    0.6041100   2.9524400   0.9003970
H    0.6041100   2.9524400  -0.9003970
H   -0.9183720   3.1562470   0.0000000
O    0.1015550  -2.7403710   0.0000000
$end


$rem
N_FROZEN_CORE FC
MEM_TOTAL 3750
MEM_STATIC 1500
AUX_BASIS_CORR rimp2-def2-QZVPPD
SCF_CONVERGENCE 7
SCF_ALGORITHM  GDM
method DSD-PBEPBE-D3
GEN_SCFMAN TRUE
UNRESTRICTED True
THRESH  14
SYMMETRY FALSE
SYM_IGNORE TRUE
max_scf_cycles 200

XC_GRID 000099000590
BASIS DEF2-QZVPPD


$end










