$molecule
0 1
C        0.801129   -1.408326    0.000000 
C       -0.556774   -1.477153    0.000000 
C       -1.237555    0.874760    0.000000 
N        0.000000    1.287138    0.000000 
C        1.168918    0.965368    0.000000 
H        1.367204   -1.502658    0.915210 
H        1.367204   -1.502658   -0.915210 
H       -1.105459   -1.633795    0.917694 
H       -1.105459   -1.633795   -0.917694 
H       -1.789491    0.934943   -0.927864 
H       -1.789491    0.934943    0.927864 
H        2.001174    1.665162    0.000000 
$end


$rem
N_FROZEN_CORE FC
MEM_TOTAL 3750
MEM_STATIC 1500
AUX_BASIS_CORR rimp2-def2-QZVPPD
SCF_CONVERGENCE 7
SCF_ALGORITHM  GDM
method DSD-PBEPBE-D3
GEN_SCFMAN TRUE
UNRESTRICTED True
THRESH  14
SYMMETRY FALSE
SYM_IGNORE TRUE
max_scf_cycles 200

XC_GRID 000099000590
BASIS DEF2-QZVPPD


$end










