$molecule
0 1
C        0.776229   -1.162970    0.000000 
C       -0.606281   -1.263319    0.000000 
O       -1.127246    0.730879    0.000000 
N        0.000000    1.229447    0.000000 
N        1.091531    0.813167    0.000000 
H        1.324190   -1.340936    0.914007 
H        1.324190   -1.340936   -0.914007 
H       -1.145405   -1.452862    0.915569 
H       -1.145405   -1.452862   -0.915569 
$end


$rem
N_FROZEN_CORE FC
MEM_TOTAL 3750
MEM_STATIC 1500
AUX_BASIS_CORR rimp2-def2-QZVPPD
SCF_CONVERGENCE 7
SCF_ALGORITHM  GDM
method DSD-PBEPBE-D3
GEN_SCFMAN TRUE
UNRESTRICTED True
THRESH  14
SYMMETRY FALSE
SYM_IGNORE TRUE
max_scf_cycles 200

XC_GRID 000099000590
BASIS DEF2-QZVPPD


$end










