$molecule
0 1
C        0.870399   -1.278202    0.000000 
C       -0.499113   -1.376291    0.000000 
C       -1.223758    0.701107    0.000000 
N        0.000000    1.261791    0.000000 
N        1.120436    1.013956    0.000000 
H        1.436819   -1.355713    0.916243 
H        1.436819   -1.355713   -0.916243 
H       -1.022209   -1.629683    0.911986 
H       -1.022209   -1.629683   -0.911986 
H       -1.778718    0.880436   -0.913965 
H       -1.778718    0.880436    0.913965 
$end


$rem
N_FROZEN_CORE FC
MEM_TOTAL 3750
MEM_STATIC 1500
AUX_BASIS_CORR rimp2-def2-QZVPPD
SCF_CONVERGENCE 7
SCF_ALGORITHM  GDM
method DSD-PBEPBE-D3
GEN_SCFMAN TRUE
UNRESTRICTED True
THRESH  14
SYMMETRY FALSE
SYM_IGNORE TRUE
max_scf_cycles 200

XC_GRID 000099000590
BASIS DEF2-QZVPPD


$end










