$molecule
0 1
C    0.0000000   1.1212890   0.0000000
C   -0.2183040  -1.3405040   0.0000000
O   -1.3830870  -0.6192110   0.0000000
N   -1.2321350   0.7737310   0.0000000
S    1.1584720  -0.1884110   0.0000000
C    0.3988980   2.5565100   0.0000000
H    0.9963470   2.7898600   0.8819490
H    0.9963470   2.7898600  -0.8819490
H   -0.4954560   3.1756680   0.0000000
O   -0.1783380  -2.5283770   0.0000000
$end


$rem
N_FROZEN_CORE FC
MEM_TOTAL 3750
MEM_STATIC 1500
AUX_BASIS_CORR rimp2-def2-QZVPPD
SCF_CONVERGENCE 7
SCF_ALGORITHM  GDM
method DSD-PBEPBE-D3
GEN_SCFMAN TRUE
UNRESTRICTED True
THRESH  14
SYMMETRY FALSE
SYM_IGNORE TRUE
max_scf_cycles 200

XC_GRID 000099000590
BASIS DEF2-QZVPPD


$end










