$molecule
0 1
O -1.370265 -1.370265 0.001600
H -1.508025 -0.396133 0.009614
H -0.396133 1.508025 -0.009614
H 1.876410 1.707325 -0.742395
H -1.876410 -1.707325 -0.742395
H -1.707325 1.876410 0.742395
H 1.508025 0.396133 0.009614
O 1.370265 1.370265 0.001600
O -1.370265 1.370265 -0.001600
H 0.396133 -1.508025 -0.009614
O 1.370265 -1.370265 -0.001600
H 1.707325 -1.876410 0.742395
$end


$rem
N_FROZEN_CORE FC
MEM_TOTAL 3750
MEM_STATIC 1500
AUX_BASIS_CORR rimp2-def2-QZVPPD
SCF_CONVERGENCE 7
SCF_ALGORITHM  GDM
method DSD-PBEPBE-D3
GEN_SCFMAN TRUE
UNRESTRICTED True
THRESH  14
SYMMETRY FALSE
SYM_IGNORE TRUE
max_scf_cycles 200

XC_GRID 000099000590
BASIS DEF2-QZVPPD


$end










