$molecule
0 1
C    0.7900030   0.2005560   0.0066950
C   -1.6378240  -0.0912410   0.2389370
O   -1.1949890   1.1925830  -0.1801430
N    0.2008050   1.3290960  -0.0225810
S   -0.2486230  -1.2334700  -0.1010010
C    2.2743960   0.0865270   0.0807120
H    2.5793300  -0.4252480   0.9939490
H    2.6522280  -0.4910660  -0.7647450
H    2.7170580   1.0794520   0.0594060
H   -1.8577630  -0.0927700   1.3096010
H   -2.5180510  -0.3542410  -0.3410380
$end


$rem
N_FROZEN_CORE FC
MEM_TOTAL 3750
MEM_STATIC 1500
AUX_BASIS_CORR rimp2-def2-QZVPPD
SCF_CONVERGENCE 7
SCF_ALGORITHM  GDM
method DSD-PBEPBE-D3
GEN_SCFMAN TRUE
UNRESTRICTED True
THRESH  14
SYMMETRY FALSE
SYM_IGNORE TRUE
max_scf_cycles 200

XC_GRID 000099000590
BASIS DEF2-QZVPPD


$end










