$molecule
0 1
C        0.024984   -0.935581   -0.742943 
C        0.024984   -0.935581    0.742943 
C        0.024984    0.410768   -1.144937 
C        0.024984    0.410768    1.144937 
C        0.028675    1.211488   -0.000000 
H       -1.034455   -1.135161    0.000000 
H        0.155751   -1.816298   -1.349858 
H        0.155751   -1.816298    1.349858 
H       -0.014192    0.753296   -2.165834 
H       -0.014192    0.753296    2.165834 
H       -0.020325    2.289989   -0.000000 
$end


$rem
N_FROZEN_CORE FC
MEM_TOTAL 3750
MEM_STATIC 1500
AUX_BASIS_CORR rimp2-def2-QZVPPD
SCF_CONVERGENCE 7
SCF_ALGORITHM  GDM
method DSD-PBEPBE-D3
GEN_SCFMAN TRUE
UNRESTRICTED True
THRESH  14
SYMMETRY FALSE
SYM_IGNORE TRUE
max_scf_cycles 200

XC_GRID 000099000590
BASIS DEF2-QZVPPD


$end










