$molecule
0 1
C    0.6112370   0.8781110   0.0482300
C   -1.3356260  -1.0194430   0.2278640
O   -1.7615960   0.0024910  -0.2939760
N   -0.4252580   1.5553560   0.0890100
S    1.4144820  -0.5569100  -0.0651010
H   -1.0756240  -1.0632920   1.2908480
H   -1.3035850  -1.9597990  -0.3387530
H    1.1634070   1.8742220   0.1616990
$end


$rem
N_FROZEN_CORE FC
MEM_TOTAL 3750
MEM_STATIC 1500
AUX_BASIS_CORR rimp2-def2-QZVPPD
SCF_CONVERGENCE 7
SCF_ALGORITHM  GDM
method DSD-PBEPBE-D3
GEN_SCFMAN TRUE
UNRESTRICTED True
THRESH  14
SYMMETRY FALSE
SYM_IGNORE TRUE
max_scf_cycles 200

XC_GRID 000099000590
BASIS DEF2-QZVPPD


$end










