$molecule
0 1
C       -1.942932   -0.900665    0.000000 
C       -1.307941    0.452658    0.000000 
C        0.000000    0.739450    0.000000 
C        1.097598   -0.209621    0.000000 
C        2.385055    0.144355    0.000000 
H       -2.000392    1.287974    0.000000 
H        0.289429    1.785570    0.000000 
H        0.850477   -1.264747    0.000000 
H        3.176179   -0.592093    0.000000 
H        2.683378    1.185732    0.000000 
H       -1.218368   -1.711827    0.000000 
H       -2.585691   -1.023839    0.875804 
H       -2.585691   -1.023839   -0.875804 
$end


$rem
N_FROZEN_CORE FC
MEM_TOTAL 3750
MEM_STATIC 1500
AUX_BASIS_CORR rimp2-def2-QZVPPD
SCF_CONVERGENCE 7
SCF_ALGORITHM  GDM
method DSD-PBEPBE-D3
GEN_SCFMAN TRUE
UNRESTRICTED True
THRESH  14
SYMMETRY FALSE
SYM_IGNORE TRUE
max_scf_cycles 200

XC_GRID 000099000590
BASIS DEF2-QZVPPD


$end










