$molecule
0 1
H       -0.874940    0.000000    1.872729 
C        0.000000    0.000000    1.212864 
C        0.000000    1.176358    0.280855 
C       -0.000000    0.732369   -0.987565 
C       -0.000000   -0.732369   -0.987565 
C       -0.000000   -1.176358    0.280855 
H        0.874940   -0.000000    1.872729 
H        0.000000   -2.204926    0.606181 
H        0.000000    2.204926    0.606181 
H       -0.000000    1.344827   -1.877240 
H       -0.000000   -1.344827   -1.877240 
$end


$rem
N_FROZEN_CORE FC
MEM_TOTAL 3750
MEM_STATIC 1500
AUX_BASIS_CORR rimp2-def2-QZVPPD
SCF_CONVERGENCE 7
SCF_ALGORITHM  GDM
method DSD-PBEPBE-D3
GEN_SCFMAN TRUE
UNRESTRICTED True
THRESH  14
SYMMETRY FALSE
SYM_IGNORE TRUE
max_scf_cycles 200

XC_GRID 000099000590
BASIS DEF2-QZVPPD


$end










