$molecule
0 1
C        1.233323    0.009589   -0.135951 
H        2.040948    0.028981    0.573499 
N        0.055324    0.014603    0.014420 
N       -1.170873   -0.137475    0.018746 
H       -1.632042    0.773585    0.010041 
$end


$rem
N_FROZEN_CORE FC
MEM_TOTAL 3750
MEM_STATIC 1500
AUX_BASIS_CORR rimp2-def2-QZVPPD
SCF_CONVERGENCE 7
SCF_ALGORITHM  GDM
method DSD-PBEPBE-D3
GEN_SCFMAN TRUE
UNRESTRICTED True
THRESH  14
SYMMETRY FALSE
SYM_IGNORE TRUE
max_scf_cycles 200

XC_GRID 000099000590
BASIS DEF2-QZVPPD


$end










