$molecule
0 1
H        1.253555   -1.445150   -1.104209 
C        0.384074   -0.994661   -0.626851 
C       -0.384074    0.994661   -0.626851 
C        0.384074   -0.566036    0.733612 
C       -0.384074    0.566036    0.733612 
H       -1.253555    1.445150   -1.104209 
H       -0.952047    1.010494    1.542268 
H       -0.555745   -1.270747   -1.078628 
H        0.555745    1.270747   -1.078628 
H        0.952047   -1.010494    1.542268 
$end


$rem
N_FROZEN_CORE FC
MEM_TOTAL 3750
MEM_STATIC 1500
AUX_BASIS_CORR rimp2-def2-QZVPPD
SCF_CONVERGENCE 7
SCF_ALGORITHM  GDM
method DSD-PBEPBE-D3
GEN_SCFMAN TRUE
UNRESTRICTED True
THRESH  14
SYMMETRY FALSE
SYM_IGNORE TRUE
max_scf_cycles 200

XC_GRID 000099000590
BASIS DEF2-QZVPPD


$end










