$molecule
0 1
C   -0.9805960  -0.0352080   0.0000000
C    1.1955140   0.2031130   0.0000000
O    0.8685760  -1.1109260   0.0000000
N   -0.5519880  -1.2386800   0.0000000
C   -2.3939700   0.3933460   0.0000000
H   -2.6030260   0.9987880   0.8822160
H   -2.6030260   0.9987880  -0.8822160
H   -3.0359240  -0.4831330   0.0000000
O    2.2789500   0.6795210   0.0000000
O    0.0000000   0.9050070   0.0000000
$end


$rem
N_FROZEN_CORE FC
MEM_TOTAL 3750
MEM_STATIC 1500
AUX_BASIS_CORR rimp2-def2-QZVPPD
SCF_CONVERGENCE 7
SCF_ALGORITHM  GDM
method DSD-PBEPBE-D3
GEN_SCFMAN TRUE
UNRESTRICTED True
THRESH  14
SYMMETRY FALSE
SYM_IGNORE TRUE
max_scf_cycles 200

XC_GRID 000099000590
BASIS DEF2-QZVPPD


$end










