$molecule
0 1
C   -0.0211260   1.2143720   0.0861400
C   -0.1086300  -1.2218440   0.1704460
O   -1.3154940  -0.5575770  -0.1896810
N   -1.2315760   0.8329400   0.0324420
S    1.2396090   0.0010990  -0.0736110
H   -0.1370880  -1.5274350   1.2190290
H    0.0170930  -2.0785540  -0.4853320
H    0.2097690   2.2632700   0.1949200
$end


$rem
N_FROZEN_CORE FC
MEM_TOTAL 3750
MEM_STATIC 1500
AUX_BASIS_CORR rimp2-def2-QZVPPD
SCF_CONVERGENCE 7
SCF_ALGORITHM  GDM
method DSD-PBEPBE-D3
GEN_SCFMAN TRUE
UNRESTRICTED True
THRESH  14
SYMMETRY FALSE
SYM_IGNORE TRUE
max_scf_cycles 200

XC_GRID 000099000590
BASIS DEF2-QZVPPD


$end










