$molecule
0 1
C    0.0000000   1.0185920   0.0000000
C    0.1312610  -1.6392820   0.0000000
O   -0.9822950  -1.2110030   0.0000000
N   -1.2380690   0.6841790   0.0000000
C   -0.1259070   2.5756800   0.0000000
H    0.3871940   2.9084820   0.8996170
H    0.3871940   2.9084820  -0.8996170
H   -1.1483330   2.9444050   0.0000000
O    1.0393890  -2.3528890   0.0000000
O    1.0689440   0.4038220   0.0000000
$end


$rem
N_FROZEN_CORE FC
MEM_TOTAL 3750
MEM_STATIC 1500
AUX_BASIS_CORR rimp2-def2-QZVPPD
SCF_CONVERGENCE 7
SCF_ALGORITHM  GDM
method DSD-PBEPBE-D3
GEN_SCFMAN TRUE
UNRESTRICTED True
THRESH  14
SYMMETRY FALSE
SYM_IGNORE TRUE
max_scf_cycles 200

XC_GRID 000099000590
BASIS DEF2-QZVPPD


$end










