$molecule
0 2
N  -1.15081763872  -0.0439320306234  -0.102558784274
O  1.17918683104  -0.0926959787073  -0.01029001036
H  -1.30318364402  -0.547640243218  0.766571454674
H  -1.33891369187  0.935807630677  0.0918540577042
H  -0.0306869886695  -0.153833942993  -0.353184008705
H  1.29500785553  0.814753043195  0.29499091581
$end


$rem
N_FROZEN_CORE FC
MEM_TOTAL 3750
MEM_STATIC 1500
AUX_BASIS_CORR rimp2-def2-QZVPPD
SCF_CONVERGENCE 7
SCF_ALGORITHM  GDM
method DSD-PBEPBE-D3
GEN_SCFMAN TRUE
UNRESTRICTED True
THRESH  14
SYMMETRY FALSE
SYM_IGNORE TRUE
max_scf_cycles 200

XC_GRID 000099000590
BASIS DEF2-QZVPPD


$end










