$molecule
-1 1
F  0.0  0.0  -1.99680889688
C  0.0  0.0  0.0527475062182
H  -0.531042598803  0.91979276211  -0.0738528588325
H  -0.531042598803  -0.91979276211  -0.0738528588325
H  1.06208519761  0.0  -0.0738528588325
CL  0.0  0.0  2.16561996716
$end


$rem
N_FROZEN_CORE FC
MEM_TOTAL 3750
MEM_STATIC 1500
AUX_BASIS_CORR rimp2-def2-QZVPPD
SCF_CONVERGENCE 7
SCF_ALGORITHM  GDM
method DSD-PBEPBE-D3
GEN_SCFMAN TRUE
UNRESTRICTED True
THRESH  14
SYMMETRY FALSE
SYM_IGNORE TRUE
max_scf_cycles 200

XC_GRID 000099000590
BASIS DEF2-QZVPPD


$end










