$molecule
0 1
C  -0.763094760148  0.0  0.0
C  0.763094760148  0.0  0.0
H  1.15831078856  -0.443642096826  -0.91409548815
H  -1.15831078856  -1.01332680588  -0.0746399217942
H  1.15831078856  -0.569812769951  0.841254239825
H  1.15831078856  1.01345380842  0.0728481276291
H  -1.15831078856  0.442020168558  0.914883962251
H  -1.15831078856  0.571305049793  -0.84024351128
$end


$rem
N_FROZEN_CORE FC
MEM_TOTAL 3750
MEM_STATIC 1500
AUX_BASIS_CORR rimp2-def2-QZVPPD
SCF_CONVERGENCE 7
SCF_ALGORITHM  GDM
method DSD-PBEPBE-D3
GEN_SCFMAN TRUE
UNRESTRICTED True
THRESH  14
SYMMETRY FALSE
SYM_IGNORE TRUE
max_scf_cycles 200

XC_GRID 000099000590
BASIS DEF2-QZVPPD


$end










