$molecule
0 2
O  -0.301064283096  -0.108048998233  -7.99999581493e-06
H  -0.427944053735  0.851567904408  1.59999916299e-05
H  1.01548584906  -0.100366932109  0.000118999792223
H  1.82096770685  0.11318730932  -7.30000014995e-05
$end


$rem
N_FROZEN_CORE FC
MEM_TOTAL 3750
MEM_STATIC 1500
AUX_BASIS_CORR rimp2-def2-QZVPPD
SCF_CONVERGENCE 7
SCF_ALGORITHM  GDM
method DSD-PBEPBE-D3
GEN_SCFMAN TRUE
UNRESTRICTED True
THRESH  14
SYMMETRY FALSE
SYM_IGNORE TRUE
max_scf_cycles 200

XC_GRID 000099000590
BASIS DEF2-QZVPPD


$end










