$molecule
0 1
C  0.0  0.0  -0.149916972996
CL  0.0  0.0  1.6328018023
H  -0.513997799612  -0.890270303907  -0.4942949431
H  -0.513997799612  0.890270303907  -0.4942949431
H  1.02799559922  0.0  -0.4942949431
$end


$rem
N_FROZEN_CORE FC
MEM_TOTAL 3750
MEM_STATIC 1500
AUX_BASIS_CORR rimp2-def2-QZVPPD
SCF_CONVERGENCE 7
SCF_ALGORITHM  GDM
method DSD-PBEPBE-D3
GEN_SCFMAN TRUE
UNRESTRICTED True
THRESH  14
SYMMETRY FALSE
SYM_IGNORE TRUE
max_scf_cycles 200

XC_GRID 000099000590
BASIS DEF2-QZVPPD


$end










