$molecule
-1 1
F  1.89905310171  -0.0764571164673  -0.00540401098451
C  0.489413282978  0.105484076107  0.00676801826154
H  0.00130399857699  -0.786166888204  -0.361155005607
H  0.171942917631  0.298358070645  1.02324358753
H  0.249744144311  0.947470697245  -0.630885116258
O  -2.16944680064  -0.0731428793568  -0.00232000301975
H  -3.0953694003  0.180697096862  -0.00462400371949
$end


$rem
N_FROZEN_CORE FC
MEM_TOTAL 3750
MEM_STATIC 1500
AUX_BASIS_CORR rimp2-def2-QZVPPD
SCF_CONVERGENCE 7
SCF_ALGORITHM  GDM
method DSD-PBEPBE-D3
GEN_SCFMAN TRUE
UNRESTRICTED True
THRESH  14
SYMMETRY FALSE
SYM_IGNORE TRUE
max_scf_cycles 200

XC_GRID 000099000590
BASIS DEF2-QZVPPD


$end










