$molecule
0 1
C  -0.0464230266876  0.663069676542  0.0
O  -0.0464230266876  -0.755061849508  0.0
H  -1.08695652831  0.975940433241  0.0
H  0.860590376504  -1.05704213842  0.0
H  0.438145003564  1.07159451277  0.889541663797
H  0.438145003564  1.07159451277  -0.889541663797
$end


$rem
N_FROZEN_CORE FC
MEM_TOTAL 3750
MEM_STATIC 1500
AUX_BASIS_CORR rimp2-def2-QZVPPD
SCF_CONVERGENCE 7
SCF_ALGORITHM  GDM
method DSD-PBEPBE-D3
GEN_SCFMAN TRUE
UNRESTRICTED True
THRESH  14
SYMMETRY FALSE
SYM_IGNORE TRUE
max_scf_cycles 200

XC_GRID 000099000590
BASIS DEF2-QZVPPD


$end










