$molecule
-1 1
F  1.8236506355  0.000221999910323  7.70000523247e-05
C  0.0002360003528  -0.000387000022448  -0.00021400033785
H  0.000155999865473  -0.305186044689  1.0250374984
H  0.000378999920797  1.03988092024  -0.248964137046
H  -3.00000107649e-06  -0.736556521111  -0.776207772378
F  -1.82386759818  0.00024300030945  8.10001031499e-05
$end


$rem
N_FROZEN_CORE FC
MEM_TOTAL 3750
MEM_STATIC 1500
AUX_BASIS_CORR rimp2-def2-QZVPPD
SCF_CONVERGENCE 7
SCF_ALGORITHM  GDM
method DSD-PBEPBE-D3
GEN_SCFMAN TRUE
UNRESTRICTED True
THRESH  14
SYMMETRY FALSE
SYM_IGNORE TRUE
max_scf_cycles 200

XC_GRID 000099000590
BASIS DEF2-QZVPPD


$end










