$molecule
0 2
C  1.45833312166  -0.446365242949  0.025478032419
C  0.46942308322  0.697423863547  -0.0274930335477
O  -1.85303584814  -0.3146593758  -0.0530547818075
H  1.301765449  -1.06107976083  0.910735212619
H  1.36658437023  -1.0861892213  -0.851118103747
H  2.48224876429  -0.0668790082604  0.0571500845375
H  0.471069353642  1.32544613089  0.861034885393
H  0.533521794214  1.3034958586  -0.928557902365
H  -0.630234228242  0.207815843341  -0.07846481495
H  -2.26720700562  0.388321378038  0.465751122289
$end


$rem
N_FROZEN_CORE FC
MEM_TOTAL 3750
MEM_STATIC 1500
AUX_BASIS_CORR rimp2-def2-QZVPPD
SCF_CONVERGENCE 7
SCF_ALGORITHM  GDM
method DSD-PBEPBE-D3
GEN_SCFMAN TRUE
UNRESTRICTED True
THRESH  14
SYMMETRY FALSE
SYM_IGNORE TRUE
max_scf_cycles 200

XC_GRID 000099000590
BASIS DEF2-QZVPPD


$end










