$molecule
0 2
C  0.0  0.264812995654  0.0
H  1.05342785781  0.516668028011  0.0
H  -0.526627143837  0.517025222654  0.912248659551
H  -0.526627143837  0.517025222654  -0.912248659551
H  -0.000260000128574  -1.11777051952  0.0
H  8.50001539751e-05  -2.02182751525  0.0
$end


$rem
N_FROZEN_CORE FC
MEM_TOTAL 3750
MEM_STATIC 1500
AUX_BASIS_CORR rimp2-def2-QZVPPD
SCF_CONVERGENCE 7
SCF_ALGORITHM  GDM
method DSD-PBEPBE-D3
GEN_SCFMAN TRUE
UNRESTRICTED True
THRESH  14
SYMMETRY FALSE
SYM_IGNORE TRUE
max_scf_cycles 200

XC_GRID 000099000590
BASIS DEF2-QZVPPD


$end










