$molecule
0 2
C  0.794607265326  6.00002332006e-06  -0.0223949928486
C  -0.695370655821  0.00017000030795  -0.000460000023947
H  -1.10339806543  0.889594581521  -0.481055986685
H  1.34847592476  -0.924049312204  0.048485018756
H  -1.08604105167  -0.0133270115097  1.02464590724
H  -1.10382669901  -0.876719699053  -0.503574066162
H  1.34938610963  0.92344605014  0.0486330296326
$end


$rem
N_FROZEN_CORE FC
MEM_TOTAL 3750
MEM_STATIC 1500
AUX_BASIS_CORR rimp2-def2-QZVPPD
SCF_CONVERGENCE 7
SCF_ALGORITHM  GDM
method DSD-PBEPBE-D3
GEN_SCFMAN TRUE
UNRESTRICTED True
THRESH  14
SYMMETRY FALSE
SYM_IGNORE TRUE
max_scf_cycles 200

XC_GRID 000099000590
BASIS DEF2-QZVPPD


$end










