$molecule
0 2
C  -1.80062084163  0.168058227446  0.217373313635
H  -2.15164527798  -0.764385952636  -0.204420112934
H  -2.00034291894  1.06077283803  -0.360345364416
H  -1.87513958183  0.266062383138  1.29228259269
H  -0.420025974558  0.0393650192936  0.0508550449011
CL  1.01476087623  -0.0947147899123  -0.122506120675
$end


$rem
N_FROZEN_CORE FC
MEM_TOTAL 3750
MEM_STATIC 1500
AUX_BASIS_CORR rimp2-def2-QZVPPD
SCF_CONVERGENCE 7
SCF_ALGORITHM  GDM
method DSD-PBEPBE-D3
GEN_SCFMAN TRUE
UNRESTRICTED True
THRESH  14
SYMMETRY FALSE
SYM_IGNORE TRUE
max_scf_cycles 200

XC_GRID 000099000590
BASIS DEF2-QZVPPD


$end










