$molecule
0 1
C  0.0  0.0  0.0655663658303
F  0.0  0.0  -1.31562858813
H  0.514916333043  -0.891861250477  0.416687407433
H  0.514916333043  0.891861250477  0.416687407433
H  -1.02983266609  0.0  0.416687407433
$end


$rem
N_FROZEN_CORE FC
MEM_TOTAL 3750
MEM_STATIC 1500
AUX_BASIS_CORR rimp2-def2-QZVPPD
SCF_CONVERGENCE 7
SCF_ALGORITHM  GDM
method DSD-PBEPBE-D3
GEN_SCFMAN TRUE
UNRESTRICTED True
THRESH  14
SYMMETRY FALSE
SYM_IGNORE TRUE
max_scf_cycles 200

XC_GRID 000099000590
BASIS DEF2-QZVPPD


$end










