$molecule
-1 1
F  0.0  0.0  -1.88993625968
C  0.0  0.0  -0.481562762097
H  -0.512359996027  0.887433544884  -0.127802479368
H  -0.512359996027  -0.887433544884  -0.127802479368
H  1.02471999205  0.0  -0.127802479368
CL  0.0  0.0  2.75490645988
$end


$rem
N_FROZEN_CORE FC
MEM_TOTAL 3750
MEM_STATIC 1500
AUX_BASIS_CORR rimp2-def2-QZVPPD
SCF_CONVERGENCE 7
SCF_ALGORITHM  GDM
method DSD-PBEPBE-D3
GEN_SCFMAN TRUE
UNRESTRICTED True
THRESH  14
SYMMETRY FALSE
SYM_IGNORE TRUE
max_scf_cycles 200

XC_GRID 000099000590
BASIS DEF2-QZVPPD


$end










