$molecule
0 2
P  0.217428877246  8.80000597997e-05  -0.111248933057
H  0.246610356642  1.03466852433  0.8521658747
H  0.262661360959  -1.02505866549  0.861622272139
H  -1.26641640876  -0.0109520110985  -0.15062607051
H  -2.50428899671  2.90000245174e-05  0.105575094593
$end


$rem
N_FROZEN_CORE FC
MEM_TOTAL 3750
MEM_STATIC 1500
AUX_BASIS_CORR rimp2-def2-QZVPPD
SCF_CONVERGENCE 7
SCF_ALGORITHM  GDM
method DSD-PBEPBE-D3
GEN_SCFMAN TRUE
UNRESTRICTED True
THRESH  14
SYMMETRY FALSE
SYM_IGNORE TRUE
max_scf_cycles 200

XC_GRID 000099000590
BASIS DEF2-QZVPPD


$end










