$molecule
-1 1
F  0.0  0.0  -1.79137135249
C  0.0  0.0  -0.36561702817
H  -0.511791130484  0.886448240862  -0.0175866766933
H  -0.511791130484  -0.886448240862  -0.0175866766933
H  1.02358226097  0.0  -0.0175866766933
F  0.0  0.0  2.20974841074
$end


$rem
N_FROZEN_CORE FC
MEM_TOTAL 3750
MEM_STATIC 1500
AUX_BASIS_CORR rimp2-def2-QZVPPD
SCF_CONVERGENCE 7
SCF_ALGORITHM  GDM
method DSD-PBEPBE-D3
GEN_SCFMAN TRUE
UNRESTRICTED True
THRESH  14
SYMMETRY FALSE
SYM_IGNORE TRUE
max_scf_cycles 200

XC_GRID 000099000590
BASIS DEF2-QZVPPD


$end










