$molecule
0 3
C  0.000290000245174  -1.14228730146  0.0
H  -1.05595732506  -1.38473514987  0.0
H  0.520167477159  -1.4073892279  0.912449746906
H  0.520167477159  -1.4073892279  -0.912449746906
H  0.0115599828399  0.160098872444  0.0
O  0.000290000245174  1.36164185472  0.0
$end


$rem
N_FROZEN_CORE FC
MEM_TOTAL 3750
MEM_STATIC 1500
AUX_BASIS_CORR rimp2-def2-QZVPPD
SCF_CONVERGENCE 7
SCF_ALGORITHM  GDM
method DSD-PBEPBE-D3
GEN_SCFMAN TRUE
UNRESTRICTED True
THRESH  14
SYMMETRY FALSE
SYM_IGNORE TRUE
max_scf_cycles 200

XC_GRID 000099000590
BASIS DEF2-QZVPPD


$end










