$molecule
-1 1
CL  2.500002661e-05  0.0195260054754  2.32250073636
C  0.000513000300498  0.000486000089722  -8.90002048003e-05
H  0.761279682184  -0.750733179611  0.00637700919225
H  -1.03045098166  -0.282724058  0.00214699910173
H  0.270728138943  1.03492782119  -0.00869702808731
CL  -0.000297000201824  -0.019784032302  -2.32245840218
$end


$rem
N_FROZEN_CORE FC
MEM_TOTAL 3750
MEM_STATIC 1500
AUX_BASIS_CORR rimp2-def2-QZVPPD
SCF_CONVERGENCE 7
SCF_ALGORITHM  GDM
method DSD-PBEPBE-D3
GEN_SCFMAN TRUE
UNRESTRICTED True
THRESH  14
SYMMETRY FALSE
SYM_IGNORE TRUE
max_scf_cycles 200

XC_GRID 000099000590
BASIS DEF2-QZVPPD


$end










