$molecule
-1 1
CL  0.0  0.0  2.12296431206
C  0.0  0.0  0.272465868832
H  -0.513161699559  -0.888822136135  -0.0553144568569
H  -0.513161699559  0.888822136135  -0.0553144568569
H  1.02632339912  0.0  -0.0553144568569
F  0.0  0.0  -2.22948681033
$end


$rem
N_FROZEN_CORE FC
MEM_TOTAL 3750
MEM_STATIC 1500
AUX_BASIS_CORR rimp2-def2-QZVPPD
SCF_CONVERGENCE 7
SCF_ALGORITHM  GDM
method DSD-PBEPBE-D3
GEN_SCFMAN TRUE
UNRESTRICTED True
THRESH  14
SYMMETRY FALSE
SYM_IGNORE TRUE
max_scf_cycles 200

XC_GRID 000099000590
BASIS DEF2-QZVPPD


$end










