$molecule
0 2
H  0.000450000161473  2.0009673481  0.0
F  -3.49999949198e-05  0.762480914539  0.0
C  -3.49999949198e-05  -0.90616841296  0.0
H  1.05376123948  -1.14157291218  0.0
H  -0.526845164864  -1.14235609451  0.912354495001
H  -0.526845164864  -1.14235609451  -0.912354495001
$end


$rem
N_FROZEN_CORE FC
MEM_TOTAL 3750
MEM_STATIC 1500
AUX_BASIS_CORR rimp2-def2-QZVPPD
SCF_CONVERGENCE 7
SCF_ALGORITHM  GDM
method DSD-PBEPBE-D3
GEN_SCFMAN TRUE
UNRESTRICTED True
THRESH  14
SYMMETRY FALSE
SYM_IGNORE TRUE
max_scf_cycles 200

XC_GRID 000099000590
BASIS DEF2-QZVPPD


$end










