$molecule
0 1
P  0.0  0.0  0.56884913818
H  0.595671016223  1.03173246469  -0.189616379393
H  0.595671016223  -1.03173246469  -0.189616379393
H  -1.19134203245  0.0  -0.189616379393
$end


$rem
N_FROZEN_CORE FC
MEM_TOTAL 3750
MEM_STATIC 1500
AUX_BASIS_CORR rimp2-def2-QZVPPD
SCF_CONVERGENCE 7
SCF_ALGORITHM  GDM
method DSD-PBEPBE-D3
GEN_SCFMAN TRUE
UNRESTRICTED True
THRESH  14
SYMMETRY FALSE
SYM_IGNORE TRUE
max_scf_cycles 200

XC_GRID 000099000590
BASIS DEF2-QZVPPD


$end










