$molecule
0 2
C        -0.388243   -1.337742    0.393846
C         0.680045   -1.308719   -0.394907
C         1.965892   -0.729323    0.095697
C         1.810184    0.817771   -0.107338
H         2.850740   -1.083626   -0.438505
H         2.102388   -0.941004    1.159296
C         0.510497    1.359419    0.405191
H         1.887366    1.020333   -1.181777
H         2.652979    1.325180    0.371373
C        -0.764652    1.391529   -0.387019
H         0.455695    1.666050    1.446176
C        -1.757047   -1.001196   -0.092257
C        -1.932087    0.520595    0.142590
H        -2.552829   -1.542181    0.426813
H        -1.845497   -1.218464   -1.160732
H        -2.045259    0.703571    1.216180
H        -2.863340    0.851579   -0.327194
H        -0.558319    1.116580   -1.426638
H        -1.133909    2.425565   -0.415256
H         0.538522   -1.337367   -1.474360
H        -0.236066   -1.260216    1.469803
$end


$rem
N_FROZEN_CORE FC
MEM_TOTAL 15000
MEM_STATIC 6000
AUX_BASIS_CORR rimp2-def2-QZVPPD
SCF_CONVERGENCE 7
SCF_ALGORITHM  GDM
method DSD-PBEPBE-D3
GEN_SCFMAN TRUE
UNRESTRICTED True
THRESH  14
SYMMETRY FALSE
SYM_IGNORE TRUE
max_scf_cycles 200

XC_GRID 000099000590
BASIS DEF2-QZVPP


$end










