$molecule
0 1
N         1.773750   -0.277559    0.000000
N         0.713400    0.103834    0.000000
N        -0.389675    0.635196    0.000000
C        -1.530587   -0.286103    0.000000
H        -1.534973   -0.919321    0.891863
H        -2.428874    0.324994   -0.000016
H        -1.534956   -0.919344   -0.891847
$end


$rem
N_FROZEN_CORE FC
MEM_TOTAL 3750
MEM_STATIC 1500
AUX_BASIS_CORR rimp2-def2-QZVPPD
SCF_CONVERGENCE 7
SCF_ALGORITHM  GDM
method DSD-PBEPBE-D3
GEN_SCFMAN TRUE
UNRESTRICTED True
THRESH  14
SYMMETRY FALSE
SYM_IGNORE TRUE
max_scf_cycles 200

XC_GRID 000099000590
BASIS DEF2-QZVPP


$end










