$molecule
0 2
N         0.386240    0.701378   -0.389857
C         1.161908   -0.372070   -0.056440
C         0.376529   -1.661242    0.048522
C        -1.105484   -1.383207   -0.184283
H         0.552629   -2.052802    1.054712
H         0.789768   -2.394079   -0.645794
C        -1.467420   -0.062648    0.439277
H        -1.719006   -2.177013    0.251145
H        -1.329970   -1.343657   -1.251756
C        -2.409869    0.781231   -0.046828
H        -1.142547    0.081084    1.468135
H        -2.833845    0.636063   -1.033796
H        -2.723164    1.656495    0.507952
O         2.368046   -0.296018    0.098744
C         0.785308    2.021302    0.014739
H         1.710760    2.273807   -0.511815
H         0.984164    2.101999    1.088778
H         0.017326    2.736408   -0.278429
$end


$rem
N_FROZEN_CORE FC
MEM_TOTAL 7500
MEM_STATIC 3000
AUX_BASIS_CORR rimp2-def2-QZVPPD
SCF_CONVERGENCE 7
SCF_ALGORITHM  GDM
method DSD-PBEPBE-D3
GEN_SCFMAN TRUE
UNRESTRICTED True
THRESH  14
SYMMETRY FALSE
SYM_IGNORE TRUE
max_scf_cycles 200

XC_GRID 000099000590
BASIS DEF2-QZVPP


$end










