$molecule
0 1
N         2.700720   -1.193779   -0.000002
C         1.720316   -0.269105   -0.000001
N         2.046088    1.025554   -0.000001
C         1.066492    1.935908    0.000001
N        -0.243401    1.733413    0.000002
C        -0.541403    0.433394    0.000001
C         0.361727   -0.620488   -0.000000
H         1.392695    2.970712    0.000001
N        -0.295188   -1.832965    0.000000
C        -1.556814   -1.508592    0.000002
N        -1.781109   -0.152517    0.000004
H        -2.380167   -2.208298    0.000003
C        -3.051283    0.543592   -0.000005
H        -3.136697    1.172548    0.885983
H        -3.854512   -0.191405    0.000078
H        -3.136763    1.172422   -0.886076
H         2.472633   -2.172702   -0.000000
H         3.658832   -0.889468   -0.000000
$end


$rem
N_FROZEN_CORE FC
MEM_TOTAL 15000
MEM_STATIC 6000
AUX_BASIS_CORR rimp2-def2-QZVPPD
SCF_CONVERGENCE 7
SCF_ALGORITHM  GDM
method DSD-PBEPBE-D3
GEN_SCFMAN TRUE
UNRESTRICTED True
THRESH  14
SYMMETRY FALSE
SYM_IGNORE TRUE
max_scf_cycles 200

XC_GRID 000099000590
BASIS DEF2-QZVPP


$end










