$molecule
0 1
N        -1.134194    0.240699   -0.000000
C        -0.000000    1.059637   -0.000000
C         1.243255    0.316385   -0.000000
C         1.257910   -1.037806    0.000000
C         0.050800   -1.795406    0.000000
C        -1.120509   -1.120524    0.000000
O        -0.121180    2.272182   -0.000000
H         2.150846    0.903997   -0.000000
H         2.207234   -1.561389    0.000000
H         0.061041   -2.875014    0.000000
H        -2.087306   -1.605906    0.000000
H        -2.011755    0.742252   -0.000000
$end


$rem
N_FROZEN_CORE FC
MEM_TOTAL 3750
MEM_STATIC 1500
AUX_BASIS_CORR rimp2-def2-QZVPPD
SCF_CONVERGENCE 7
SCF_ALGORITHM  GDM
method DSD-PBEPBE-D3
GEN_SCFMAN TRUE
UNRESTRICTED True
THRESH  14
SYMMETRY FALSE
SYM_IGNORE TRUE
max_scf_cycles 200

XC_GRID 000099000590
BASIS DEF2-QZVPP


$end










