$molecule
0 2
C         0.000000    1.232385    0.367757
C         0.000000    0.663793   -1.030348
C         0.000000    0.000000    1.215574
H        -0.874642    1.874312    0.548599
H         0.874642    1.874312    0.548599
C         0.000000   -0.663793   -1.030348
C         0.000000   -1.232385    0.367757
H         0.000000    0.000000    2.296466
H        -0.874642   -1.874312    0.548599
H         0.874642   -1.874312    0.548599
H         0.000000   -1.286042   -1.916607
H         0.000000    1.286042   -1.916607
$end


$rem
N_FROZEN_CORE FC
MEM_TOTAL 3750
MEM_STATIC 1500
AUX_BASIS_CORR rimp2-def2-QZVPPD
SCF_CONVERGENCE 7
SCF_ALGORITHM  GDM
method DSD-PBEPBE-D3
GEN_SCFMAN TRUE
UNRESTRICTED True
THRESH  14
SYMMETRY FALSE
SYM_IGNORE TRUE
max_scf_cycles 200

XC_GRID 000099000590
BASIS DEF2-QZVPP


$end










