$molecule
0 1
C         1.420622    0.676059    0.188302
C         1.420622   -0.676059    0.188302
C         0.342474   -1.522044   -0.276792
C         0.342474    1.522044   -0.276792
C        -0.959821   -1.218292   -0.199743
C        -0.959821    1.218292   -0.199743
C        -1.444043    0.000000    0.533612
H         2.350277    1.174729    0.445232
H         2.350277   -1.174729    0.445232
H         0.632038   -2.462317   -0.736341
H         0.632038    2.462317   -0.736340
H        -1.690640   -1.872693   -0.663282
H        -1.690639    1.872694   -0.663282
H        -2.530324    0.000000    0.617652
H        -1.028070    0.000000    1.548267
$end


$rem
N_FROZEN_CORE FC
MEM_TOTAL 7500
MEM_STATIC 3000
AUX_BASIS_CORR rimp2-def2-QZVPPD
SCF_CONVERGENCE 7
SCF_ALGORITHM  GDM
method DSD-PBEPBE-D3
GEN_SCFMAN TRUE
UNRESTRICTED True
THRESH  14
SYMMETRY FALSE
SYM_IGNORE TRUE
max_scf_cycles 200

XC_GRID 000099000590
BASIS DEF2-QZVPP


$end










