$molecule
1 2
C         0.000001    1.333843    0.000000
C         0.000000    0.651222    1.210041
C         0.000000   -0.743172    1.196335
N        -0.000008   -1.267484    0.000000
C         0.000000   -0.743172   -1.196335
C         0.000000    0.651222   -1.210041
H         0.000013    2.417356    0.000000
H         0.000009    1.159701    2.165730
H         0.000012   -1.382014    2.073290
H         0.000012   -1.382014   -2.073290
H         0.000009    1.159701   -2.165730
$end


$rem
N_FROZEN_CORE FC
MEM_TOTAL 3750
MEM_STATIC 1500
AUX_BASIS_CORR rimp2-def2-QZVPPD
SCF_CONVERGENCE 7
SCF_ALGORITHM  GDM
method DSD-PBEPBE-D3
GEN_SCFMAN TRUE
UNRESTRICTED True
THRESH  14
SYMMETRY FALSE
SYM_IGNORE TRUE
max_scf_cycles 200

XC_GRID 000099000590
BASIS DEF2-QZVPP


$end










