$molecule
-1 1
C        -1.284438   -0.484159   -0.000093
C         0.133605    0.110326    0.000019
O         0.187452    1.376816    0.000218
C         1.186407   -0.780934   -0.000106
H        -1.823172   -0.119817   -0.880809
H        -1.295079   -1.578464   -0.000262
H        -1.823198   -0.120088    0.880719
H         2.208023   -0.415305   -0.000034
H         1.020360   -1.852250   -0.000276
$end


$rem
N_FROZEN_CORE FC
MEM_TOTAL 3750
MEM_STATIC 1500
AUX_BASIS_CORR rimp2-def2-QZVPPD
SCF_CONVERGENCE 7
SCF_ALGORITHM  GDM
method DSD-PBEPBE-D3
GEN_SCFMAN TRUE
UNRESTRICTED True
THRESH  14
SYMMETRY FALSE
SYM_IGNORE TRUE
max_scf_cycles 200

XC_GRID 000099000590
BASIS DEF2-QZVPP


$end










