$molecule
0 2
C        -2.253667    0.277938   -0.021417
C        -1.347298    1.328572    0.016756
C         0.017502    1.075289    0.044463
C         0.484202   -0.232293    0.032393
C        -0.426110   -1.283196   -0.010343
C        -1.789943   -1.031006   -0.035144
H        -3.318112    0.477602   -0.043551
H        -1.704091    2.351577    0.023716
H         0.731257    1.889082    0.068033
H        -0.067772   -2.307777   -0.027645
H        -2.491268   -1.856008   -0.069604
C         1.965770   -0.527994    0.080228
O         2.808741    0.510645   -0.134881
H         2.244341   -0.922166    1.080110
H         2.232974   -1.361335   -0.593629
$end


$rem
N_FROZEN_CORE FC
MEM_TOTAL 7500
MEM_STATIC 3000
AUX_BASIS_CORR rimp2-def2-QZVPPD
SCF_CONVERGENCE 7
SCF_ALGORITHM  GDM
method DSD-PBEPBE-D3
GEN_SCFMAN TRUE
UNRESTRICTED True
THRESH  14
SYMMETRY FALSE
SYM_IGNORE TRUE
max_scf_cycles 200

XC_GRID 000099000590
BASIS DEF2-QZVPP


$end










