$molecule
0 2
C         0.000001    0.761100    1.154283
C         0.000001   -0.596345    1.230689
H         0.000006    1.355484    2.062374
C        -0.000004   -1.432904    0.000000
H         0.000004   -1.083956    2.198239
C         0.000001   -0.596345   -1.230689
H        -0.865834   -2.114691    0.000000
H         0.865815   -2.114705    0.000000
C         0.000001    0.761100   -1.154283
H         0.000004   -1.083956   -2.198239
H         0.000006    1.355484   -2.062374
N         0.000000    1.472387    0.000000
$end


$rem
N_FROZEN_CORE FC
MEM_TOTAL 3750
MEM_STATIC 1500
AUX_BASIS_CORR rimp2-def2-QZVPPD
SCF_CONVERGENCE 7
SCF_ALGORITHM  GDM
method DSD-PBEPBE-D3
GEN_SCFMAN TRUE
UNRESTRICTED True
THRESH  14
SYMMETRY FALSE
SYM_IGNORE TRUE
max_scf_cycles 200

XC_GRID 000099000590
BASIS DEF2-QZVPP


$end










