$molecule
0 2
C         0.464578    0.705705   -0.000036
C         0.481793   -0.682127    0.000085
N         1.569175   -1.428704    0.000207
C         2.719577   -0.756265    0.000210
C         2.813646    0.637097    0.000096
C         1.658371    1.403501   -0.000031
C        -0.930717    1.197746   -0.000154
C        -0.920455   -1.202471    0.000058
H         3.621170   -1.359171    0.000311
H         3.790061    1.103638    0.000109
H         1.679361    2.486039   -0.000124
O        -1.352955   -2.306097    0.000125
O        -1.364054    2.306182   -0.000271
N        -1.735203   -0.001428   -0.000093
O        -2.989137   -0.004922   -0.000162
$end


$rem
N_FROZEN_CORE FC
MEM_TOTAL 7500
MEM_STATIC 3000
AUX_BASIS_CORR rimp2-def2-QZVPPD
SCF_CONVERGENCE 7
SCF_ALGORITHM  GDM
method DSD-PBEPBE-D3
GEN_SCFMAN TRUE
UNRESTRICTED True
THRESH  14
SYMMETRY FALSE
SYM_IGNORE TRUE
max_scf_cycles 200

XC_GRID 000099000590
BASIS DEF2-QZVPP


$end










