$molecule
0 1
C         0.000001   -1.878488    0.765806
C         0.000001   -1.878488   -0.765806
C         0.000001   -0.422672    1.184170
N         0.000012    0.324454    0.000000
C         0.000001   -0.422672   -1.184170
O        -0.000009    0.033857   -2.287921
O        -0.000009    0.033857    2.287921
Cl         0.000003    2.013483    0.000000
H         0.878219   -2.357044    1.199375
H        -0.878218   -2.357044    1.199375
H        -0.878218   -2.357044   -1.199375
H         0.878219   -2.357044   -1.199375
$end


$rem
N_FROZEN_CORE FC
MEM_TOTAL 3750
MEM_STATIC 1500
AUX_BASIS_CORR rimp2-def2-QZVPPD
SCF_CONVERGENCE 7
SCF_ALGORITHM  GDM
method DSD-PBEPBE-D3
GEN_SCFMAN TRUE
UNRESTRICTED True
THRESH  14
SYMMETRY FALSE
SYM_IGNORE TRUE
max_scf_cycles 200

XC_GRID 000099000590
BASIS DEF2-QZVPP


$end










