$molecule
0 1
C        -1.388315   -0.122937    0.000000
C         0.088367    0.125757    0.000000
O         0.625850    1.199016    0.000000
O         0.788568   -1.028410    0.000000
H         1.727325   -0.794607   -0.000001
H        -1.917168    0.826073    0.000009
H        -1.662905   -0.706624    0.879761
H        -1.662906   -0.706608   -0.879771
$end


$rem
N_FROZEN_CORE FC
MEM_TOTAL 3750
MEM_STATIC 1500
AUX_BASIS_CORR rimp2-def2-QZVPPD
SCF_CONVERGENCE 7
SCF_ALGORITHM  GDM
method DSD-PBEPBE-D3
GEN_SCFMAN TRUE
UNRESTRICTED True
THRESH  14
SYMMETRY FALSE
SYM_IGNORE TRUE
max_scf_cycles 200

XC_GRID 000099000590
BASIS DEF2-QZVPP


$end










