$molecule
0 2
C        -2.892230    0.927183    0.000029
C        -1.874121   -0.107379    0.000028
H        -3.925772    0.614538    0.000099
H        -2.645818    1.981184   -0.000045
O        -2.147065   -1.302134    0.000067
N        -0.578950    0.325474   -0.000042
H        -0.340357    1.305841   -0.000047
C         0.505888   -0.614717   -0.000036
C         1.811387    0.129123   -0.000018
H         0.470982   -1.272607    0.873769
H         0.471006   -1.272598   -0.873850
O         1.922221    1.325940   -0.000011
O         2.856481   -0.707085   -0.000012
H         3.663966   -0.173706   -0.000002
$end


$rem
N_FROZEN_CORE FC
MEM_TOTAL 3750
MEM_STATIC 1500
AUX_BASIS_CORR rimp2-def2-QZVPPD
SCF_CONVERGENCE 7
SCF_ALGORITHM  GDM
method DSD-PBEPBE-D3
GEN_SCFMAN TRUE
UNRESTRICTED True
THRESH  14
SYMMETRY FALSE
SYM_IGNORE TRUE
max_scf_cycles 200

XC_GRID 000099000590
BASIS DEF2-QZVPP


$end










