$molecule
-1 1
N         1.590212    1.140865    0.000075
C         2.248818   -0.020803    0.000069
N         1.538125   -1.167479    0.000029
C         0.265124   -0.710943    0.000012
C         0.287456    0.718743    0.000013
C        -0.931414    1.368044   -0.000029
N        -2.073645    0.673788   -0.000066
N        -0.880646   -1.410991   -0.000033
C        -1.974226   -0.665114   -0.000066
H        -2.920734   -1.201359   -0.000105
H        -1.005957    2.453306   -0.000019
H         3.333816   -0.044782    0.000102
$end


$rem
N_FROZEN_CORE FC
MEM_TOTAL 3750
MEM_STATIC 1500
AUX_BASIS_CORR rimp2-def2-QZVPPD
SCF_CONVERGENCE 7
SCF_ALGORITHM  GDM
method DSD-PBEPBE-D3
GEN_SCFMAN TRUE
UNRESTRICTED True
THRESH  14
SYMMETRY FALSE
SYM_IGNORE TRUE
max_scf_cycles 200

XC_GRID 000099000590
BASIS DEF2-QZVPP


$end










