$molecule
0 1
S         1.428718   -0.292410   -0.011148
C         0.068299    0.895561   -0.294572
C        -1.244511    0.449304    0.327062
O        -1.690971   -0.786883   -0.181089
H         0.360290    1.880633    0.069950
H        -0.034242    0.949442   -1.378962
H        -1.144087    0.411910    1.420087
H        -2.022377    1.178202    0.090211
H        -0.971524   -1.421670   -0.083820
H         1.537489   -0.094084    1.314671
$end


$rem
N_FROZEN_CORE FC
MEM_TOTAL 3750
MEM_STATIC 1500
AUX_BASIS_CORR rimp2-def2-QZVPPD
SCF_CONVERGENCE 7
SCF_ALGORITHM  GDM
method DSD-PBEPBE-D3
GEN_SCFMAN TRUE
UNRESTRICTED True
THRESH  14
SYMMETRY FALSE
SYM_IGNORE TRUE
max_scf_cycles 200

XC_GRID 000099000590
BASIS DEF2-QZVPP


$end










