$molecule
-1 1
O        -0.332111    1.488490   -0.354358
C        -0.444420    0.296874    0.295840
C        -1.836925   -0.242339   -0.002307
O        -2.784290    0.268909    0.828893
O        -2.162970   -0.987269   -0.896871
C         0.604870   -0.762451   -0.129423
C         2.030611   -0.274865    0.048264
H         0.441947   -0.983124   -1.188074
H         0.498209   -1.692840    0.433097
O         2.935485   -1.001683    0.458850
N         2.191966    1.013321   -0.309166
H        -3.629278   -0.033663    0.471071
H         1.270281    1.533204   -0.428722
H         3.080225    1.438310   -0.093773
H        -0.378879    0.393983    1.404215
$end


$rem
N_FROZEN_CORE FC
MEM_TOTAL 7500
MEM_STATIC 3000
AUX_BASIS_CORR rimp2-def2-QZVPPD
SCF_CONVERGENCE 7
SCF_ALGORITHM  GDM
method DSD-PBEPBE-D3
GEN_SCFMAN TRUE
UNRESTRICTED True
THRESH  14
SYMMETRY FALSE
SYM_IGNORE TRUE
max_scf_cycles 200

XC_GRID 000099000590
BASIS DEF2-QZVPP


$end










