$molecule
0 1
C         1.155222    0.019920    0.000042
S        -0.662250   -0.086964   -0.000039
H         1.522838   -1.004838   -0.000137
H         1.523878    0.521125    0.892876
H         1.523938    0.521459   -0.892579
H        -0.905992    1.234161    0.000204
$end


$rem
N_FROZEN_CORE FC
MEM_TOTAL 3750
MEM_STATIC 1500
AUX_BASIS_CORR rimp2-def2-QZVPPD
SCF_CONVERGENCE 7
SCF_ALGORITHM  GDM
method DSD-PBEPBE-D3
GEN_SCFMAN TRUE
UNRESTRICTED True
THRESH  14
SYMMETRY FALSE
SYM_IGNORE TRUE
max_scf_cycles 200

XC_GRID 000099000590
BASIS DEF2-QZVPP


$end










