$molecule
0 2
C         2.316335   -1.008600    0.918821
S         1.998380   -0.392977   -0.754658
H         1.047008    0.785462   -0.317350
S        -0.087162    1.691052    0.278630
C        -1.476974    0.698971   -0.342192
C        -1.706753   -0.614725    0.390686
C        -2.927841   -1.356484   -0.142916
H        -1.335716    0.533526   -1.411781
H        -2.346278    1.355420   -0.237609
H        -1.821033   -0.413091    1.458853
H        -0.818280   -1.241312    0.278590
H        -2.815888   -1.589016   -1.204935
H        -3.836692   -0.760251   -0.026394
H        -3.078201   -2.298086    0.388420
H         2.763149   -0.238507    1.544286
H         3.026366   -1.830602    0.815602
H         1.407481   -1.387719    1.382378
$end


$rem
N_FROZEN_CORE FC
MEM_TOTAL 7500
MEM_STATIC 3000
AUX_BASIS_CORR rimp2-def2-QZVPPD
SCF_CONVERGENCE 7
SCF_ALGORITHM  GDM
method DSD-PBEPBE-D3
GEN_SCFMAN TRUE
UNRESTRICTED True
THRESH  14
SYMMETRY FALSE
SYM_IGNORE TRUE
max_scf_cycles 200

XC_GRID 000099000590
BASIS DEF2-QZVPP


$end










