$molecule
0 1
O         1.952760    0.092609   -0.135673
H         2.397563   -0.740908   -0.330779
O         0.733396   -0.072371   -0.873797
C        -0.387436   -0.000028    0.033931
C        -1.568395   -0.143869   -0.915318
C        -0.396199    1.353279    0.731890
C        -0.333656   -1.150164    1.031009
H        -0.289252   -2.107596    0.507337
H        -1.225727   -1.145003    1.660463
H         0.538254   -1.060279    1.679207
H        -0.417427    2.158163   -0.004595
H         0.493416    1.472549    1.349782
H        -1.276966    1.441883    1.371436
H        -1.561171    0.655412   -1.657523
H        -2.502238   -0.088963   -0.353309
H        -1.531578   -1.102464   -1.435330
$end


$rem
N_FROZEN_CORE FC
MEM_TOTAL 7500
MEM_STATIC 3000
AUX_BASIS_CORR rimp2-def2-QZVPPD
SCF_CONVERGENCE 7
SCF_ALGORITHM  GDM
method DSD-PBEPBE-D3
GEN_SCFMAN TRUE
UNRESTRICTED True
THRESH  14
SYMMETRY FALSE
SYM_IGNORE TRUE
max_scf_cycles 200

XC_GRID 000099000590
BASIS DEF2-QZVPP


$end










