$molecule
0 2
C        -0.286274    0.569342    0.000000
C         0.181787   -0.000269    1.294031
Cl        -0.694142    2.260509    0.000000
C         0.181787   -0.000269   -1.294031
C         0.181787   -1.532300    1.257445
C         0.866284   -2.062940    0.000000
C         0.181787   -1.532300   -1.257445
H        -0.435915    0.370445    2.114844
H         1.206143    0.356101    1.494573
H         1.206143    0.356101   -1.494573
H        -0.435915    0.370445   -2.114844
H        -0.852101   -1.891594    1.281347
H         0.672418   -1.916472    2.154868
H         0.856738   -3.155703    0.000000
H         1.919645   -1.757498    0.000000
H        -0.852101   -1.891594   -1.281347
H         0.672418   -1.916472   -2.154868
$end


$rem
N_FROZEN_CORE FC
MEM_TOTAL 7500
MEM_STATIC 3000
AUX_BASIS_CORR rimp2-def2-QZVPPD
SCF_CONVERGENCE 7
SCF_ALGORITHM  GDM
method DSD-PBEPBE-D3
GEN_SCFMAN TRUE
UNRESTRICTED True
THRESH  14
SYMMETRY FALSE
SYM_IGNORE TRUE
max_scf_cycles 200

XC_GRID 000099000590
BASIS DEF2-QZVPP


$end










