$molecule
0 1
C        -1.835649    0.000000    0.013038
C        -1.121767   -1.200378    0.005299
C         0.261928   -1.196702   -0.010276
C         0.971284    0.000000   -0.007298
C         0.261928    1.196702   -0.010276
C        -1.121767    1.200378    0.005298
S         2.759815    0.000000   -0.077669
H        -1.657916   -2.142940    0.011042
H         0.801714   -2.135223   -0.025071
H         0.801714    2.135223   -0.025070
H        -1.657916    2.142940    0.011041
N        -3.222700    0.000000    0.073403
H        -3.684799    0.840892   -0.233378
H        -3.684799   -0.840890   -0.233385
H         2.988126   -0.000005    1.248995
$end


$rem
N_FROZEN_CORE FC
MEM_TOTAL 7500
MEM_STATIC 3000
AUX_BASIS_CORR rimp2-def2-QZVPPD
SCF_CONVERGENCE 7
SCF_ALGORITHM  GDM
method DSD-PBEPBE-D3
GEN_SCFMAN TRUE
UNRESTRICTED True
THRESH  14
SYMMETRY FALSE
SYM_IGNORE TRUE
max_scf_cycles 200

XC_GRID 000099000590
BASIS DEF2-QZVPP


$end










