$molecule
0 2
C        -1.015292    0.273427   -1.820316
H        -1.990610    0.745535   -1.972916
H        -0.253249    0.924844   -2.252571
H        -1.005932   -0.666822   -2.375086
C        -1.911730   -1.223986    0.749669
H        -1.895592   -2.179387    0.221432
H        -1.686205   -1.416860    1.800422
H        -2.930242   -0.827737    0.692902
C        -0.650208    1.601938    0.955633
H        -1.619214    2.107644    0.903221
H        -0.418447    1.435242    2.009795
H         0.101404    2.279567    0.545339
Si       -0.693988   -0.011696    0.001610
H         0.840200   -0.650255    0.119404
O         2.089418   -0.963529    0.162056
O         2.785613    0.208670   -0.132499
H         3.036853    0.542567    0.739156
$end


$rem
N_FROZEN_CORE FC
MEM_TOTAL 7500
MEM_STATIC 3000
AUX_BASIS_CORR rimp2-def2-QZVPPD
SCF_CONVERGENCE 7
SCF_ALGORITHM  GDM
method DSD-PBEPBE-D3
GEN_SCFMAN TRUE
UNRESTRICTED True
THRESH  14
SYMMETRY FALSE
SYM_IGNORE TRUE
max_scf_cycles 200

XC_GRID 000099000590
BASIS DEF2-QZVPP


$end










