$molecule
0 2
S        -1.480009   -0.040394    0.000046
C         0.323517   -0.004119    0.000004
F         0.716975    1.275575   -0.000107
F         0.849155   -0.600581   -1.073844
F         0.849320   -0.600437    1.073868
$end


$rem
N_FROZEN_CORE FC
MEM_TOTAL 3750
MEM_STATIC 1500
AUX_BASIS_CORR rimp2-def2-QZVPPD
SCF_CONVERGENCE 7
SCF_ALGORITHM  GDM
method DSD-PBEPBE-D3
GEN_SCFMAN TRUE
UNRESTRICTED True
THRESH  14
SYMMETRY FALSE
SYM_IGNORE TRUE
max_scf_cycles 200

XC_GRID 000099000590
BASIS DEF2-QZVPP


$end










