$molecule
0 1
C         0.467353    0.363625   -0.295774
C        -0.706433    0.185539    0.615292
C        -1.910357   -0.050217    0.183904
C         1.188485    1.679834   -0.081060
H        -0.519117    0.271093    1.682191
H         1.530080    1.769066    0.951505
H         0.504027    2.504522   -0.292786
H         2.052702    1.761805   -0.740143
C        -3.108564   -0.286996   -0.256468
H        -3.463153   -1.302897   -0.390869
H        -3.788966    0.521509   -0.499267
Cl         1.643980   -1.007616   -0.022058
H         0.153862    0.253673   -1.331015
$end


$rem
N_FROZEN_CORE FC
MEM_TOTAL 3750
MEM_STATIC 1500
AUX_BASIS_CORR rimp2-def2-QZVPPD
SCF_CONVERGENCE 7
SCF_ALGORITHM  GDM
method DSD-PBEPBE-D3
GEN_SCFMAN TRUE
UNRESTRICTED True
THRESH  14
SYMMETRY FALSE
SYM_IGNORE TRUE
max_scf_cycles 200

XC_GRID 000099000590
BASIS DEF2-QZVPP


$end










