$molecule
0 1
O        -0.097064    1.505759    0.000109
C         0.078181    0.340958    0.000036
C        -0.953957   -0.749306   -0.000119
C        -2.375359   -0.209268   -0.000208
H        -0.753805   -1.379177    0.870721
H        -0.753656   -1.379079   -0.870994
H        -2.562884    0.405812    0.880212
H        -3.087380   -1.035382   -0.000322
H        -2.562731    0.405924   -0.880582
Cl         1.764928   -0.315204    0.000108
$end


$rem
N_FROZEN_CORE FC
MEM_TOTAL 3750
MEM_STATIC 1500
AUX_BASIS_CORR rimp2-def2-QZVPPD
SCF_CONVERGENCE 7
SCF_ALGORITHM  GDM
method DSD-PBEPBE-D3
GEN_SCFMAN TRUE
UNRESTRICTED True
THRESH  14
SYMMETRY FALSE
SYM_IGNORE TRUE
max_scf_cycles 200

XC_GRID 000099000590
BASIS DEF2-QZVPP


$end










