$molecule
0 1
H        -2.428874    0.324995   -0.000218
C        -1.530587   -0.286103   -0.000084
N        -0.389675    0.635195   -0.000085
H        -1.534894   -0.919423   -0.891874
H        -1.535038   -0.919242    0.891835
N         0.713400    0.103834    0.000042
N         1.773750   -0.277559    0.000151
$end


$rem
N_FROZEN_CORE FC
MEM_TOTAL 3750
MEM_STATIC 1500
AUX_BASIS_CORR rimp2-def2-QZVPPD
SCF_CONVERGENCE 7
SCF_ALGORITHM  GDM
method DSD-PBEPBE-D3
GEN_SCFMAN TRUE
UNRESTRICTED True
THRESH  14
SYMMETRY FALSE
SYM_IGNORE TRUE
max_scf_cycles 200

XC_GRID 000099000590
BASIS DEF2-QZVPP


$end










