$molecule
0 1
F        -1.871724   -0.652518    0.000089
S        -0.997302    0.736788   -0.000099
C         0.638626   -0.043835    0.000006
F         1.512848    0.969161   -0.000149
F         0.853047   -0.798790   -1.072383
F         0.853060   -0.798475    1.072615
$end


$rem
N_FROZEN_CORE FC
MEM_TOTAL 3750
MEM_STATIC 1500
AUX_BASIS_CORR rimp2-def2-QZVPPD
SCF_CONVERGENCE 7
SCF_ALGORITHM  GDM
method DSD-PBEPBE-D3
GEN_SCFMAN TRUE
UNRESTRICTED True
THRESH  14
SYMMETRY FALSE
SYM_IGNORE TRUE
max_scf_cycles 200

XC_GRID 000099000590
BASIS DEF2-QZVPP


$end










