$molecule
-1 1
S         2.010853   -0.473170   -0.146556
C         0.922909    0.497514    0.971586
C        -0.439311    0.846559    0.363098
H         1.409986    1.441627    1.227812
H         0.756138   -0.051547    1.902972
N        -0.238361    1.646879   -0.847275
C        -1.330940   -0.373359    0.085229
H        -1.006563    1.445969    1.081023
O        -2.527501   -0.332621    0.290152
O        -0.756491   -1.441350   -0.437968
H         0.259180   -1.305108   -0.477117
H         0.510991    1.210203   -1.383252
H        -1.078857    1.668917   -1.412560
$end


$rem
N_FROZEN_CORE FC
MEM_TOTAL 3750
MEM_STATIC 1500
AUX_BASIS_CORR rimp2-def2-QZVPPD
SCF_CONVERGENCE 7
SCF_ALGORITHM  GDM
method DSD-PBEPBE-D3
GEN_SCFMAN TRUE
UNRESTRICTED True
THRESH  14
SYMMETRY FALSE
SYM_IGNORE TRUE
max_scf_cycles 200

XC_GRID 000099000590
BASIS DEF2-QZVPP


$end










