$molecule
0 2
C         0.937979   -0.135700   -0.024294
C         0.649656    1.179442   -0.658676
C        -0.591520    1.754262    0.020700
H         0.453690    0.996838   -1.717681
H         1.518488    1.841412   -0.579102
C        -1.690641    0.689939   -0.015890
H        -0.915273    2.674156   -0.469128
H        -0.353078    2.009259    1.057439
C        -1.192387   -0.645308    0.483071
H        -2.057944    0.572330   -1.040259
H        -2.542217    1.009745    0.591446
C        -1.493679   -1.819852   -0.124392
H        -1.933011   -1.842723   -1.115436
H        -1.242625   -2.770336    0.328435
H        -0.871275   -0.674074    1.521830
F         1.553022   -1.047087   -0.785320
F         1.583288   -0.058836    1.156357
$end


$rem
N_FROZEN_CORE FC
MEM_TOTAL 7500
MEM_STATIC 3000
AUX_BASIS_CORR rimp2-def2-QZVPPD
SCF_CONVERGENCE 7
SCF_ALGORITHM  GDM
method DSD-PBEPBE-D3
GEN_SCFMAN TRUE
UNRESTRICTED True
THRESH  14
SYMMETRY FALSE
SYM_IGNORE TRUE
max_scf_cycles 200

XC_GRID 000099000590
BASIS DEF2-QZVPP


$end










