$molecule
-1 1
O         0.862725   -1.012782   -0.851613
P         0.000000   -0.000001   -0.174272
O        -0.862729    1.012772   -0.851622
O         0.982838    0.827898    0.884438
O        -0.982833   -0.827886    0.884454
H         1.751640    0.274344    1.044416
H        -1.751644   -0.274337    1.044410
$end


$rem
N_FROZEN_CORE FC
MEM_TOTAL 3750
MEM_STATIC 1500
AUX_BASIS_CORR rimp2-def2-QZVPPD
SCF_CONVERGENCE 7
SCF_ALGORITHM  GDM
method DSD-PBEPBE-D3
GEN_SCFMAN TRUE
UNRESTRICTED True
THRESH  14
SYMMETRY FALSE
SYM_IGNORE TRUE
max_scf_cycles 200

XC_GRID 000099000590
BASIS DEF2-QZVPP


$end










