$molecule
-2 1
O         0.932417    0.579427   -0.526253
C         2.258907    0.661623   -0.225439
C         2.855071    1.848955   -0.353748
H         2.285277    2.723654   -0.647040
H         3.915804    1.920237   -0.164769
C         3.076018   -0.617499    0.106262
O         4.153866   -0.424629    0.705522
O         2.580956   -1.688185   -0.297879
C         0.105386   -0.355344    0.183370
C        -1.291352    0.178281    0.238494
C        -2.377280   -0.511895   -0.092409
C        -3.813776   -0.005609    0.041028
O        -3.980578    1.149395    0.490870
O        -4.691300   -0.828833   -0.322615
H         0.159304   -1.330485   -0.299282
H         0.502942   -0.469054    1.198607
H        -2.280213   -1.522590   -0.484750
H        -1.423849    1.189765    0.614722
$end


$rem
N_FROZEN_CORE FC
MEM_TOTAL 7500
MEM_STATIC 3000
AUX_BASIS_CORR rimp2-def2-QZVPPD
SCF_CONVERGENCE 7
SCF_ALGORITHM  GDM
method DSD-PBEPBE-D3
GEN_SCFMAN TRUE
UNRESTRICTED True
THRESH  14
SYMMETRY FALSE
SYM_IGNORE TRUE
max_scf_cycles 200

XC_GRID 000099000590
BASIS DEF2-QZVPP


$end










