$molecule
-1 1
O         2.344375    0.735017   -0.000012
H         1.291203    1.729454   -0.000119
O         2.257963   -1.509466    0.000175
O         0.310045    2.091195   -0.000173
C         1.739619   -0.391046    0.000074
C         0.219389   -0.290680    0.000040
C        -0.411568    0.970166   -0.000078
C        -1.809689    1.039702   -0.000132
H        -2.274664    2.018914   -0.000232
C        -2.567082   -0.119332   -0.000054
H        -3.650494   -0.047894   -0.000093
C        -1.951794   -1.368804    0.000071
C        -0.564901   -1.435799    0.000111
H        -2.547456   -2.274741    0.000128
H        -0.041498   -2.384952    0.000204
$end


$rem
N_FROZEN_CORE FC
MEM_TOTAL 7500
MEM_STATIC 3000
AUX_BASIS_CORR rimp2-def2-QZVPPD
SCF_CONVERGENCE 7
SCF_ALGORITHM  GDM
method DSD-PBEPBE-D3
GEN_SCFMAN TRUE
UNRESTRICTED True
THRESH  14
SYMMETRY FALSE
SYM_IGNORE TRUE
max_scf_cycles 200

XC_GRID 000099000590
BASIS DEF2-QZVPP


$end










