$molecule
0 2
C         0.795499    1.212325    0.000001
C        -0.721464    1.237089   -0.000000
C         1.039815   -0.332697    0.000001
N        -0.004629   -1.082256    0.000002
C        -1.138944   -0.241529    0.000001
O        -2.264106   -0.641335   -0.000002
O         2.256519   -0.657927   -0.000002
H         1.262304    1.640163    0.885711
H         1.262307    1.640167   -0.885706
H        -1.140475    1.719206   -0.882683
H        -1.140476    1.719215    0.882676
$end


$rem
N_FROZEN_CORE FC
MEM_TOTAL 3750
MEM_STATIC 1500
AUX_BASIS_CORR rimp2-def2-QZVPPD
SCF_CONVERGENCE 7
SCF_ALGORITHM  GDM
method DSD-PBEPBE-D3
GEN_SCFMAN TRUE
UNRESTRICTED True
THRESH  14
SYMMETRY FALSE
SYM_IGNORE TRUE
max_scf_cycles 200

XC_GRID 000099000590
BASIS DEF2-QZVPP


$end










