$molecule
0 1
C         1.323707    0.161025    0.138253
C         0.423527    1.104460    0.400241
N         0.016316   -1.458064   -0.640124
N        -0.991308   -0.919779   -0.494933
N        -1.487491    0.194069   -0.212268
C        -2.706635    0.219679    0.583919
H        -2.604953   -0.344340    1.516270
H        -2.900998    1.264160    0.819716
H        -3.558412   -0.165367    0.019201
H         0.020850    1.717338    1.187593
C         1.180839    1.254350   -0.878850
H         1.949939    2.026195   -0.952328
H         0.676615    1.052491   -1.823050
C         2.386766   -0.674211    0.746827
H         2.041762   -1.127250    1.678079
H         2.700917   -1.471721    0.072702
H         3.262440   -0.056898    0.970751
$end


$rem
N_FROZEN_CORE FC
MEM_TOTAL 7500
MEM_STATIC 3000
AUX_BASIS_CORR rimp2-def2-QZVPPD
SCF_CONVERGENCE 7
SCF_ALGORITHM  GDM
method DSD-PBEPBE-D3
GEN_SCFMAN TRUE
UNRESTRICTED True
THRESH  14
SYMMETRY FALSE
SYM_IGNORE TRUE
max_scf_cycles 200

XC_GRID 000099000590
BASIS DEF2-QZVPP


$end










