$molecule
0 2
C        -0.000004    0.999438    1.228700
C        -0.000004   -0.371417    1.256321
C        -0.000005   -1.115464    0.000000
C        -0.000004   -0.371417   -1.256321
C        -0.000004    0.999438   -1.228700
C        -0.000003    1.655818    0.000000
H        -0.000005    1.588185    2.137696
H        -0.000005    1.588185   -2.137696
F        -0.000005    2.996006    0.000000
O         0.000000   -2.357385    0.000000
C         0.000008   -1.153123   -2.527142
H        -0.000109   -0.495834   -3.396351
H         0.873066   -1.807549   -2.572267
H        -0.872907   -1.807745   -2.572165
C         0.000008   -1.153123    2.527142
H         0.873066   -1.807549    2.572267
H        -0.000109   -0.495834    3.396351
H        -0.872907   -1.807745    2.572165
$end


$rem
N_FROZEN_CORE FC
MEM_TOTAL 7500
MEM_STATIC 3000
AUX_BASIS_CORR rimp2-def2-QZVPPD
SCF_CONVERGENCE 7
SCF_ALGORITHM  GDM
method DSD-PBEPBE-D3
GEN_SCFMAN TRUE
UNRESTRICTED True
THRESH  14
SYMMETRY FALSE
SYM_IGNORE TRUE
max_scf_cycles 200

XC_GRID 000099000590
BASIS DEF2-QZVPP


$end










