$molecule
0 2
C        -1.221650   -0.196300   -0.000001
C         0.000000    0.444208    0.000004
C         1.221649   -0.196300   -0.000001
H         0.000000    1.531191    0.000010
H         2.150489    0.358049    0.000001
H         1.282874   -1.278472   -0.000010
H        -2.150489    0.358050    0.000000
H        -1.282874   -1.278472   -0.000010
$end


$rem
N_FROZEN_CORE FC
MEM_TOTAL 3750
MEM_STATIC 1500
AUX_BASIS_CORR rimp2-def2-QZVPPD
SCF_CONVERGENCE 7
SCF_ALGORITHM  GDM
method DSD-PBEPBE-D3
GEN_SCFMAN TRUE
UNRESTRICTED True
THRESH  14
SYMMETRY FALSE
SYM_IGNORE TRUE
max_scf_cycles 200

XC_GRID 000099000590
BASIS DEF2-QZVPP


$end










