$molecule
0 2
N        -1.031915   -0.902207    0.201499
H        -0.710681   -1.800655    0.542474
C        -0.002514    0.001219   -0.245476
H        -0.150080    0.248231   -1.302058
C        -0.047378    1.323644    0.544035
C         1.338158   -0.721317   -0.094621
H        -1.045045    1.777974    0.376284
H        -0.000928    1.150953    1.632578
O         1.396330   -1.852606    0.348391
N         2.414717   -0.017900   -0.499317
H         2.331902    0.957854   -0.744491
H         3.326123   -0.424599   -0.360459
C        -2.341901   -0.645646    0.008819
H        -2.998265   -1.465176    0.341735
O        -2.771453    0.384298   -0.471610
O         0.861268    2.249404    0.163482
$end


$rem
N_FROZEN_CORE FC
MEM_TOTAL 7500
MEM_STATIC 3000
AUX_BASIS_CORR rimp2-def2-QZVPPD
SCF_CONVERGENCE 7
SCF_ALGORITHM  GDM
method DSD-PBEPBE-D3
GEN_SCFMAN TRUE
UNRESTRICTED True
THRESH  14
SYMMETRY FALSE
SYM_IGNORE TRUE
max_scf_cycles 200

XC_GRID 000099000590
BASIS DEF2-QZVPP


$end










