$molecule
-1 1
S         2.227134   -0.126973   -0.065208
C         0.832149    0.973775    0.373378
C        -0.474252    0.655327   -0.361639
H         1.085194    2.007923    0.129851
H         0.640073    0.932621    1.453458
N        -1.460197    1.716282   -0.148816
C        -1.056827   -0.726233   -0.018129
H        -0.232355    0.608250   -1.429718
O        -2.249118   -0.880051    0.163696
O        -0.213960   -1.733923    0.016430
H         0.756290   -1.384583   -0.059605
H        -2.385085    1.300874   -0.219236
H        -1.378682    2.047092    0.807620
$end


$rem
N_FROZEN_CORE FC
MEM_TOTAL 3750
MEM_STATIC 1500
AUX_BASIS_CORR rimp2-def2-QZVPPD
SCF_CONVERGENCE 7
SCF_ALGORITHM  GDM
method DSD-PBEPBE-D3
GEN_SCFMAN TRUE
UNRESTRICTED True
THRESH  14
SYMMETRY FALSE
SYM_IGNORE TRUE
max_scf_cycles 200

XC_GRID 000099000590
BASIS DEF2-QZVPP


$end










