$molecule
0 2
N        -0.000048   -0.000520    0.826418
C         1.163057   -0.306533    0.090800
C        -1.162972    0.306364    0.090899
O        -1.361956    1.441236   -0.257181
O         1.362694   -1.441194   -0.257570
C        -2.070616   -0.861878   -0.138419
C         2.069998    0.862314   -0.138254
H        -2.458015   -1.211710    0.820461
H        -1.508106   -1.685474   -0.584065
H        -2.891511   -0.558838   -0.785285
H         2.891029    0.559923   -0.785251
H         2.457258    1.212102    0.820699
H         1.506967    1.685703   -0.583620
$end


$rem
N_FROZEN_CORE FC
MEM_TOTAL 3750
MEM_STATIC 1500
AUX_BASIS_CORR rimp2-def2-QZVPPD
SCF_CONVERGENCE 7
SCF_ALGORITHM  GDM
method DSD-PBEPBE-D3
GEN_SCFMAN TRUE
UNRESTRICTED True
THRESH  14
SYMMETRY FALSE
SYM_IGNORE TRUE
max_scf_cycles 200

XC_GRID 000099000590
BASIS DEF2-QZVPP


$end










