$molecule
0 1
H         1.520659    1.763747    0.027283
N         0.648351    1.262780    0.050174
C         0.662831   -0.087241    0.006248
C        -0.709214   -0.744628    0.114273
O         1.670544   -0.759020   -0.089845
N        -1.817788    0.186166   -0.070461
H        -0.758448   -1.165389    1.120981
H        -0.704927   -1.590402   -0.579257
H        -2.635352   -0.089278    0.455995
H        -2.086312    0.265115   -1.043313
H        -0.235614    1.736955    0.155957
$end


$rem
N_FROZEN_CORE FC
MEM_TOTAL 3750
MEM_STATIC 1500
AUX_BASIS_CORR rimp2-def2-QZVPPD
SCF_CONVERGENCE 7
SCF_ALGORITHM  GDM
method DSD-PBEPBE-D3
GEN_SCFMAN TRUE
UNRESTRICTED True
THRESH  14
SYMMETRY FALSE
SYM_IGNORE TRUE
max_scf_cycles 200

XC_GRID 000099000590
BASIS DEF2-QZVPP


$end










