$molecule
0 2
C         0.000001   -0.452131    0.695770
C         0.000001   -0.452131   -0.695770
C         0.000001   -1.630966   -1.415396
C         0.000001   -2.821869   -0.696982
C         0.000001   -2.821869    0.696982
C         0.000001   -1.630966    1.415396
C         0.000001    0.940889    1.196250
C         0.000001    0.940889   -1.196250
H         0.000001   -1.618421   -2.497750
H         0.000001   -3.766086   -1.227153
H         0.000001   -3.766086    1.227153
H         0.000001   -1.618421    2.497750
O        -0.000001    1.374045   -2.305072
O        -0.000001    1.374045    2.305072
N        -0.000001    1.754730    0.000000
O        -0.000003    3.008763    0.000000
$end


$rem
N_FROZEN_CORE FC
MEM_TOTAL 7500
MEM_STATIC 3000
AUX_BASIS_CORR rimp2-def2-QZVPPD
SCF_CONVERGENCE 7
SCF_ALGORITHM  GDM
method DSD-PBEPBE-D3
GEN_SCFMAN TRUE
UNRESTRICTED True
THRESH  14
SYMMETRY FALSE
SYM_IGNORE TRUE
max_scf_cycles 200

XC_GRID 000099000590
BASIS DEF2-QZVPP


$end










