$molecule
0 1
C        -0.658352   -1.465003   -0.000034
C         0.150316   -0.329021   -0.000061
C        -0.386738    0.977916   -0.000009
C        -1.776468    1.138041    0.000025
C        -2.580947    0.016468    0.000033
C        -2.026250   -1.273621    0.000010
H        -0.235250   -2.462193   -0.000034
H        -2.213978    2.129575    0.000049
H        -3.658349    0.128201    0.000064
H        -2.684072   -2.134255    0.000031
C         0.727145    1.880800   -0.000015
C         1.853552    1.115402   -0.000040
H         2.890810    1.412765   -0.000053
N         1.521658   -0.222077   -0.000121
H         0.693126    2.958249   -0.000021
C         2.444036   -1.331776    0.000138
H         2.307489   -1.953691   -0.887991
H         3.462347   -0.946800   -0.000711
H         2.308497   -1.952552    0.889228
$end


$rem
N_FROZEN_CORE FC
MEM_TOTAL 15000
MEM_STATIC 6000
AUX_BASIS_CORR rimp2-def2-QZVPPD
SCF_CONVERGENCE 7
SCF_ALGORITHM  GDM
method DSD-PBEPBE-D3
GEN_SCFMAN TRUE
UNRESTRICTED True
THRESH  14
SYMMETRY FALSE
SYM_IGNORE TRUE
max_scf_cycles 200

XC_GRID 000099000590
BASIS DEF2-QZVPP


$end










