$molecule
0 1
C         3.311522    0.693859   -1.180634
C         2.262875    1.397528   -0.596839
C         1.211432    0.696477   -0.033969
C         1.211432   -0.696477   -0.033969
C         2.262875   -1.397528   -0.596839
C         3.311522   -0.693859   -1.180634
H         4.134006    1.233881   -1.633569
H         2.273013    2.480138   -0.590213
C         0.000000    1.279301    0.655385
C         0.000000   -1.279301    0.655385
H         2.273013   -2.480138   -0.590213
H         4.134006   -1.233881   -1.633569
N         0.000000    0.607795    2.047139
N         0.000000   -0.607795    2.047139
C         0.000000   -2.773927    0.860379
H         0.000000   -3.303406   -0.093729
H         0.881578   -3.074435    1.427024
H        -0.881578   -3.074435    1.427024
C         0.000000    2.773927    0.860379
H         0.881578    3.074435    1.427024
H         0.000000    3.303406   -0.093729
H        -0.881578    3.074435    1.427024
C        -3.311522    0.693859   -1.180634
C        -2.262875    1.397528   -0.596839
C        -1.211432    0.696477   -0.033969
C        -1.211432   -0.696477   -0.033969
C        -2.262875   -1.397528   -0.596839
C        -3.311522   -0.693859   -1.180634
H        -4.134006    1.233881   -1.633569
H        -2.273013    2.480138   -0.590213
H        -4.134006   -1.233881   -1.633569
H        -2.273013   -2.480138   -0.590213
$end


$rem
N_FROZEN_CORE FC
MEM_TOTAL 60000
MEM_STATIC 8000
AUX_BASIS_CORR rimp2-def2-QZVPPD
SCF_CONVERGENCE 7
SCF_ALGORITHM  GDM
method DSD-PBEPBE-D3
GEN_SCFMAN TRUE
UNRESTRICTED True
THRESH  14
SYMMETRY FALSE
SYM_IGNORE TRUE
max_scf_cycles 200

XC_GRID 000099000590
BASIS DEF2-QZVPP


$end










