$molecule
-1 1
O         2.320508    0.733853   -0.000022
H         1.444652    1.565034    0.000001
O         2.264558   -1.504860   -0.000051
O         0.356313    2.062090    0.000023
C         1.708776   -0.412726   -0.000029
C         0.207256   -0.302110   -0.000007
C        -0.390631    0.984991    0.000019
C        -1.797874    1.060467    0.000039
H        -2.253398    2.044270    0.000058
C        -2.566259   -0.088114    0.000034
H        -3.649140   -0.001944    0.000050
C        -1.973405   -1.351995    0.000009
C        -0.588921   -1.439026   -0.000011
H        -2.584452   -2.247331    0.000006
H        -0.082341   -2.397603   -0.000031
$end


$rem
N_FROZEN_CORE FC
MEM_TOTAL 7500
MEM_STATIC 3000
AUX_BASIS_CORR rimp2-def2-QZVPPD
SCF_CONVERGENCE 7
SCF_ALGORITHM  GDM
method DSD-PBEPBE-D3
GEN_SCFMAN TRUE
UNRESTRICTED True
THRESH  14
SYMMETRY FALSE
SYM_IGNORE TRUE
max_scf_cycles 200

XC_GRID 000099000590
BASIS DEF2-QZVPP


$end










