$molecule
0 1
C         1.478586    1.269997    0.000000
C         1.478586   -1.269997    0.000000
N         1.689025    0.646873    1.174381
N         1.689025   -0.646873    1.174381
C         1.346891   -2.755431   -0.000000
H         0.819613   -3.084573   -0.893690
H         2.339025   -3.212772    0.000000
H         0.819613   -3.084573    0.893689
C         1.346891    2.755431    0.000001
H         2.339024    3.212772    0.000000
H         0.819612    3.084573   -0.893688
H         0.819612    3.084573    0.893690
C        -3.282593    0.700480   -0.000001
C        -2.097535    1.449198    0.000001
C        -0.995069    0.623120    0.000001
C        -0.995069   -0.623121    0.000000
C        -2.097535   -1.449199   -0.000001
C        -3.282593   -0.700481   -0.000001
H        -4.231537    1.224580   -0.000001
H        -2.094736    2.530876    0.000001
H        -2.094736   -2.530876   -0.000002
H        -4.231537   -1.224580   -0.000002
N         1.689024    0.646874   -1.174380
N         1.689025   -0.646873   -1.174381
$end


$rem
N_FROZEN_CORE FC
MEM_TOTAL 30000
MEM_STATIC 8000
AUX_BASIS_CORR rimp2-def2-QZVPPD
SCF_CONVERGENCE 7
SCF_ALGORITHM  GDM
method DSD-PBEPBE-D3
GEN_SCFMAN TRUE
UNRESTRICTED True
THRESH  14
SYMMETRY FALSE
SYM_IGNORE TRUE
max_scf_cycles 200

XC_GRID 000099000590
BASIS DEF2-QZVPP


$end










