$molecule
-1 1
C         0.344543    0.000000    0.167131
C         0.840033    1.260186   -0.599945
H         0.530625    1.283829   -1.652348
H         1.931650    1.265867   -0.539934
H         0.464588    2.150502   -0.092459
C         0.840042   -1.260178   -0.599952
H         0.530627   -1.283821   -1.652353
H         0.464612   -2.150501   -0.092467
H         1.931659   -1.265845   -0.539949
C        -1.185965   -0.000006   -0.018530
N        -2.336610   -0.000001   -0.097322
O         0.683823   -0.000004    1.444817
$end


$rem
N_FROZEN_CORE FC
MEM_TOTAL 3750
MEM_STATIC 1500
AUX_BASIS_CORR rimp2-def2-QZVPPD
SCF_CONVERGENCE 7
SCF_ALGORITHM  GDM
method DSD-PBEPBE-D3
GEN_SCFMAN TRUE
UNRESTRICTED True
THRESH  14
SYMMETRY FALSE
SYM_IGNORE TRUE
max_scf_cycles 200

XC_GRID 000099000590
BASIS DEF2-QZVPP


$end










