$molecule
0 1
C        -0.134415   -0.453779   -0.000016
C        -1.275060    0.220740   -0.000068
C         1.229221    0.161884    0.000076
H         1.800134   -0.152714    0.878360
H         1.800294   -0.152780   -0.878081
H         1.174220    1.251861    0.000031
H        -0.168667   -1.541035   -0.000056
H        -1.291154    1.305993   -0.000055
H        -2.233306   -0.284393   -0.000151
$end


$rem
N_FROZEN_CORE FC
MEM_TOTAL 3750
MEM_STATIC 1500
AUX_BASIS_CORR rimp2-def2-QZVPPD
SCF_CONVERGENCE 7
SCF_ALGORITHM  GDM
method DSD-PBEPBE-D3
GEN_SCFMAN TRUE
UNRESTRICTED True
THRESH  14
SYMMETRY FALSE
SYM_IGNORE TRUE
max_scf_cycles 200

XC_GRID 000099000590
BASIS DEF2-QZVPP


$end










