$molecule
0 1
N        -0.026096   -0.358678   -0.000434
C        -1.158221    0.464688   -0.000048
C         1.366764   -0.091893    0.000035
O         2.135454   -1.009895    0.000505
O        -1.035251    1.662501   -0.000012
C         1.756271    1.355852   -0.000222
C        -2.470469   -0.262498    0.000231
F        -0.307425   -1.701446   -0.000110
H         1.355775    1.868273   -0.874197
H         2.843277    1.389721   -0.000158
H         1.355680    1.868573    0.873536
H        -2.556358   -0.902450    0.879236
H        -2.556708   -0.902534   -0.878675
H        -3.259852    0.484431    0.000359
$end


$rem
N_FROZEN_CORE FC
MEM_TOTAL 3750
MEM_STATIC 1500
AUX_BASIS_CORR rimp2-def2-QZVPPD
SCF_CONVERGENCE 7
SCF_ALGORITHM  GDM
method DSD-PBEPBE-D3
GEN_SCFMAN TRUE
UNRESTRICTED True
THRESH  14
SYMMETRY FALSE
SYM_IGNORE TRUE
max_scf_cycles 200

XC_GRID 000099000590
BASIS DEF2-QZVPP


$end










