$molecule
0 1
C         0.898157    0.030419   -0.000008
C         0.184487    1.229409   -0.000002
C        -1.191390    1.148183    0.000003
C        -1.807057   -0.102441    0.000005
C        -0.998599   -1.221869    0.000004
N         0.335853   -1.162186   -0.000002
H         0.713770    2.172093   -0.000001
O         2.244926    0.082367   -0.000002
H        -1.787119    2.053120    0.000005
H        -2.883929   -0.202249    0.000007
H        -1.427019   -2.218426    0.000005
H         2.560329   -0.830380   -0.000000
$end


$rem
N_FROZEN_CORE FC
MEM_TOTAL 3750
MEM_STATIC 1500
AUX_BASIS_CORR rimp2-def2-QZVPPD
SCF_CONVERGENCE 7
SCF_ALGORITHM  GDM
method DSD-PBEPBE-D3
GEN_SCFMAN TRUE
UNRESTRICTED True
THRESH  14
SYMMETRY FALSE
SYM_IGNORE TRUE
max_scf_cycles 200

XC_GRID 000099000590
BASIS DEF2-QZVPP


$end










