$molecule
0 1
Cl         0.659402    0.000000    0.000000
C        -1.130674    0.000000    0.000000
H        -1.475263   -0.580448    0.850841
H        -1.475264   -0.446627   -0.928102
H        -1.475262    1.027075    0.077262
$end


$rem
N_FROZEN_CORE FC
MEM_TOTAL 3750
INTERNAL_STABILITY TRUE
MEM_STATIC 1500
AUX_BASIS_CORR rimp2-def2-QZVPPD
SCF_CONVERGENCE 7
SCF_ALGORITHM  GDM
method DSD-PBEPBE-D3
GEN_SCFMAN TRUE
UNRESTRICTED True
THRESH  14
SYMMETRY FALSE
SYM_IGNORE TRUE
max_scf_cycles 200

XC_GRID 000099000590
BASIS DEF2-QZVPP


$end










