$molecule
0 1
C        -0.691964    1.188907   -0.000000
C         0.691964    1.188907    0.000001
C         1.413079   -0.005357    0.000001
C         0.695332   -1.193912    0.000001
C        -0.695332   -1.193912   -0.000000
C        -1.413079   -0.005357   -0.000001
H        -1.225787    2.133677   -0.000000
H        -1.227802   -2.138860   -0.000001
H         1.227802   -2.138860    0.000002
H         1.225787    2.133677    0.000001
C         2.917851    0.005520   -0.000001
H         3.309163    0.521154   -0.880514
H         3.320400   -1.008127    0.000029
C        -2.917851    0.005520   -0.000000
H        -3.320400   -1.008127   -0.000017
H        -3.309163    0.521166    0.880506
H        -3.309164    0.521196   -0.880488
H         3.309165    0.521208    0.880480
$end


$rem
N_FROZEN_CORE FC
MEM_TOTAL 7500
MEM_STATIC 3000
AUX_BASIS_CORR rimp2-def2-QZVPPD
SCF_CONVERGENCE 7
SCF_ALGORITHM  GDM
method DSD-PBEPBE-D3
GEN_SCFMAN TRUE
UNRESTRICTED True
THRESH  14
SYMMETRY FALSE
SYM_IGNORE TRUE
max_scf_cycles 200

XC_GRID 000099000590
BASIS DEF2-QZVPP


$end










