$molecule
-1 1
C        -0.091975    0.877286    0.178178
C        -1.210430    0.162093    0.060254
C        -2.230213   -0.613845    0.044331
O         1.136931    0.461416   -0.412876
C         1.624636   -0.732844    0.137281
H        -2.940741   -0.496751   -0.780123
H         0.000025    1.810549    0.721215
H         2.537047   -1.001784   -0.406491
H         1.862226   -0.614246    1.205847
H         0.893884   -1.545233    0.042298
$end


$rem
N_FROZEN_CORE FC
MEM_TOTAL 3750
MEM_STATIC 1500
AUX_BASIS_CORR rimp2-def2-QZVPPD
SCF_CONVERGENCE 7
SCF_ALGORITHM  GDM
method DSD-PBEPBE-D3
GEN_SCFMAN TRUE
UNRESTRICTED True
THRESH  14
SYMMETRY FALSE
SYM_IGNORE TRUE
max_scf_cycles 200

XC_GRID 000099000590
BASIS DEF2-QZVPP


$end










