$molecule
0 2
C         0.767127    1.230378   -0.015000
C        -0.767130    1.230378   -0.015009
C         1.142740   -0.247651   -0.030638
N        -0.000000   -0.976324   -0.406838
C        -1.142740   -0.247650   -0.030642
O        -2.209136   -0.735348    0.215047
O         2.209140   -0.735344    0.215042
H         1.210572    1.689514    0.868174
H         1.201588    1.714019   -0.890709
H        -1.201579    1.714015   -0.890727
H        -1.210589    1.689524    0.868153
$end


$rem
N_FROZEN_CORE FC
MEM_TOTAL 3750
MEM_STATIC 1500
AUX_BASIS_CORR rimp2-def2-QZVPPD
SCF_CONVERGENCE 7
SCF_ALGORITHM  GDM
method DSD-PBEPBE-D3
GEN_SCFMAN TRUE
UNRESTRICTED True
THRESH  14
SYMMETRY FALSE
SYM_IGNORE TRUE
max_scf_cycles 200

XC_GRID 000099000590
BASIS DEF2-QZVPP


$end










