$molecule
-1 1
C        -1.284462   -0.484111   -0.000009
C         0.133612    0.110326   -0.000007
C         1.186369   -0.780983   -0.000047
O         0.187517    1.376814    0.000066
H        -1.823207   -0.119864   -0.880752
H        -1.295129   -1.578415   -0.000052
H        -1.823183   -0.119933    0.880777
H         1.020268   -1.852286   -0.000091
H         2.208002   -0.415403   -0.000030
$end


$rem
N_FROZEN_CORE FC
MEM_TOTAL 3750
MEM_STATIC 1500
AUX_BASIS_CORR rimp2-def2-QZVPPD
SCF_CONVERGENCE 7
SCF_ALGORITHM  GDM
method DSD-PBEPBE-D3
GEN_SCFMAN TRUE
UNRESTRICTED True
THRESH  14
SYMMETRY FALSE
SYM_IGNORE TRUE
max_scf_cycles 200

XC_GRID 000099000590
BASIS DEF2-QZVPP


$end










