$molecule
-1 1
C        -0.382612    1.307323   -0.009961
N         0.987298    1.074714   -0.046862
C         1.567819   -0.160687   -0.018371
N         0.853283   -1.235369   -0.007620
C        -0.496770   -1.107215   -0.034820
C        -1.209131    0.104771    0.009562
N        -2.539739    0.124683    0.049971
O        -0.798649    2.473184   -0.000252
N         2.989081   -0.174358   -0.018721
H         3.289859   -1.100216   -0.297064
H         3.365716    0.005781    0.908845
H         1.567551    1.896357   -0.133702
N        -1.258266   -2.284511   -0.098497
H        -2.219717   -2.054432    0.141826
H        -0.873118   -3.029537    0.466140
H        -2.838538    1.095310    0.089612
$end


$rem
N_FROZEN_CORE FC
MEM_TOTAL 7500
MEM_STATIC 3000
AUX_BASIS_CORR rimp2-def2-QZVPPD
SCF_CONVERGENCE 7
SCF_ALGORITHM  GDM
method DSD-PBEPBE-D3
GEN_SCFMAN TRUE
UNRESTRICTED True
THRESH  14
SYMMETRY FALSE
SYM_IGNORE TRUE
max_scf_cycles 200

XC_GRID 000099000590
BASIS DEF2-QZVPP


$end










