$molecule
0 2
C         0.339430   -0.606170   -0.024083
C        -1.088123   -1.139940   -0.028513
C        -1.990434    0.110004   -0.102412
H        -1.246168   -1.721466    0.879399
H        -1.222554   -1.805552   -0.880418
C        -1.058347    1.295927    0.184506
H        -2.826807    0.060949    0.594590
H        -2.411898    0.208704   -1.105195
C         0.284034    0.861352   -0.445929
H        -0.919710    1.432307    1.260097
H        -1.418973    2.238412   -0.226929
C         1.470443    1.666438   -0.079226
F         0.865239   -0.700506    1.246202
F         1.175272   -1.339400   -0.819181
H         1.851471    2.426309   -0.746526
H         1.934391    1.540776    0.889314
H         0.153640    0.853054   -1.533580
$end


$rem
N_FROZEN_CORE FC
MEM_TOTAL 7500
MEM_STATIC 3000
AUX_BASIS_CORR rimp2-def2-QZVPPD
SCF_CONVERGENCE 7
SCF_ALGORITHM  GDM
method DSD-PBEPBE-D3
GEN_SCFMAN TRUE
UNRESTRICTED True
THRESH  14
SYMMETRY FALSE
SYM_IGNORE TRUE
max_scf_cycles 200

XC_GRID 000099000590
BASIS DEF2-QZVPP


$end










