$molecule
0 2
C        -0.089385    1.231982    0.000011
C        -1.461741    1.211635    0.000017
C        -2.176392   -0.017356    0.000008
C        -1.416832   -1.218287   -0.000008
C        -0.043070   -1.190378   -0.000014
C         0.636984    0.034317   -0.000005
H         0.456092    2.166860    0.000017
H         0.523730   -2.111449   -0.000027
H        -1.939785   -2.167307   -0.000015
H        -2.019297    2.140727    0.000030
C        -3.572205   -0.043668    0.000015
H        -4.146928    0.873139    0.000027
H        -4.112262   -0.981332    0.000008
C         2.110371    0.112735   -0.000012
O         2.748551    1.135155    0.000004
O         2.707791   -1.098488   -0.000016
H         3.661329   -0.939852   -0.000012
$end


$rem
N_FROZEN_CORE FC
MEM_TOTAL 7500
MEM_STATIC 3000
AUX_BASIS_CORR rimp2-def2-QZVPPD
SCF_CONVERGENCE 7
SCF_ALGORITHM  GDM
method DSD-PBEPBE-D3
GEN_SCFMAN TRUE
UNRESTRICTED True
THRESH  14
SYMMETRY FALSE
SYM_IGNORE TRUE
max_scf_cycles 200

XC_GRID 000099000590
BASIS DEF2-QZVPP


$end










