$molecule
0 1
C        -0.071466    1.069555    0.663439
C        -0.071466    1.069555   -0.663439
C        -0.071466   -0.328718    1.227620
C        -0.071466   -0.328718   -1.227620
C         0.277507   -1.196683    0.000000
H         0.639964   -0.458095    2.046842
H        -1.061071   -0.573281    1.631641
H        -1.061071   -0.573281   -1.631641
H         0.639964   -0.458095   -2.046842
H        -0.238036   -2.157667    0.000000
H         1.350331   -1.402040    0.000000
H        -0.109964    1.956256    1.284651
H        -0.109964    1.956256   -1.284651
$end


$rem
N_FROZEN_CORE FC
MEM_TOTAL 3750
MEM_STATIC 1500
AUX_BASIS_CORR rimp2-def2-QZVPPD
SCF_CONVERGENCE 7
SCF_ALGORITHM  GDM
method DSD-PBEPBE-D3
GEN_SCFMAN TRUE
UNRESTRICTED True
THRESH  14
SYMMETRY FALSE
SYM_IGNORE TRUE
max_scf_cycles 200

XC_GRID 000099000590
BASIS DEF2-QZVPP


$end










