$molecule
0 1
C         1.465811    1.056322    0.487723
C         0.690934   -1.012736    0.633134
C        -0.690934   -1.012736    0.633134
C        -1.465811    1.056322    0.487723
C         0.697246    1.619518   -0.509498
C        -0.697246    1.619518   -0.509498
C         1.630879   -1.322658   -0.491047
H         1.153235   -1.170320    1.603255
C         2.864654    0.622736    0.164180
H         1.166637    1.142207    1.523634
O         2.903908   -0.768518   -0.210718
H         1.231577   -0.974177   -1.451726
H         1.811728   -2.397635   -0.571601
H         3.547449    0.731605    1.007742
H         3.251737    1.211144   -0.673797
C        -1.630879   -1.322658   -0.491047
H        -1.153235   -1.170320    1.603255
O        -2.903908   -0.768518   -0.210718
H        -1.183751    1.826223   -1.458711
H         1.183751    1.826223   -1.458711
C        -2.864654    0.622736    0.164180
H        -1.231577   -0.974177   -1.451726
H        -1.811728   -2.397635   -0.571601
H        -3.251737    1.211144   -0.673797
H        -3.547449    0.731605    1.007742
H        -1.166637    1.142207    1.523634
$end


$rem
N_FROZEN_CORE FC
MEM_TOTAL 30000
MEM_STATIC 8000
AUX_BASIS_CORR rimp2-def2-QZVPPD
SCF_CONVERGENCE 7
SCF_ALGORITHM  GDM
method DSD-PBEPBE-D3
GEN_SCFMAN TRUE
UNRESTRICTED True
THRESH  14
SYMMETRY FALSE
SYM_IGNORE TRUE
max_scf_cycles 200

XC_GRID 000099000590
BASIS DEF2-QZVPP


$end










