$molecule
1 1
C        -0.712446   -1.205197    0.000029
C        -1.406019    0.000010    0.000056
H        -1.229865    2.154512    0.000051
H         1.278721    2.071148   -0.000050
H        -1.229898   -2.154493    0.000051
H        -2.489144    0.000020    0.000099
C         0.662121   -1.182781   -0.000027
C        -0.712425    1.205209    0.000029
N         1.301968   -0.000011   -0.000052
C         0.662139    1.182772   -0.000027
H         1.278686   -2.071169   -0.000050
H         2.317506   -0.000018   -0.000096
$end


$rem
N_FROZEN_CORE FC
MEM_TOTAL 3750
MEM_STATIC 1500
AUX_BASIS_CORR rimp2-def2-QZVPPD
SCF_CONVERGENCE 7
SCF_ALGORITHM  GDM
method DSD-PBEPBE-D3
GEN_SCFMAN TRUE
UNRESTRICTED True
THRESH  14
SYMMETRY FALSE
SYM_IGNORE TRUE
max_scf_cycles 200

XC_GRID 000099000590
BASIS DEF2-QZVPP


$end










