$molecule
0 1
C        -1.194209   -1.198530    0.002029
C         0.193643   -1.195587   -0.008863
C         0.908055   -0.000001   -0.011096
C         0.193645    1.195586   -0.008863
C        -1.194207    1.198531    0.002029
C        -1.894207    0.000001    0.008260
H        -1.730316   -2.140273    0.001823
H        -1.730312    2.140275    0.001823
H        -2.977417    0.000001    0.013914
H         0.732161    2.137139   -0.017795
H         0.732159   -2.137140   -0.017795
C         2.412733   -0.000000    0.009300
H         2.816431    0.883491   -0.487690
H         2.816433   -0.883497   -0.487678
H         2.788144    0.000007    1.036616
$end


$rem
N_FROZEN_CORE FC
MEM_TOTAL 3750
MEM_STATIC 1500
AUX_BASIS_CORR rimp2-def2-QZVPPD
SCF_CONVERGENCE 7
SCF_ALGORITHM  GDM
method DSD-PBEPBE-D3
GEN_SCFMAN TRUE
UNRESTRICTED True
THRESH  14
SYMMETRY FALSE
SYM_IGNORE TRUE
max_scf_cycles 200

XC_GRID 000099000590
BASIS DEF2-QZVPP


$end










