$molecule
0 1
C         0.663693   -0.020627    0.000000
H         1.024004   -0.544893    0.891833
H         1.024003   -0.544900   -0.891829
H         1.082752    0.984635   -0.000004
O        -0.745360    0.122086    0.000000
H        -1.150031   -0.747773    0.000000
$end


$rem
N_FROZEN_CORE FC
MEM_TOTAL 3750
MEM_STATIC 1500
AUX_BASIS_CORR rimp2-def2-QZVPPD
SCF_CONVERGENCE 7
SCF_ALGORITHM  GDM
method DSD-PBEPBE-D3
GEN_SCFMAN TRUE
UNRESTRICTED True
THRESH  14
SYMMETRY FALSE
SYM_IGNORE TRUE
max_scf_cycles 200

XC_GRID 000099000590
BASIS DEF2-QZVPP


$end










