$molecule
-1 1
C         2.751275   -0.276646   -0.214230
C         2.180404    0.967278   -0.453941
C         0.824758    1.172341   -0.223964
C         0.026851    0.139562    0.243511
C         0.601125   -1.104784    0.483462
C         1.954188   -1.315868    0.256178
H         3.809027   -0.438675   -0.393364
H         2.796942    1.781485   -0.822051
H         0.325609    2.121161   -0.389419
H        -0.022624   -1.918902    0.841592
H         2.390031   -2.292214    0.442450
C        -1.467671    0.454722    0.523288
C        -2.271777   -0.600349   -0.237924
N        -2.932438   -1.357775   -0.801601
O        -1.844290    1.688259    0.260462
H        -1.612513    0.127957    1.590016
$end


$rem
N_FROZEN_CORE FC
MEM_TOTAL 7500
MEM_STATIC 3000
AUX_BASIS_CORR rimp2-def2-QZVPPD
SCF_CONVERGENCE 7
SCF_ALGORITHM  GDM
method DSD-PBEPBE-D3
GEN_SCFMAN TRUE
UNRESTRICTED True
THRESH  14
SYMMETRY FALSE
SYM_IGNORE TRUE
max_scf_cycles 200

XC_GRID 000099000590
BASIS DEF2-QZVPP


$end










