$molecule
0 2
N         0.000195   -0.001434    0.826415
C         1.162893    0.306209    0.090878
C        -1.163138   -0.306688    0.090820
O        -1.363450   -1.441189   -0.257657
O         1.361204    1.441238   -0.257095
C        -2.069390    0.862728   -0.138086
C         2.071224   -0.861465   -0.138585
H        -1.505866    1.685844   -0.583330
H        -2.456450    1.212614    0.820912
H        -2.890598    0.560891   -0.785118
H         2.891943   -0.557873   -0.785414
H         1.509207   -1.685333   -0.584352
H         2.458820   -1.211198    0.820251
$end


$rem
N_FROZEN_CORE FC
MEM_TOTAL 3750
MEM_STATIC 1500
AUX_BASIS_CORR rimp2-def2-QZVPPD
SCF_CONVERGENCE 7
SCF_ALGORITHM  GDM
method DSD-PBEPBE-D3
GEN_SCFMAN TRUE
UNRESTRICTED True
THRESH  14
SYMMETRY FALSE
SYM_IGNORE TRUE
max_scf_cycles 200

XC_GRID 000099000590
BASIS DEF2-QZVPP


$end










