$molecule
0 2
C        -0.882660   -0.621599    0.533468
C        -1.100149    0.850265    0.733253
C        -0.315053    1.626512   -0.328449
H        -0.747601    1.148711    1.724533
H        -2.167794    1.101716    0.684025
C         1.115117    1.098056   -0.304824
H        -0.350938    2.704152   -0.150572
H        -0.755893    1.453558   -1.315795
C         1.134554   -0.409358   -0.379065
H         1.614161    1.416899    0.616047
H         1.693163    1.509950   -1.138068
C         2.024357   -1.166038    0.326181
H         2.148480   -2.223662    0.129748
H         2.574748   -0.749120    1.162470
H         0.735273   -0.834904   -1.296468
C        -1.696832   -1.334938   -0.500357
H        -1.755843   -0.771231   -1.435507
H        -2.727682   -1.487676   -0.153062
H        -1.284225   -2.321108   -0.726941
H        -0.651858   -1.204688    1.418349
$end


$rem
N_FROZEN_CORE FC
MEM_TOTAL 7500
MEM_STATIC 3000
AUX_BASIS_CORR rimp2-def2-QZVPPD
SCF_CONVERGENCE 7
SCF_ALGORITHM  GDM
method DSD-PBEPBE-D3
GEN_SCFMAN TRUE
UNRESTRICTED True
THRESH  14
SYMMETRY FALSE
SYM_IGNORE TRUE
max_scf_cycles 200

XC_GRID 000099000590
BASIS DEF2-QZVPP


$end










