$molecule
0 1
C        -1.878499   -0.765802    0.000015
C        -1.878499    0.765802    0.000053
C        -0.422667   -1.184157    0.000034
N         0.324451    0.000000   -0.000001
C        -0.422667    1.184157   -0.000021
O         0.033861    2.287910   -0.000019
O         0.033861   -2.287910    0.000007
Cl         2.013485    0.000000   -0.000032
H        -2.357031   -1.199351   -0.878227
H        -2.357066   -1.199402    0.878211
H        -2.356998    1.199350    0.878313
H        -2.357099    1.199403   -0.878125
$end


$rem
N_FROZEN_CORE FC
MEM_TOTAL 3750
MEM_STATIC 1500
AUX_BASIS_CORR rimp2-def2-QZVPPD
SCF_CONVERGENCE 7
SCF_ALGORITHM  GDM
method DSD-PBEPBE-D3
GEN_SCFMAN TRUE
UNRESTRICTED True
THRESH  14
SYMMETRY FALSE
SYM_IGNORE TRUE
max_scf_cycles 200

XC_GRID 000099000590
BASIS DEF2-QZVPP


$end










