$molecule
0 2
C        -0.773908    0.012196   -0.080600
C         0.080048    1.224258    0.116083
C         0.067825   -1.226459   -0.127725
C        -2.253756    0.005553    0.018627
C         1.496480    0.730204   -0.212062
C         1.481043   -0.737494    0.233971
H         0.030688    1.577125    1.160312
H        -0.234670    2.071847   -0.502564
H         0.052932   -1.674632   -1.133093
H        -0.292851   -2.008365    0.551816
H        -2.688235    0.941349   -0.343727
H        -2.595730   -0.120151    1.058633
H        -2.693365   -0.816008   -0.554653
H         2.281351    1.314393    0.271549
H         1.661482    0.786848   -1.292201
H         1.618624   -0.789960    1.318226
H         2.273375   -1.331994   -0.224065
$end


$rem
N_FROZEN_CORE FC
MEM_TOTAL 7500
MEM_STATIC 3000
AUX_BASIS_CORR rimp2-def2-QZVPPD
SCF_CONVERGENCE 7
SCF_ALGORITHM  GDM
method DSD-PBEPBE-D3
GEN_SCFMAN TRUE
UNRESTRICTED True
THRESH  14
SYMMETRY FALSE
SYM_IGNORE TRUE
max_scf_cycles 200

XC_GRID 000099000590
BASIS DEF2-QZVPP


$end










