$molecule
0 1
C         1.722265    0.707465   -0.000027
C         0.389276    0.615791   -0.000025
C        -0.389276   -0.615791    0.000008
C        -1.722265   -0.707465    0.000022
C         2.716364   -0.410547    0.000000
H         2.252408   -1.395635    0.000134
H         3.366313   -0.345410   -0.877639
H         3.366455   -0.345239    0.877520
C        -2.716364    0.410547    0.000015
H        -2.252409    1.395635   -0.000234
H        -3.366543    0.345177   -0.877434
H        -3.366225    0.345473    0.877725
H         2.151886    1.705695   -0.000056
H        -0.167975    1.546002   -0.000046
H         0.167975   -1.546002    0.000021
H        -2.151886   -1.705694    0.000053
$end


$rem
N_FROZEN_CORE FC
MEM_TOTAL 3750
MEM_STATIC 1500
AUX_BASIS_CORR rimp2-def2-QZVPPD
SCF_CONVERGENCE 7
SCF_ALGORITHM  GDM
method DSD-PBEPBE-D3
GEN_SCFMAN TRUE
UNRESTRICTED True
THRESH  14
SYMMETRY FALSE
SYM_IGNORE TRUE
max_scf_cycles 200

XC_GRID 000099000590
BASIS DEF2-QZVPP


$end










