$molecule
1 1
C         0.000000   -1.817884    0.000000
C         0.000000   -1.124983    1.205530
C         0.000000    0.251864    1.193572
N         0.000000    0.853443    0.000000
C         0.000000    0.251864   -1.193572
C         0.000000   -1.124983   -1.205530
F         0.000001    2.199176    0.000000
H         0.000001   -2.900678    0.000000
H        -0.000001   -1.639272    2.156841
H         0.000000    0.898636    2.060973
H         0.000000    0.898636   -2.060973
H        -0.000001   -1.639272   -2.156841
$end


$rem
N_FROZEN_CORE FC
MEM_TOTAL 3750
MEM_STATIC 1500
AUX_BASIS_CORR rimp2-def2-QZVPPD
SCF_CONVERGENCE 7
SCF_ALGORITHM  GDM
method DSD-PBEPBE-D3
GEN_SCFMAN TRUE
UNRESTRICTED True
THRESH  14
SYMMETRY FALSE
SYM_IGNORE TRUE
max_scf_cycles 200

XC_GRID 000099000590
BASIS DEF2-QZVPP


$end










