$molecule
0 2
C        -0.962852    0.000000    0.000003
C        -0.069246   -1.238173    0.129628
C         1.326555   -0.726660   -0.242328
C         1.326556    0.726660    0.242325
C        -0.069245    1.238174   -0.129625
N        -2.201000    0.000000   -0.000003
H         1.455988   -0.754687   -1.328162
H         2.123717   -1.325699    0.199437
H         2.123717    1.325698   -0.199442
H         1.455993    0.754686    1.328160
H        -0.099657    1.565596   -1.172402
H        -0.431856    2.058671    0.487709
H        -0.099653   -1.565596    1.172405
H        -0.431859   -2.058671   -0.487705
$end


$rem
N_FROZEN_CORE FC
MEM_TOTAL 3750
MEM_STATIC 1500
AUX_BASIS_CORR rimp2-def2-QZVPPD
SCF_CONVERGENCE 7
SCF_ALGORITHM  GDM
method DSD-PBEPBE-D3
GEN_SCFMAN TRUE
UNRESTRICTED True
THRESH  14
SYMMETRY FALSE
SYM_IGNORE TRUE
max_scf_cycles 200

XC_GRID 000099000590
BASIS DEF2-QZVPP


$end










