$molecule
0 1
C         0.360813    0.000001    0.000003
C         0.810826   -1.172414    0.856287
C         0.810816    1.327778    0.587201
C         0.810846   -0.155355   -1.443475
H         0.446637   -1.072307    1.879133
H         1.903668   -1.204515    0.879791
H         0.446704   -2.116297    0.449634
H         0.446640    1.447591    1.607930
H         0.446665    2.163514   -0.010969
H         1.903656    1.364163    0.603312
H         0.446659   -1.091220   -1.868203
H         1.903688   -0.159662   -1.482987
H         0.446744    0.668754   -2.057595
Cl        -1.479462   -0.000005   -0.000008
$end


$rem
N_FROZEN_CORE FC
MEM_TOTAL 3750
MEM_STATIC 1500
AUX_BASIS_CORR rimp2-def2-QZVPPD
SCF_CONVERGENCE 7
SCF_ALGORITHM  GDM
method DSD-PBEPBE-D3
GEN_SCFMAN TRUE
UNRESTRICTED True
THRESH  14
SYMMETRY FALSE
SYM_IGNORE TRUE
max_scf_cycles 200

XC_GRID 000099000590
BASIS DEF2-QZVPP


$end










