$molecule
0 1
C         0.109888    1.098459   -0.134340
C        -0.109888    0.677811    1.203209
C         0.109888   -0.677811    1.203209
C        -0.109888   -1.098459   -0.134340
H         0.482292   -1.307624    2.007045
H        -0.482292    1.307624    2.007045
C         1.458803    1.100491   -0.816885
H         2.140282    0.377946   -0.369992
H         1.377094    0.888627   -1.886124
H         1.908891    2.097282   -0.727388
C        -1.458803   -1.100491   -0.816885
H        -2.140282   -0.377946   -0.369992
H        -1.377094   -0.888627   -1.886124
H        -1.908891   -2.097282   -0.727388
H         0.535702   -1.888841   -0.535445
H        -0.535702    1.888841   -0.535445
$end


$rem
N_FROZEN_CORE FC
MEM_TOTAL 7500
MEM_STATIC 3000
AUX_BASIS_CORR rimp2-def2-QZVPPD
SCF_CONVERGENCE 7
SCF_ALGORITHM  GDM
method DSD-PBEPBE-D3
GEN_SCFMAN TRUE
UNRESTRICTED True
THRESH  14
SYMMETRY FALSE
SYM_IGNORE TRUE
max_scf_cycles 200

XC_GRID 000099000590
BASIS DEF2-QZVPP


$end










