$molecule
0 2
C         0.523788    1.454017   -0.114802
C         1.657830    0.495441    0.096371
C         1.188767   -0.927622    0.411809
C         0.047945   -1.369115   -0.505334
C        -1.133024   -0.410936   -0.465572
C        -0.760326    1.034362   -0.399400
C        -1.706522   -0.049980    0.848848
H         0.732816    2.516592   -0.068832
H         2.316180    0.855276    0.893419
H         2.281283    0.476716   -0.809390
H         0.862694   -0.981807    1.454113
H         2.025743   -1.623684    0.319480
H        -0.286719   -2.374645   -0.236110
H         0.414192   -1.417749   -1.536489
H        -1.877458   -0.641371   -1.225673
H        -1.499924    1.759820   -0.711544
H        -2.736203    0.266458    0.931668
H        -1.143361   -0.192603    1.757844
$end


$rem
N_FROZEN_CORE FC
MEM_TOTAL 7500
MEM_STATIC 3000
AUX_BASIS_CORR rimp2-def2-QZVPPD
SCF_CONVERGENCE 7
SCF_ALGORITHM  GDM
method DSD-PBEPBE-D3
GEN_SCFMAN TRUE
UNRESTRICTED True
THRESH  14
SYMMETRY FALSE
SYM_IGNORE TRUE
max_scf_cycles 200

XC_GRID 000099000590
BASIS DEF2-QZVPP


$end










