$molecule
0 1
C         1.456654    0.000023    0.875219
C         0.025296    0.000010    0.447389
C        -0.649212    1.200084    0.244315
C        -0.649198   -1.200075    0.244332
H        -0.128063    2.138654    0.396629
C        -1.977059    1.201482   -0.155434
C        -1.977044   -1.201494   -0.155417
C        -2.643266   -0.000012   -0.356173
H        -0.128037   -2.138636    0.396660
H        -2.493362    2.141210   -0.309286
H        -2.493336   -2.141231   -0.309255
H        -3.680858   -0.000020   -0.667308
H         1.706994   -0.887232    1.450579
H         1.706991    0.887305    1.450537
Cl         2.587802   -0.000009   -0.545526
$end


$rem
N_FROZEN_CORE FC
MEM_TOTAL 7500
MEM_STATIC 3000
AUX_BASIS_CORR rimp2-def2-QZVPPD
SCF_CONVERGENCE 7
SCF_ALGORITHM  GDM
method DSD-PBEPBE-D3
GEN_SCFMAN TRUE
UNRESTRICTED True
THRESH  14
SYMMETRY FALSE
SYM_IGNORE TRUE
max_scf_cycles 200

XC_GRID 000099000590
BASIS DEF2-QZVPP


$end










