$molecule
0 2
O         2.740130   -0.022179   -0.000091
C         1.496522   -0.008551   -0.000049
C         0.745396    1.230173   -0.000020
C        -0.617445    1.235882    0.000026
C        -1.323627    0.018840    0.000044
C        -0.641825   -1.210065    0.000015
C         0.724249   -1.232732   -0.000029
H         1.276289   -2.163971   -0.000053
H        -1.185394    2.157736    0.000050
H         1.316083    2.150190   -0.000034
H        -1.209625   -2.135430    0.000026
O        -2.669757    0.094158    0.000084
H        -3.059955   -0.785639    0.000142
$end


$rem
N_FROZEN_CORE FC
MEM_TOTAL 3750
MEM_STATIC 1500
AUX_BASIS_CORR rimp2-def2-QZVPPD
SCF_CONVERGENCE 7
SCF_ALGORITHM  GDM
method DSD-PBEPBE-D3
GEN_SCFMAN TRUE
UNRESTRICTED True
THRESH  14
SYMMETRY FALSE
SYM_IGNORE TRUE
max_scf_cycles 200

XC_GRID 000099000590
BASIS DEF2-QZVPP


$end










