$molecule
0 1
N        -1.773760   -0.277548    0.000007
N        -0.713403    0.103829   -0.000001
N         0.389677    0.635173   -0.000004
C         1.530589   -0.286088   -0.000002
H         2.428876    0.325014   -0.000050
H         1.535019   -0.919295    0.891875
H         1.534970   -0.919365   -0.891829
$end


$rem
N_FROZEN_CORE FC
MEM_TOTAL 3750
MEM_STATIC 1500
AUX_BASIS_CORR rimp2-def2-QZVPPD
SCF_CONVERGENCE 7
SCF_ALGORITHM  GDM
method DSD-PBEPBE-D3
GEN_SCFMAN TRUE
UNRESTRICTED True
THRESH  14
SYMMETRY FALSE
SYM_IGNORE TRUE
max_scf_cycles 200

XC_GRID 000099000590
BASIS DEF2-QZVPP


$end










