$molecule
0 2
C        -1.183296   -0.194692    0.000000
C         0.178077    0.478178    0.000001
H        -1.297485   -0.823896   -0.884191
H        -1.983410    0.549625    0.000022
H        -1.297466   -0.823927    0.884172
H         0.303353    1.154930    0.865620
H         0.303361    1.154908   -0.865635
O         1.250370   -0.364069    0.000001
$end


$rem
N_FROZEN_CORE FC
MEM_TOTAL 3750
MEM_STATIC 1500
AUX_BASIS_CORR rimp2-def2-QZVPPD
SCF_CONVERGENCE 7
SCF_ALGORITHM  GDM
method DSD-PBEPBE-D3
GEN_SCFMAN TRUE
UNRESTRICTED True
THRESH  14
SYMMETRY FALSE
SYM_IGNORE TRUE
max_scf_cycles 200

XC_GRID 000099000590
BASIS DEF2-QZVPP


$end










