$molecule
0 1
C         1.284279   -0.610143   -0.001810
C         0.000000    0.183621    0.000002
O        -0.000000    1.390425   -0.000000
C        -1.284279   -0.610143    0.001810
H         1.283155   -1.342212   -0.813057
H         2.135512    0.059513   -0.104991
H         1.371950   -1.169002    0.934025
H        -2.135511    0.059510    0.105014
H        -1.283147   -1.342232    0.813040
H        -1.371958   -1.168980   -0.934038
$end


$rem
N_FROZEN_CORE FC
MEM_TOTAL 3750
MEM_STATIC 1500
AUX_BASIS_CORR rimp2-def2-QZVPPD
SCF_CONVERGENCE 7
SCF_ALGORITHM  GDM
method DSD-PBEPBE-D3
GEN_SCFMAN TRUE
UNRESTRICTED True
THRESH  14
SYMMETRY FALSE
SYM_IGNORE TRUE
max_scf_cycles 200

XC_GRID 000099000590
BASIS DEF2-QZVPP


$end










