$molecule
-1 1
C        -1.186446   -0.780886    0.000026
C        -0.133601    0.110327   -0.000005
O        -0.187385    1.376818   -0.000042
C         1.284413   -0.484208    0.000013
H        -1.020451   -1.852210    0.000060
H        -2.208040   -0.415206    0.000018
H         1.823176   -0.119984    0.880759
H         1.823174   -0.120040   -0.880757
H         1.295027   -1.578508    0.000048
$end


$rem
N_FROZEN_CORE FC
MEM_TOTAL 3750
MEM_STATIC 1500
AUX_BASIS_CORR rimp2-def2-QZVPPD
SCF_CONVERGENCE 7
SCF_ALGORITHM  GDM
method DSD-PBEPBE-D3
GEN_SCFMAN TRUE
UNRESTRICTED True
THRESH  14
SYMMETRY FALSE
SYM_IGNORE TRUE
max_scf_cycles 200

XC_GRID 000099000590
BASIS DEF2-QZVPP


$end










