$molecule
1 1
C         1.173099   -0.640905    0.000018
H        -2.079210   -1.231130    0.000058
H        -2.065074    1.311035   -0.000034
C         1.142423    0.743088   -0.000032
C        -1.173102   -0.640900    0.000029
N         0.000003    1.418718   -0.000052
C        -1.142423    0.743090   -0.000025
N        -0.000001   -1.287381    0.000047
H         2.079207   -1.231134    0.000036
H         2.065078    1.311027   -0.000056
H        -0.000003   -2.305394    0.000087
$end


$rem
N_FROZEN_CORE FC
MEM_TOTAL 3750
MEM_STATIC 1500
AUX_BASIS_CORR rimp2-def2-QZVPPD
SCF_CONVERGENCE 7
SCF_ALGORITHM  GDM
method DSD-PBEPBE-D3
GEN_SCFMAN TRUE
UNRESTRICTED True
THRESH  14
SYMMETRY FALSE
SYM_IGNORE TRUE
max_scf_cycles 200

XC_GRID 000099000590
BASIS DEF2-QZVPP


$end










