$molecule
0 1
C        -0.306272   -1.204069   -0.003346
C         1.080685   -1.193753   -0.009953
C         1.797090   -0.000001   -0.010084
C         1.080685    1.193753   -0.009954
C        -0.306271    1.204069   -0.003345
C        -0.989481   -0.000000    0.000825
H        -0.853503   -2.137435   -0.005041
H        -0.853502    2.137435   -0.005040
H         1.614222    2.137627   -0.017025
H         1.614221   -2.137628   -0.017025
C         3.301139    0.000001    0.014234
Cl        -2.738379    0.000000    0.005625
H         3.705812    0.883215   -0.482042
H         3.705815   -0.883192   -0.482077
H         3.673922   -0.000019    1.042361
$end


$rem
N_FROZEN_CORE FC
MEM_TOTAL 7500
MEM_STATIC 3000
AUX_BASIS_CORR rimp2-def2-QZVPPD
SCF_CONVERGENCE 7
SCF_ALGORITHM  GDM
method DSD-PBEPBE-D3
GEN_SCFMAN TRUE
UNRESTRICTED True
THRESH  14
SYMMETRY FALSE
SYM_IGNORE TRUE
max_scf_cycles 200

XC_GRID 000099000590
BASIS DEF2-QZVPP


$end










