$molecule
0 1
C        -0.410675   -0.521097   -1.362061
C         0.410675    0.521097   -1.362061
C        -0.037778    1.866525   -0.904590
H         0.513882    2.694785   -1.356692
H        -1.099396    2.009700   -1.126362
C         0.037778   -1.866525   -0.904590
H        -0.513882   -2.694785   -1.356692
H         1.099396   -2.009700   -1.126362
C         0.171289    1.876580    0.631607
H        -0.271611    2.791041    1.038301
H         1.244420    1.940147    0.842509
C        -0.171289   -1.876580    0.631607
H         0.271611   -2.791041    1.038301
H        -1.244420   -1.940147    0.842509
C         0.410675   -0.662047    1.384619
H         0.535039   -0.972778    2.425528
H         1.423530   -0.465576    1.019650
C        -0.410675    0.662047    1.384619
H        -0.535039    0.972778    2.425528
H        -1.423530    0.465576    1.019650
H        -1.484043   -0.338066   -1.340386
H         1.484043    0.338066   -1.340386
$end


$rem
N_FROZEN_CORE FC
MEM_TOTAL 15000
MEM_STATIC 6000
AUX_BASIS_CORR rimp2-def2-QZVPPD
SCF_CONVERGENCE 7
SCF_ALGORITHM  GDM
method DSD-PBEPBE-D3
GEN_SCFMAN TRUE
UNRESTRICTED True
THRESH  14
SYMMETRY FALSE
SYM_IGNORE TRUE
max_scf_cycles 200

XC_GRID 000099000590
BASIS DEF2-QZVPP


$end










