$molecule
0 2
C         1.730884    0.433051   -0.257362
H         1.692948    0.580502   -1.341959
H         1.899999    1.423756    0.178889
C         0.386757   -0.105440    0.219766
H         0.207654   -1.089489   -0.225603
C        -2.123895    0.224263    0.301253
H        -2.159086    0.029057    1.390114
O        -2.482560   -0.933898   -0.324302
H         0.423080   -0.260264    1.305307
H        -2.953702    0.938351    0.144261
C        -0.784668    0.808598   -0.120124
C         2.895827   -0.485447    0.093005
H        -0.656431    1.782069    0.366844
H        -0.811244    0.994767   -1.198554
H         3.845973   -0.080684   -0.261607
H         2.765708   -1.473076   -0.357011
H         2.976158   -0.623947    1.174512
$end


$rem
N_FROZEN_CORE FC
MEM_TOTAL 7500
MEM_STATIC 3000
AUX_BASIS_CORR rimp2-def2-QZVPPD
SCF_CONVERGENCE 7
SCF_ALGORITHM  GDM
method DSD-PBEPBE-D3
GEN_SCFMAN TRUE
UNRESTRICTED True
THRESH  14
SYMMETRY FALSE
SYM_IGNORE TRUE
max_scf_cycles 200

XC_GRID 000099000590
BASIS DEF2-QZVPP


$end










