$molecule
0 1
C         1.285244    0.150499    0.000000
C         0.000000    0.473257    0.000000
H         1.608938   -0.885482    0.000000
H         2.060569    0.906982    0.000000
C        -1.132627   -0.504341    0.000000
H        -0.770315   -1.533804    0.000000
H        -1.769470   -0.364829    0.878219
H        -1.769470   -0.364829   -0.878219
H        -0.275955    1.525468    0.000000
$end


$rem
N_FROZEN_CORE FC
MEM_TOTAL 3750
MEM_STATIC 1500
AUX_BASIS_CORR rimp2-def2-QZVPPD
SCF_CONVERGENCE 7
SCF_ALGORITHM  GDM
method DSD-PBEPBE-D3
GEN_SCFMAN TRUE
UNRESTRICTED True
THRESH  14
SYMMETRY FALSE
SYM_IGNORE TRUE
max_scf_cycles 200

XC_GRID 000099000590
BASIS DEF2-QZVPP


$end










