$molecule
-1 1
C         1.284439   -0.484157    0.000115
C        -0.133606    0.110326   -0.000018
C        -1.186405   -0.780936    0.000010
O        -0.187455    1.376816   -0.000141
H         1.823138   -0.119867    0.880874
H         1.295080   -1.578462    0.000220
H         1.823233   -0.120034   -0.880654
H        -1.020357   -1.852252    0.000120
H        -2.208022   -0.415308   -0.000080
$end


$rem
N_FROZEN_CORE FC
MEM_TOTAL 3750
MEM_STATIC 1500
AUX_BASIS_CORR rimp2-def2-QZVPPD
SCF_CONVERGENCE 7
SCF_ALGORITHM  GDM
method DSD-PBEPBE-D3
GEN_SCFMAN TRUE
UNRESTRICTED True
THRESH  14
SYMMETRY FALSE
SYM_IGNORE TRUE
max_scf_cycles 200

XC_GRID 000099000590
BASIS DEF2-QZVPP


$end










