$molecule
0 2
O        -1.958174    0.000003   -0.194247
O        -0.830273    0.000041   -0.842925
C         0.360909   -0.000003    0.045517
C         1.511248    0.000045   -0.942592
C         0.316802   -1.262572    0.887085
C         0.316793    1.262493    0.887196
H         0.308910    2.149779    0.251873
H         1.197086    1.305769    1.531049
H        -0.574285    1.271360    1.514310
H         0.308926   -2.149803    0.251684
H        -0.574275   -1.271502    1.514199
H         1.197097   -1.305896    1.530933
H         1.474756   -0.885946   -1.578130
H         2.460100    0.000027   -0.403721
H         1.474748    0.886089   -1.578056
$end


$rem
N_FROZEN_CORE FC
MEM_TOTAL 3750
MEM_STATIC 1500
AUX_BASIS_CORR rimp2-def2-QZVPPD
SCF_CONVERGENCE 7
SCF_ALGORITHM  GDM
method DSD-PBEPBE-D3
GEN_SCFMAN TRUE
UNRESTRICTED True
THRESH  14
SYMMETRY FALSE
SYM_IGNORE TRUE
max_scf_cycles 200

XC_GRID 000099000590
BASIS DEF2-QZVPP


$end










