$molecule
-1 1
C         1.284452   -0.484132   -0.000011
C        -0.133609    0.110326    0.000000
C        -1.186385   -0.780962   -0.000053
O        -0.187490    1.376814    0.000071
H         1.823180   -0.119964    0.880778
H         1.295108   -1.578436   -0.000065
H         1.823202   -0.119877   -0.880750
H        -1.020305   -1.852271   -0.000106
H        -2.208011   -0.415362   -0.000042
$end


$rem
N_FROZEN_CORE FC
MEM_TOTAL 3750
MEM_STATIC 1500
AUX_BASIS_CORR rimp2-def2-QZVPPD
SCF_CONVERGENCE 7
SCF_ALGORITHM  GDM
method DSD-PBEPBE-D3
GEN_SCFMAN TRUE
UNRESTRICTED True
THRESH  14
SYMMETRY FALSE
SYM_IGNORE TRUE
max_scf_cycles 200

XC_GRID 000099000590
BASIS DEF2-QZVPP


$end










