$molecule
0 1
C         0.000000    0.586123   -0.000034
C         1.269130   -0.259249    0.000112
H         1.310444   -0.904520    0.881944
H         2.167126    0.362404    0.000170
H         1.310603   -0.904588   -0.881663
C        -1.269130   -0.259249   -0.000082
H        -1.310439   -0.904630   -0.881834
H        -2.167126    0.362404   -0.000222
H        -1.310608   -0.904478    0.881773
H        -0.000067    1.243880    0.874709
H         0.000067    1.243779   -0.874854
$end


$rem
N_FROZEN_CORE FC
MEM_TOTAL 3750
MEM_STATIC 1500
AUX_BASIS_CORR rimp2-def2-QZVPPD
SCF_CONVERGENCE 7
SCF_ALGORITHM  GDM
method DSD-PBEPBE-D3
GEN_SCFMAN TRUE
UNRESTRICTED True
THRESH  14
SYMMETRY FALSE
SYM_IGNORE TRUE
max_scf_cycles 200

XC_GRID 000099000590
BASIS DEF2-QZVPP


$end










