$molecule
-1 1
O         1.407816    1.817604   -0.055324
C         0.697819    0.785911    0.051541
C         1.301744   -0.532783   -0.045701
O         2.642916   -0.472412   -0.282217
O         0.796021   -1.628727    0.345053
C        -0.743743    0.897887    0.532981
H         0.629926   -0.043241   -1.228868
C        -1.847310    0.011283   -0.039446
H        -1.050599    1.929824    0.383912
H        -0.714764    0.707626    1.614048
O        -2.908003    0.497467   -0.371217
O        -1.625798   -1.282532   -0.087309
H         2.819803    0.489553   -0.308164
H        -0.639051   -1.508739    0.150932
$end


$rem
N_FROZEN_CORE FC
MEM_TOTAL 7500
MEM_STATIC 3000
AUX_BASIS_CORR rimp2-def2-QZVPPD
SCF_CONVERGENCE 7
SCF_ALGORITHM  GDM
method DSD-PBEPBE-D3
GEN_SCFMAN TRUE
UNRESTRICTED True
THRESH  14
SYMMETRY FALSE
SYM_IGNORE TRUE
max_scf_cycles 200

XC_GRID 000099000590
BASIS DEF2-QZVPP


$end










