$molecule
0 1
C        -0.635750    0.000000    0.000000
F         0.752071    0.000000    0.000000
H        -0.984716   -0.626482   -0.821610
H        -0.984712   -0.398294    0.953356
H        -0.984708    1.024779   -0.131744
$end


$rem
N_FROZEN_CORE FC
MEM_TOTAL 3750
MEM_STATIC 1500
AUX_BASIS_CORR rimp2-def2-QZVPPD
SCF_CONVERGENCE 7
SCF_ALGORITHM  GDM
method DSD-PBEPBE-D3
GEN_SCFMAN TRUE
UNRESTRICTED True
THRESH  14
SYMMETRY FALSE
SYM_IGNORE TRUE
max_scf_cycles 200

XC_GRID 000099000590
BASIS DEF2-QZVPP


$end










