$molecule
-1 1
C        -0.554517    0.000000    0.182533
C        -0.834878   -1.276212   -0.623662
H        -0.366699   -1.261971   -1.610833
H        -1.922141   -1.366356   -0.736601
H        -0.473471   -2.138046   -0.063129
C        -0.834872    1.276214   -0.623662
H        -0.366695    1.261971   -1.610833
H        -0.473461    2.138046   -0.063130
H        -1.922136    1.366363   -0.736600
C         1.379770   -0.000003   -0.000483
N         2.539704   -0.000001    0.015069
O        -0.898293    0.000001    1.388411
$end


$rem
N_FROZEN_CORE FC
MEM_TOTAL 3750
MEM_STATIC 1500
AUX_BASIS_CORR rimp2-def2-QZVPPD
SCF_CONVERGENCE 7
SCF_ALGORITHM  GDM
method DSD-PBEPBE-D3
GEN_SCFMAN TRUE
UNRESTRICTED True
THRESH  14
SYMMETRY FALSE
SYM_IGNORE TRUE
max_scf_cycles 200

XC_GRID 000099000590
BASIS DEF2-QZVPP


$end










