$molecule
0 1
C         0.907905    0.813590   -0.000007
C        -0.154084    0.087453   -0.000001
C         1.142441   -0.673536    0.000017
H         1.477806   -1.168237   -0.912468
H         1.477802   -1.168205    0.912521
C        -1.618202   -0.071478   -0.000009
H        -1.938807   -0.637118    0.878758
H        -2.125327    0.894334   -0.000016
H        -1.938797   -0.637124   -0.878776
H         1.378960    1.780170   -0.000019
$end


$rem
N_FROZEN_CORE FC
MEM_TOTAL 3750
MEM_STATIC 1500
AUX_BASIS_CORR rimp2-def2-QZVPPD
SCF_CONVERGENCE 7
SCF_ALGORITHM  GDM
method DSD-PBEPBE-D3
GEN_SCFMAN TRUE
UNRESTRICTED True
THRESH  14
SYMMETRY FALSE
SYM_IGNORE TRUE
max_scf_cycles 200

XC_GRID 000099000590
BASIS DEF2-QZVPP


$end










