$molecule
0 1
C        -1.282695   -0.000002   -0.009066
C         1.282695   -0.000002    0.009066
N         0.653317   -1.177141    0.005959
N        -0.653316   -1.177141   -0.005959
N         0.653315    1.177139    0.005959
N        -0.653315    1.177139   -0.005959
C         2.773671    0.000002    0.000191
C        -2.773671    0.000002   -0.000191
H        -3.138928    0.000106    1.029755
H        -3.151363   -0.894380   -0.492538
H        -3.151362    0.894289   -0.492710
H         3.151362    0.894291    0.492708
H         3.138928    0.000104   -1.029755
H         3.151363   -0.894379    0.492540
$end


$rem
N_FROZEN_CORE FC
MEM_TOTAL 3750
MEM_STATIC 1500
AUX_BASIS_CORR rimp2-def2-QZVPPD
SCF_CONVERGENCE 7
SCF_ALGORITHM  GDM
method DSD-PBEPBE-D3
GEN_SCFMAN TRUE
UNRESTRICTED True
THRESH  14
SYMMETRY FALSE
SYM_IGNORE TRUE
max_scf_cycles 200

XC_GRID 000099000590
BASIS DEF2-QZVPP


$end










