$molecule
0 1
C         0.663579    1.184983   -0.060003
H         1.233138   -2.090524   -0.207459
H        -1.233130   -2.090525   -0.207497
H         1.233138    2.090528   -0.207423
H         2.317904    0.000002   -0.229378
C        -0.663577    1.184983   -0.060024
C         0.663579   -1.184981   -0.060023
N        -1.402430   -0.000002    0.194925
C        -0.663577   -1.184982   -0.060045
H        -1.233130    2.090528   -0.207460
N         1.402422   -0.000002    0.194967
H        -2.317891    0.000002   -0.229466
$end


$rem
N_FROZEN_CORE FC
MEM_TOTAL 3750
MEM_STATIC 1500
AUX_BASIS_CORR rimp2-def2-QZVPPD
SCF_CONVERGENCE 7
SCF_ALGORITHM  GDM
method DSD-PBEPBE-D3
GEN_SCFMAN TRUE
UNRESTRICTED True
THRESH  14
SYMMETRY FALSE
SYM_IGNORE TRUE
max_scf_cycles 200

XC_GRID 000099000590
BASIS DEF2-QZVPP


$end










