$molecule
-1 1
C        -1.469228    1.440427    0.128838
C        -1.528016   -0.060904   -0.026557
C        -0.489284   -0.831950    0.739553
O        -2.353837   -0.589428   -0.749485
C         0.868467   -0.668092    0.060518
C         1.780867    0.235276    0.425671
C         3.043297    0.246814   -0.403129
H        -2.020209    1.710053    1.036776
H        -0.431178    1.755229    0.259052
H        -1.939267    1.928304   -0.725796
H         3.926407    0.081988    0.226921
H         3.066437   -0.512258   -1.217274
H         3.195415    1.230616   -0.865687
H        -0.802980   -1.879062    0.786517
H        -0.404673   -0.421106    1.749255
H         1.004131   -1.347771   -0.803244
$end


$rem
N_FROZEN_CORE FC
MEM_TOTAL 7500
MEM_STATIC 3000
AUX_BASIS_CORR rimp2-def2-QZVPPD
SCF_CONVERGENCE 7
SCF_ALGORITHM  GDM
method DSD-PBEPBE-D3
GEN_SCFMAN TRUE
UNRESTRICTED True
THRESH  14
SYMMETRY FALSE
SYM_IGNORE TRUE
max_scf_cycles 200

XC_GRID 000099000590
BASIS DEF2-QZVPP


$end










