$molecule
0 1
C        -1.878505    0.765800   -0.000159
C        -1.878505   -0.765801    0.000245
C        -0.422669    1.184149   -0.000074
N         0.324457    0.000000   -0.000010
C        -0.422669   -1.184149    0.000094
O         0.033855   -2.287905    0.000121
O         0.033855    2.287905   -0.000118
Cl         2.013494    0.000000   -0.000047
H        -2.357209    1.199641    0.877844
H        -2.356892    1.199117   -0.878600
H        -2.357249   -1.199641   -0.877737
H        -2.356852   -1.199117    0.878708
$end


$rem
N_FROZEN_CORE FC
MEM_TOTAL 3750
MEM_STATIC 1500
AUX_BASIS_CORR rimp2-def2-QZVPPD
SCF_CONVERGENCE 7
SCF_ALGORITHM  GDM
method DSD-PBEPBE-D3
GEN_SCFMAN TRUE
UNRESTRICTED True
THRESH  14
SYMMETRY FALSE
SYM_IGNORE TRUE
max_scf_cycles 200

XC_GRID 000099000590
BASIS DEF2-QZVPP


$end










