$molecule
0 2
C        -2.375946    0.484352   -0.104049
C        -1.181513   -0.355500    0.178798
C         0.144582    0.388619    0.051987
H        -1.179883   -1.228209   -0.489530
H        -1.255778   -0.781661    1.194426
C         1.355246   -0.492499    0.364239
H         0.139293    1.251579    0.727136
H         0.242483    0.790604   -0.960917
C         2.650382    0.255104    0.286652
H         1.381387   -1.343954   -0.322890
H         1.238362   -0.906063    1.373413
C         3.648125   -0.028599   -0.538086
C        -3.725641   -0.125018   -0.225206
H        -4.090058   -0.504770    0.741784
H        -3.717179   -0.984796   -0.904995
H        -4.465955    0.588155   -0.590811
H        -2.283061    1.562887   -0.034027
H         2.750537    1.102522    0.962756
H         3.589125   -0.862240   -1.230662
H         4.559319    0.557194   -0.551697
$end


$rem
N_FROZEN_CORE FC
MEM_TOTAL 7500
MEM_STATIC 3000
AUX_BASIS_CORR rimp2-def2-QZVPPD
SCF_CONVERGENCE 7
SCF_ALGORITHM  GDM
method DSD-PBEPBE-D3
GEN_SCFMAN TRUE
UNRESTRICTED True
THRESH  14
SYMMETRY FALSE
SYM_IGNORE TRUE
max_scf_cycles 200

XC_GRID 000099000590
BASIS DEF2-QZVPP


$end










