$molecule
0 1
N        -0.335858   -1.162182   -0.000014
C        -0.898158    0.030423   -0.000002
C        -0.184483    1.229412    0.000012
C         1.191395    1.148180    0.000019
C         1.807057   -0.102447    0.000009
C         0.998592   -1.221873   -0.000009
O        -2.244924    0.082369   -0.000013
H        -0.713753    2.172104    0.000019
H         1.787125    2.053117    0.000032
H         2.883930   -0.202259    0.000015
H         1.427005   -2.218434   -0.000015
H        -2.560330   -0.830377   -0.000025
$end


$rem
N_FROZEN_CORE FC
MEM_TOTAL 3750
MEM_STATIC 1500
AUX_BASIS_CORR rimp2-def2-QZVPPD
SCF_CONVERGENCE 7
SCF_ALGORITHM  GDM
method DSD-PBEPBE-D3
GEN_SCFMAN TRUE
UNRESTRICTED True
THRESH  14
SYMMETRY FALSE
SYM_IGNORE TRUE
max_scf_cycles 200

XC_GRID 000099000590
BASIS DEF2-QZVPP


$end










