$molecule
0 1
C         0.000000    1.263451    0.000000
C        -1.282666    0.696698    0.000000
C        -1.196621   -0.679690    0.000000
C        -0.168240   -1.365859    0.000000
C         1.135720   -0.916930    0.000000
C         1.166646    0.485027    0.000000
H         0.092136    2.343756    0.000000
H        -2.183563    1.294531    0.000000
H         2.128806    0.984823    0.000000
H         2.033591   -1.519298    0.000000
$end


$rem
N_FROZEN_CORE FC
MEM_TOTAL 3750
MEM_STATIC 1500
AUX_BASIS_CORR rimp2-def2-QZVPPD
SCF_CONVERGENCE 7
SCF_ALGORITHM  GDM
method DSD-PBEPBE-D3
GEN_SCFMAN TRUE
UNRESTRICTED True
THRESH  14
SYMMETRY FALSE
SYM_IGNORE TRUE
max_scf_cycles 200

XC_GRID 000099000590
BASIS DEF2-QZVPP


$end










