$molecule
0 2
N        -0.532107   -1.152427    0.087629
H         0.020528   -2.000485   -0.024651
C         0.241032   -0.021895    0.210539
C        -0.354363    1.299649    0.574780
C         1.659520   -0.298832   -0.015291
H        -1.041498    1.163119    1.415902
H         0.435260    1.968984    0.913891
O         2.050293   -1.455045   -0.145446
H        -1.832250    1.460525   -0.641834
N         2.512980    0.765032   -0.044117
H         3.460869    0.555559   -0.315135
H         2.171750    1.690657   -0.243554
C        -1.887619   -1.231661   -0.032727
H        -2.241214   -2.269738   -0.101860
O        -2.643747   -0.282239   -0.067727
O        -1.005419    1.944731   -0.503221
$end


$rem
N_FROZEN_CORE FC
MEM_TOTAL 7500
MEM_STATIC 3000
AUX_BASIS_CORR rimp2-def2-QZVPPD
SCF_CONVERGENCE 7
SCF_ALGORITHM  GDM
method DSD-PBEPBE-D3
GEN_SCFMAN TRUE
UNRESTRICTED True
THRESH  14
SYMMETRY FALSE
SYM_IGNORE TRUE
max_scf_cycles 200

XC_GRID 000099000590
BASIS DEF2-QZVPP


$end










