$molecule
0 1
C         1.878502   -0.765801    0.000077
C         1.878502    0.765801    0.000082
C         0.422669   -1.184154   -0.000018
N        -0.324453    0.000000   -0.000016
C         0.422669    1.184154    0.000052
O        -0.033859    2.287908    0.000075
O        -0.033858   -2.287908   -0.000075
Cl        -2.013490    0.000000   -0.000085
H         2.356989   -1.199376    0.878331
H         2.357112   -1.199377   -0.878109
H         2.357063    1.199376   -0.878131
H         2.357037    1.199378    0.878309
$end


$rem
N_FROZEN_CORE FC
MEM_TOTAL 3750
MEM_STATIC 1500
AUX_BASIS_CORR rimp2-def2-QZVPPD
SCF_CONVERGENCE 7
SCF_ALGORITHM  GDM
method DSD-PBEPBE-D3
GEN_SCFMAN TRUE
UNRESTRICTED True
THRESH  14
SYMMETRY FALSE
SYM_IGNORE TRUE
max_scf_cycles 200

XC_GRID 000099000590
BASIS DEF2-QZVPP


$end










