$molecule
0 2
O        -1.958175    0.000003   -0.194256
O        -0.830270    0.000019   -0.842923
C         0.360916   -0.000002    0.045521
C         1.511248   -0.000028   -0.942592
C         0.316772   -1.262525    0.887152
C         0.316815    1.262535    0.887135
H         0.309008    2.149791    0.251772
H         1.197074    1.305797    1.531033
H        -0.574296    1.271470    1.514199
H         0.308787   -2.149781    0.251791
H        -0.574261   -1.271365    1.514328
H         1.197110   -1.305883    1.530935
H         1.474802   -0.886092   -1.578029
H         2.460108    0.000062   -0.403736
H         1.474713    0.885939   -1.578161
$end


$rem
N_FROZEN_CORE FC
MEM_TOTAL 3750
MEM_STATIC 1500
AUX_BASIS_CORR rimp2-def2-QZVPPD
SCF_CONVERGENCE 7
SCF_ALGORITHM  GDM
method DSD-PBEPBE-D3
GEN_SCFMAN TRUE
UNRESTRICTED True
THRESH  14
SYMMETRY FALSE
SYM_IGNORE TRUE
max_scf_cycles 200

XC_GRID 000099000590
BASIS DEF2-QZVPP


$end










