$molecule
0 2
N         0.000001   -0.000188    0.826433
C        -1.163025   -0.306475    0.090812
C         1.162994    0.306416    0.090898
O         1.362194    1.441231   -0.257241
O        -1.362429   -1.441207   -0.257474
C         2.070405   -0.862017   -0.138369
C        -2.070196    0.862166   -0.138353
H         2.457746   -1.211873    0.820526
H         2.891350   -0.559168   -0.785259
H         1.507725   -1.685529   -0.583954
H        -1.507328    1.685628   -0.583793
H        -2.457527    1.211969    0.820566
H        -2.891162    0.559557   -0.785329
$end


$rem
N_FROZEN_CORE FC
MEM_TOTAL 3750
MEM_STATIC 1500
AUX_BASIS_CORR rimp2-def2-QZVPPD
SCF_CONVERGENCE 7
SCF_ALGORITHM  GDM
method DSD-PBEPBE-D3
GEN_SCFMAN TRUE
UNRESTRICTED True
THRESH  14
SYMMETRY FALSE
SYM_IGNORE TRUE
max_scf_cycles 200

XC_GRID 000099000590
BASIS DEF2-QZVPP


$end










