$molecule
0 1
N        -1.108278    0.196033   -0.000000
C         0.000000    0.973544   -0.000000
C         1.275716    0.387691    0.000000
C         1.320867   -0.988726    0.000000
C         0.154948   -1.773463    0.000000
C        -1.066182   -1.137243    0.000000
O        -0.431105    2.181332   -0.000000
H        -1.553791    1.407858   -0.000000
H         2.164230    1.001917    0.000000
H         2.285437   -1.483367    0.000000
H         0.208611   -2.852442    0.000000
H        -2.009789   -1.667679    0.000000
$end


$rem
N_FROZEN_CORE FC
MEM_TOTAL 3750
MEM_STATIC 1500
AUX_BASIS_CORR rimp2-def2-QZVPPD
SCF_CONVERGENCE 7
SCF_ALGORITHM  GDM
method DSD-PBEPBE-D3
GEN_SCFMAN TRUE
UNRESTRICTED True
THRESH  14
SYMMETRY FALSE
SYM_IGNORE TRUE
max_scf_cycles 200

XC_GRID 000099000590
BASIS DEF2-QZVPP


$end










