$molecule
0 1
S         1.408561   -0.519481   -0.164514
C        -0.300181   -0.594014    0.379620
C        -1.266297    0.265291   -0.424372
C        -2.693944    0.151790    0.099656
H        -3.373899    0.775523   -0.483053
H        -2.760173    0.473564    1.141984
H        -3.057845   -0.877677    0.044881
H        -0.934048    1.304778   -0.378255
H        -1.221216   -0.033405   -1.474649
H        -0.540850   -1.659893    0.283108
H        -0.336140   -0.352400    1.444356
F         1.694414    1.082534    0.191603
$end


$rem
N_FROZEN_CORE FC
MEM_TOTAL 3750
MEM_STATIC 1500
AUX_BASIS_CORR rimp2-def2-QZVPPD
SCF_CONVERGENCE 7
SCF_ALGORITHM  GDM
method DSD-PBEPBE-D3
GEN_SCFMAN TRUE
UNRESTRICTED True
THRESH  14
SYMMETRY FALSE
SYM_IGNORE TRUE
max_scf_cycles 200

XC_GRID 000099000590
BASIS DEF2-QZVPP


$end










