$molecule
0 2
Si       -0.594256    0.000000    0.082243
C        -0.476327    1.541691   -0.990347
H        -0.545959    2.452940   -0.391969
H         0.470248    1.566983   -1.533849
H        -1.286293    1.564906   -1.726844
C        -2.226910   -0.000000    1.031081
H        -3.075185   -0.000000    0.337170
H        -2.318844   -0.882502    1.667759
H        -2.318844    0.882501    1.667759
C        -0.476327   -1.541690   -0.990348
H         0.470248   -1.566982   -1.533850
H        -0.545959   -2.452940   -0.391971
H        -1.286293   -1.564905   -1.726845
C         1.979456   -0.000001    1.063786
H         1.766186    0.918590    1.596201
H         1.766186   -0.918592    1.596200
C         2.728799    0.000000   -0.053790
H         3.025973   -0.923105   -0.536726
H         3.025973    0.923106   -0.536725
$end


$rem
N_FROZEN_CORE FC
MEM_TOTAL 7500
MEM_STATIC 3000
AUX_BASIS_CORR rimp2-def2-QZVPPD
SCF_CONVERGENCE 7
SCF_ALGORITHM  GDM
method DSD-PBEPBE-D3
GEN_SCFMAN TRUE
UNRESTRICTED True
THRESH  14
SYMMETRY FALSE
SYM_IGNORE TRUE
max_scf_cycles 200

XC_GRID 000099000590
BASIS DEF2-QZVPP


$end










