$molecule
0 1
C         0.034598    0.741215    0.137322
C        -1.129787   -0.131605    0.447372
C        -2.215312   -0.193958   -0.308514
H        -1.052380   -0.728382    1.350995
H        -2.304958    0.385120   -1.221522
H        -3.053595   -0.825498   -0.042263
H         0.263488    1.417643    0.958591
H        -0.121917    1.314529   -0.773196
Cl         1.537198   -0.238666   -0.113511
$end


$rem
N_FROZEN_CORE FC
MEM_TOTAL 3750
MEM_STATIC 1500
AUX_BASIS_CORR rimp2-def2-QZVPPD
SCF_CONVERGENCE 7
SCF_ALGORITHM  GDM
method DSD-PBEPBE-D3
GEN_SCFMAN TRUE
UNRESTRICTED True
THRESH  14
SYMMETRY FALSE
SYM_IGNORE TRUE
max_scf_cycles 200

XC_GRID 000099000590
BASIS DEF2-QZVPP


$end










