$molecule
0 2
Si         0.000027   -0.000038   -0.426852
C         1.657747   -0.659709    0.177337
H         1.687373   -0.671306    1.272701
H         1.833002   -1.679358   -0.171507
H         2.485679   -0.039438   -0.171786
C        -0.257549    1.765530    0.177031
H        -0.262270    1.797180    1.272390
H         0.537840    2.427080   -0.171964
H        -1.208709    2.172319   -0.172123
C        -1.400232   -1.105774    0.177189
H        -2.370826   -0.747867   -0.172012
H        -1.276866   -2.132993   -0.171657
H        -1.425398   -1.125369    1.272551
$end


$rem
N_FROZEN_CORE FC
MEM_TOTAL 3750
MEM_STATIC 1500
AUX_BASIS_CORR rimp2-def2-QZVPPD
SCF_CONVERGENCE 7
SCF_ALGORITHM  GDM
method DSD-PBEPBE-D3
GEN_SCFMAN TRUE
UNRESTRICTED True
THRESH  14
SYMMETRY FALSE
SYM_IGNORE TRUE
max_scf_cycles 200

XC_GRID 000099000590
BASIS DEF2-QZVPP


$end










