$molecule
1 1
C         1.093647    0.285704    0.279013
O         0.091707    0.006442   -0.401973
C        -1.258692    0.594308   -0.121959
H        -1.490640    1.123617   -1.043535
H        -1.131481    1.296773    0.702640
C         2.389663   -0.308373   -0.015364
H         2.350250   -0.991399   -0.860438
H         2.750747   -0.815818    0.887820
C        -2.207965   -0.531300    0.171801
H        -1.935069   -1.064115    1.083211
H        -3.202811   -0.104662    0.314573
H        -2.257680   -1.232834   -0.660545
H         3.106401    0.502554   -0.196631
H         0.976713    0.992313    1.107756
$end


$rem
N_FROZEN_CORE FC
MEM_TOTAL 3750
MEM_STATIC 1500
AUX_BASIS_CORR rimp2-def2-QZVPPD
SCF_CONVERGENCE 7
SCF_ALGORITHM  GDM
method DSD-PBEPBE-D3
GEN_SCFMAN TRUE
UNRESTRICTED True
THRESH  14
SYMMETRY FALSE
SYM_IGNORE TRUE
max_scf_cycles 200

XC_GRID 000099000590
BASIS DEF2-QZVPP


$end










