$molecule
0 2
C        -1.577597    0.171599   -0.293843
H        -2.611440    0.425027   -0.029407
H        -1.534900    0.161820   -1.387508
C        -0.643560    1.261683    0.241174
H        -1.033735    2.235720   -0.066435
C         1.563290   -0.073494    0.277998
H         2.624336    0.014023    0.016478
O         1.159308   -1.284082   -0.308387
H        -0.671150    1.254174    1.337750
H         1.507203   -0.129333    1.375017
C         0.809589    1.152717   -0.226500
C        -1.258011   -1.203285    0.235097
H        -0.051414   -1.423467   -0.042088
H        -1.774207   -2.026332   -0.257531
H        -1.293345   -1.292341    1.321842
H         0.849790    1.158234   -1.320755
H         1.352130    2.039810    0.116181
$end


$rem
N_FROZEN_CORE FC
MEM_TOTAL 7500
MEM_STATIC 3000
AUX_BASIS_CORR rimp2-def2-QZVPPD
SCF_CONVERGENCE 7
SCF_ALGORITHM  GDM
method DSD-PBEPBE-D3
GEN_SCFMAN TRUE
UNRESTRICTED True
THRESH  14
SYMMETRY FALSE
SYM_IGNORE TRUE
max_scf_cycles 200

XC_GRID 000099000590
BASIS DEF2-QZVPP


$end










