$molecule
0 1
B     0.0000000    0.0000000   -2.3759884 
H     0.5905364    1.0228391   -2.5936411 
H     0.5905364   -1.0228391   -2.5936411 
H    -1.1810728    0.0000000   -2.5936411 
P    -0.0000000    0.0000000    1.7684168 
H     0.6165007    1.0678105    2.4225352 
H     0.6165007   -1.0678105    2.4225352 
H    -1.2330014    0.0000000    2.4225352 
H     0.0000000    0.0000000   -1.0070281 
H    -0.0000000    0.0000000   -0.1475438 
$end


$rem
N_FROZEN_CORE FC
MEM_TOTAL 3750
MEM_STATIC 1500
AUX_BASIS_CORR rimp2-def2-QZVPPD
SCF_CONVERGENCE 7
SCF_ALGORITHM  GDM
method DSD-PBEPBE-D3
GEN_SCFMAN TRUE
UNRESTRICTED True
THRESH  14
SYMMETRY FALSE
SYM_IGNORE TRUE
max_scf_cycles 200

XC_GRID 000099000590
BASIS DEF2-QZVPPD


$end










