$molecule
0 1
C    -0.3457134   -0.1728909    0.0000000 
C     1.3843767   -0.0520074    0.0000000 
N     0.9800815    1.0640658    0.0000000 
H    -1.0272588    0.6727741    0.0000000 
H    -0.4957430   -0.7559709    0.9004849 
H    -0.4957430   -0.7559709   -0.9004849 
$end


$rem
N_FROZEN_CORE FC
MEM_TOTAL 3750
MEM_STATIC 1500
AUX_BASIS_CORR rimp2-def2-QZVPPD
SCF_CONVERGENCE 7
SCF_ALGORITHM  GDM
method DSD-PBEPBE-D3
GEN_SCFMAN TRUE
UNRESTRICTED True
THRESH  14
SYMMETRY FALSE
SYM_IGNORE TRUE
max_scf_cycles 200

XC_GRID 000099000590
BASIS DEF2-QZVPPD


$end










