$molecule
0 1
B     0.0000000    0.0000000   -3.0934966 
H     0.5950210    1.0306066   -3.1108480 
H     0.5950210   -1.0306066   -3.1108480 
H    -1.1900420    0.0000000   -3.1108480 
P     0.0000000    0.0000000    2.8489335 
H     0.5938246    1.0285344    3.6029291 
H     0.5938246   -1.0285344    3.6029291 
H    -1.1876492    0.0000000    3.6029291 
H     0.0000000    0.0000000   -0.9896633 
H     0.0000000    0.0000000   -0.2420169 
$end


$rem
N_FROZEN_CORE FC
MEM_TOTAL 3750
MEM_STATIC 1500
AUX_BASIS_CORR rimp2-def2-QZVPPD
SCF_CONVERGENCE 7
SCF_ALGORITHM  GDM
method DSD-PBEPBE-D3
GEN_SCFMAN TRUE
UNRESTRICTED True
THRESH  14
SYMMETRY FALSE
SYM_IGNORE TRUE
max_scf_cycles 200

XC_GRID 000099000590
BASIS DEF2-QZVPPD


$end










