$molecule
0 1
C    -0.0000000    0.0000000   -0.4861410 
C     0.0000000    0.0000000    0.9653746 
N     0.0000000    0.0000000    2.1145426 
H    -0.5102145    0.8837175   -0.8645921 
H    -0.5102145   -0.8837175   -0.8645921 
H     1.0204291    0.0000000   -0.8645921 
$end


$rem
N_FROZEN_CORE FC
MEM_TOTAL 3750
MEM_STATIC 1500
AUX_BASIS_CORR rimp2-def2-QZVPPD
SCF_CONVERGENCE 7
SCF_ALGORITHM  GDM
method DSD-PBEPBE-D3
GEN_SCFMAN TRUE
UNRESTRICTED True
THRESH  14
SYMMETRY FALSE
SYM_IGNORE TRUE
max_scf_cycles 200

XC_GRID 000099000590
BASIS DEF2-QZVPPD


$end










