$molecule
0 1
C  0.0  0.0  -1.12416999216
C  0.0  1.17942683363  -0.189595114798
C  0.0  -1.17942683363  -0.189595114798
C  0.0  0.734346520642  1.08066237712
C  0.0  -0.734346520642  1.08066237712
H  0.877158795013  0.0  -1.78568427716
H  -0.877158795013  0.0  -1.78568427716
H  0.0  2.21027975591  -0.516355006753
H  0.0  -2.21027975591  -0.516355006753
H  0.0  1.34728622629  1.97305701767
H  0.0  -1.34728622629  1.97305701767
$end


$rem
N_FROZEN_CORE FC
MEM_TOTAL 3750
MEM_STATIC 1500
AUX_BASIS_CORR rimp2-def2-QZVPPD
SCF_CONVERGENCE 7
SCF_ALGORITHM  GDM
method DSD-PBEPBE-D3
GEN_SCFMAN TRUE
UNRESTRICTED True
THRESH  14
SYMMETRY FALSE
SYM_IGNORE TRUE
max_scf_cycles 200

XC_GRID 000099000590
BASIS DEF2-QZVPPD


$end










