$molecule
0 1
C  -0.594060013542  -0.608477876329  -1.07529454607
O  -0.503848981261  -1.4563756792  0.0
C  1.35146968156  0.166456661135  -0.701273482489
C  -1.37353559055  0.513395869687  -0.687330861798
C  -0.594060013542  -0.608477876329  1.07529454607
C  1.35146968156  0.166456661135  0.701273482489
C  -1.37353559055  0.513395869687  0.687330861798
H  -0.565140344644  -1.09111488701  -2.04111235517
H  1.86271304881  -0.634063785706  -1.22416689495
H  1.31884021257  1.10510773434  -1.24091004736
H  -1.74836250358  1.27688412348  -1.35217973208
H  -0.565140344644  -1.09111488701  2.04111235517
H  1.86271304881  -0.634063785706  1.22416689495
H  1.31884021257  1.10510773434  1.24091004736
H  -1.74836250358  1.27688412348  1.35217973208
$end


$rem
N_FROZEN_CORE FC
MEM_TOTAL 7500
MEM_STATIC 3000
AUX_BASIS_CORR rimp2-def2-QZVPPD
SCF_CONVERGENCE 7
SCF_ALGORITHM  GDM
method DSD-PBEPBE-D3
GEN_SCFMAN TRUE
UNRESTRICTED True
THRESH  14
SYMMETRY FALSE
SYM_IGNORE TRUE
max_scf_cycles 200

XC_GRID 000099000590
BASIS DEF2-QZVPPD


$end










