$molecule
0 1
H  -0.144883051746  1.2440004443  2.79078799675
C  -0.0793700283477  0.721429257664  1.84022965725
C  -0.128693045964  1.40898550323  0.677482241968
C  0.0793700283477  -0.721429257664  1.84022965725
C  0.128693045964  -1.40898550323  0.677482241968
H  0.144883051746  -1.2440004443  2.79078799675
H  -0.22121807901  2.49234589016  0.677508241978
C  -0.0067270024026  0.748467267321  -0.621344221918
C  0.0067270024026  -0.748467267321  -0.621344221918
H  0.22121807901  -2.49234589016  0.677508241978
C  0.128693045964  1.49744753483  -1.73950962128
C  -0.128693045964  -1.49744753483  -1.73950962128
H  0.0895460319821  2.58173092209  -1.68901060324
H  0.294457105168  1.06448038019  -2.72042797162
H  -0.294457105168  -1.06448038019  -2.72042797162
H  -0.0895460319821  -2.58173092209  -1.68901060324
$end


$rem
N_FROZEN_CORE FC
MEM_TOTAL 7500
MEM_STATIC 3000
AUX_BASIS_CORR rimp2-def2-QZVPPD
SCF_CONVERGENCE 7
SCF_ALGORITHM  GDM
method DSD-PBEPBE-D3
GEN_SCFMAN TRUE
UNRESTRICTED True
THRESH  14
SYMMETRY FALSE
SYM_IGNORE TRUE
max_scf_cycles 200

XC_GRID 000099000590
BASIS DEF2-QZVPPD


$end










