$molecule
0 1
H  2.0769447418  -1.1378754064  1.18158942201
C  1.48650253092  -0.360667128815  0.707184252577
C  -1.85868066384  0.685712244908  0.0
C  0.929340331922  0.685712244908  1.6096645749
H  -0.0151860054238  -1.1378754064  2.38948185342
H  0.658144235062  1.63186758283  1.13993940714
H  1.4682465244  0.857609306302  2.54307790828
C  -0.130812046721  -0.360667128815  1.64094158608
C  -1.3556904842  -0.360667128815  0.933756333499
H  -0.0151860054238  -1.1378754064  -2.38948185342
C  -0.130812046721  -0.360667128815  -1.64094158608
H  -2.93649304879  0.857609306302  0.0
C  0.929340331922  0.685712244908  -1.6096645749
H  2.0769447418  -1.1378754064  -1.18158942201
H  0.658144235062  1.63186758283  -1.13993940714
H  1.4682465244  0.857609306302  -2.54307790828
C  1.48650253092  -0.360667128815  -0.707184252577
H  -2.06175873637  -1.1378754064  1.20789243141
H  -1.31628847012  1.63186758283  0.0
C  -1.3556904842  -0.360667128815  -0.933756333499
H  -2.06175873637  -1.1378754064  -1.20789243141
$end


$rem
N_FROZEN_CORE FC
MEM_TOTAL 15000
MEM_STATIC 6000
AUX_BASIS_CORR rimp2-def2-QZVPPD
SCF_CONVERGENCE 7
SCF_ALGORITHM  GDM
method DSD-PBEPBE-D3
GEN_SCFMAN TRUE
UNRESTRICTED True
THRESH  14
SYMMETRY FALSE
SYM_IGNORE TRUE
max_scf_cycles 200

XC_GRID 000099000590
BASIS DEF2-QZVPPD


$end










