$molecule
0 1
H  -1.20945818197  1.86172566493  1.29003846075
C  -0.454407912296  1.35504148396  0.69809424933
C  0.482692422398  0.472609168796  1.24701344538
C  -0.454407912296  1.35504148396  -0.69809424933
H  2.36299609396  1.39459749809  0.0
P  1.78720188831  0.0801150286137  0.0
C  -0.454407912296  -1.4738685264  0.697823249233
H  0.660017485731  0.393456140526  2.31291482608
C  -0.454407912296  -1.4738685264  -0.697823249233
H  -1.20945818197  1.86172566493  -1.29003846075
C  0.482692422398  0.472609168796  -1.24701344538
H  0.660017485731  0.393456140526  -2.31291482608
H  0.268019345725  -2.07939874267  -1.23145843983
H  -1.36755423843  -1.26692145249  1.23885944247
H  0.268019345725  -2.07939874267  1.23145843983
H  -1.36755423843  -1.26692145249  -1.23885944247
$end


$rem
N_FROZEN_CORE FC
MEM_TOTAL 7500
MEM_STATIC 3000
AUX_BASIS_CORR rimp2-def2-QZVPPD
SCF_CONVERGENCE 7
SCF_ALGORITHM  GDM
method DSD-PBEPBE-D3
GEN_SCFMAN TRUE
UNRESTRICTED True
THRESH  14
SYMMETRY FALSE
SYM_IGNORE TRUE
max_scf_cycles 200

XC_GRID 000099000590
BASIS DEF2-QZVPPD


$end










