$molecule
0 1
H  -1.95893194965  1.23117462722  1.29239846159
C  -1.06070462884  1.11528658583  0.696552248779
C  0.187772817065  0.755563457356  1.24302544396
C  -1.06070462884  1.11528658583  -0.696552248779
H  2.34975758924  0.204291260464  0.0
P  1.42058125737  1.27945464447  0.0
C  0.187772817065  -1.39749831163  0.69647024875
H  0.376795884576  0.794930471416  2.30956082488
C  0.187772817065  -1.39749831163  -0.69647024875
H  -1.95893194965  1.23117462722  -1.29239846159
C  0.187772817065  0.755563457356  -1.24302544396
H  0.376795884576  0.794930471416  -2.30956082488
H  1.10246114375  -1.60704838647  -1.23710044184
H  -0.720335507274  -1.6342813962  1.23514844114
H  1.10246114375  -1.60704838647  1.23710044184
H  -0.720335507274  -1.6342813962  -1.23514844114
$end


$rem
N_FROZEN_CORE FC
MEM_TOTAL 7500
MEM_STATIC 3000
AUX_BASIS_CORR rimp2-def2-QZVPPD
SCF_CONVERGENCE 7
SCF_ALGORITHM  GDM
method DSD-PBEPBE-D3
GEN_SCFMAN TRUE
UNRESTRICTED True
THRESH  14
SYMMETRY FALSE
SYM_IGNORE TRUE
max_scf_cycles 200

XC_GRID 000099000590
BASIS DEF2-QZVPPD


$end










