$molecule
0 1
H  -1.96835664051  1.06706638111  1.34307147969
C  -1.11416533543  1.01457636236  0.684217244374
C  0.229222144369  0.729326260485  1.09945039268
C  -1.11416533543  1.01457636236  -0.684217244374
H  1.98243777054  0.706300252261  0.0
N  1.03477843208  1.05782237781  0.0
C  0.229222144369  -1.33411347649  0.706597252367
H  0.615932282485  0.869636310598  2.1001887501
C  0.229222144369  -1.33411347649  -0.706597252367
H  -1.96835664051  1.06706638111  -1.34307147969
C  0.229222144369  0.729326260485  -1.09945039268
H  0.615932282485  0.869636310598  -2.1001887501
H  -0.655306171548  -1.66353059414  -1.23801644217
H  -0.655306171548  -1.66353059414  1.23801644217
H  1.15484347496  -1.56502255896  1.2257754378
H  1.15484347496  -1.56502255896  -1.2257754378
$end


$rem
N_FROZEN_CORE FC
MEM_TOTAL 7500
MEM_STATIC 3000
AUX_BASIS_CORR rimp2-def2-QZVPPD
SCF_CONVERGENCE 7
SCF_ALGORITHM  GDM
method DSD-PBEPBE-D3
GEN_SCFMAN TRUE
UNRESTRICTED True
THRESH  14
SYMMETRY FALSE
SYM_IGNORE TRUE
max_scf_cycles 200

XC_GRID 000099000590
BASIS DEF2-QZVPPD


$end










