$molecule
0 1
H  -0.538866957167  -2.24361844839  1.32579347352
C  -0.658772999992  -1.36818713572  0.700088250042
H  -0.796082049033  1.8416550107  0.0
C  -0.658772999992  -0.0446706630133  1.1554974127
C  -0.658772999992  -1.36818713572  -0.700088250042
H  -2.23230656199  0.800125638713  0.0
C  -1.1308501686  0.805203640526  0.0
C  1.44099174996  0.520194538733  0.694895248188
H  -0.787696046038  0.242651439606  2.19170778279
C  1.44099174996  0.520194538733  -0.694895248188
H  -0.538866957167  -2.24361844839  -1.32579347352
C  -0.658772999992  -0.0446706630133  -1.1554974127
H  -0.787696046038  0.242651439606  -2.19170778279
H  1.37100572496  1.45640087311  -1.23647844162
H  1.91173091808  -0.2862627493  1.24115144329
H  1.37100572496  1.45640087311  1.23647844162
H  1.91173091808  -0.2862627493  -1.24115144329
$end


$rem
N_FROZEN_CORE FC
MEM_TOTAL 7500
MEM_STATIC 3000
AUX_BASIS_CORR rimp2-def2-QZVPPD
SCF_CONVERGENCE 7
SCF_ALGORITHM  GDM
method DSD-PBEPBE-D3
GEN_SCFMAN TRUE
UNRESTRICTED True
THRESH  14
SYMMETRY FALSE
SYM_IGNORE TRUE
max_scf_cycles 200

XC_GRID 000099000590
BASIS DEF2-QZVPPD


$end










