$molecule
0 1
C  0.828116228452  -0.211590705978  1.20475236486
S  1.44229844783  -1.34965561244  0.0
C  -1.24908468525  -0.55021653865  0.702159253978
C  0.920631959624  1.10965996972  0.686481283289
C  0.828116228452  -0.211590705978  -1.20475236486
C  -1.24908468525  -0.55021653865  -0.702159253978
C  0.920631959624  1.10965996972  -0.686481283289
H  0.95673695164  -0.459764154404  2.25014900964
H  -1.31253032423  -1.49358802621  1.23028605901
H  -1.67759042813  0.290441628207  1.23347846496
H  0.812571073979  1.98988563353  1.30728665293
H  0.95673695164  -0.459764154404  -2.25014900964
H  -1.31253032423  -1.49358802621  -1.23028605901
H  -1.67759042813  0.290441628207  -1.23347846496
H  0.812571073979  1.98988563353  -1.30728665293
$end


$rem
N_FROZEN_CORE FC
MEM_TOTAL 7500
MEM_STATIC 3000
AUX_BASIS_CORR rimp2-def2-QZVPPD
SCF_CONVERGENCE 7
SCF_ALGORITHM  GDM
method DSD-PBEPBE-D3
GEN_SCFMAN TRUE
UNRESTRICTED True
THRESH  14
SYMMETRY FALSE
SYM_IGNORE TRUE
max_scf_cycles 200

XC_GRID 000099000590
BASIS DEF2-QZVPPD


$end










