$molecule
0 1
C  -0.604402936093  0.0962844771433  1.30447616423
SI  -0.749113487783  1.43122745415  0.0
C  1.54144552886  -0.090640590659  0.697741598656
C  -1.15781223012  -1.04204803613  0.704230793692
C  -0.604402936093  0.0962844771433  -1.30447616423
C  1.54144552886  -0.090640590659  -0.697741598656
C  -1.15781223012  -1.04204803613  -0.704230793692
H  -0.575681601357  0.195104729883  2.38339326527
H  -2.10162297164  2.06016267964  0.0
H  0.270932877029  2.50947183888  0.0
H  1.87608668984  0.789608895052  1.23339865225
H  1.64747975278  -1.02087082667  1.23794708667
H  -1.43721341272  -1.92786963495  1.26742428404
H  -0.575681601357  0.195104729883  -2.38339326527
H  1.87608668984  0.789608895052  -1.23339865225
H  1.64747975278  -1.02087082667  -1.23794708667
H  -1.43721341272  -1.92786963495  -1.26742428404
$end


$rem
N_FROZEN_CORE FC
MEM_TOTAL 7500
MEM_STATIC 3000
AUX_BASIS_CORR rimp2-def2-QZVPPD
SCF_CONVERGENCE 7
SCF_ALGORITHM  GDM
method DSD-PBEPBE-D3
GEN_SCFMAN TRUE
UNRESTRICTED True
THRESH  14
SYMMETRY FALSE
SYM_IGNORE TRUE
max_scf_cycles 200

XC_GRID 000099000590
BASIS DEF2-QZVPPD


$end










