$molecule
0 1
C     0.0000000    0.0000000    0.7395831 
C     1.1315582   -0.3997245    1.4579412 
C     1.1319975   -0.4003733    2.8462384 
C     0.0000000    0.0000000    3.5470967 
C    -1.1319975    0.4003733    2.8462384 
C    -1.1315582    0.3997245    1.4579412 
C     0.0000000    0.0000000   -0.7395831 
C     1.1315582    0.3997245   -1.4579412 
C     1.1319975    0.4003733   -2.8462384 
C     0.0000000    0.0000000   -3.5470967 
C    -1.1319975   -0.4003733   -2.8462384 
C    -1.1315582   -0.3997245   -1.4579412 
H     2.0096598   -0.7362253    0.9219214 
H     2.0161092   -0.7223128    3.3820552 
H     0.0000000    0.0000000    4.6295229 
H    -2.0161092    0.7223128    3.3820552 
H    -2.0096598    0.7362253    0.9219214 
H     2.0096598    0.7362253   -0.9219214 
H     2.0161092    0.7223128   -3.3820552 
H     0.0000000    0.0000000   -4.6295229 
H    -2.0161092   -0.7223128   -3.3820552 
H    -2.0096598   -0.7362253   -0.9219214 
$end


$rem
N_FROZEN_CORE FC
MEM_TOTAL 30000
MEM_STATIC 8000
AUX_BASIS_CORR rimp2-def2-QZVPPD
SCF_CONVERGENCE 7
SCF_ALGORITHM  GDM
method DSD-PBEPBE-D3
GEN_SCFMAN TRUE
UNRESTRICTED True
THRESH  14
SYMMETRY FALSE
SYM_IGNORE TRUE
max_scf_cycles 200

XC_GRID 000099000590
BASIS DEF2-QZVPPD


$end










