$molecule
0 1
C    -0.2143504    0.9533214    0.0000000 
N    -0.1118448   -0.5782992    0.0000000 
H     0.8108410   -1.0328730    0.0000000 
H    -0.6149312   -0.9202851    0.8074929 
H    -0.6149312   -0.9202851   -0.8074929 
H     0.3726083    1.2492105    0.8729349 
H     0.3726083    1.2492105   -0.8729349
$end


$rem
N_FROZEN_CORE FC
MEM_TOTAL 3750
MEM_STATIC 1500
AUX_BASIS_CORR rimp2-def2-QZVPPD
SCF_CONVERGENCE 7
SCF_ALGORITHM  GDM
method DSD-PBEPBE-D3
GEN_SCFMAN TRUE
UNRESTRICTED True
THRESH  14
SYMMETRY FALSE
SYM_IGNORE TRUE
max_scf_cycles 200

XC_GRID 000099000590
BASIS DEF2-QZVPPD


$end










