$molecule
0 1
C     0.0240053    0.7372345   -0.4077909 
C    -0.0240053   -0.7372345   -0.4077909 
C     0.8896528    1.4589341    0.2837537 
H    -0.7007229    1.2440229   -1.0342574 
H     0.8809846    2.5367250    0.2414324 
H     1.6311062    0.9968323    0.9184411 
C    -0.8896528   -1.4589341    0.2837537 
H     0.7007229   -1.2440229   -1.0342574 
H    -1.6311062   -0.9968323    0.9184411 
H    -0.8809846   -2.5367250    0.2414324 
$end


$rem
N_FROZEN_CORE FC
MEM_TOTAL 3750
MEM_STATIC 1500
AUX_BASIS_CORR rimp2-def2-QZVPPD
SCF_CONVERGENCE 7
SCF_ALGORITHM  GDM
method DSD-PBEPBE-D3
GEN_SCFMAN TRUE
UNRESTRICTED True
THRESH  14
SYMMETRY FALSE
SYM_IGNORE TRUE
max_scf_cycles 200

XC_GRID 000099000590
BASIS DEF2-QZVPPD


$end










