$molecule
0 1
C     0.0000000   -0.0000000   -0.7565307 
C     0.0000000    0.0000000    0.7565307 
H     0.8767674    0.5062019   -1.1518715 
H    -0.0000000   -1.0124038   -1.1518715 
H    -0.8767674    0.5062019   -1.1518715 
H    -0.8767674   -0.5062019    1.1518715 
H     0.8767674   -0.5062019    1.1518715 
H    -0.0000000    1.0124038    1.1518715 
$end


$rem
N_FROZEN_CORE FC
MEM_TOTAL 3750
MEM_STATIC 1500
AUX_BASIS_CORR rimp2-def2-QZVPPD
SCF_CONVERGENCE 7
SCF_ALGORITHM  GDM
method DSD-PBEPBE-D3
GEN_SCFMAN TRUE
UNRESTRICTED True
THRESH  14
SYMMETRY FALSE
SYM_IGNORE TRUE
max_scf_cycles 200

XC_GRID 000099000590
BASIS DEF2-QZVPPD


$end










