$molecule
0 1
  C   -0.01176315610686      0.01965847235270      1.44907123696768
  C   0.02897417000745      0.30760188938184     -0.02809299349958
  N   -1.16421746089559      0.02649414288721     -0.78157818723604
  O   0.99400882632339      0.75831487216553     -0.56649944908317
  H   -1.40442741462843     -0.95232999431478     -0.68039484336666
  H   -1.93900803841296      0.53566898470082     -0.37443388798065
  H   -0.75177102971163      0.65775865221104      1.92690831006394
  H   -0.32593951812022     -1.00685915644777      1.63148956854443
  H   0.95840162154485      0.20296313706342      1.89519724559006
$end


$rem
N_FROZEN_CORE FC
MEM_TOTAL 3750
MEM_STATIC 1500
AUX_BASIS_CORR rimp2-def2-QZVPPD
SCF_CONVERGENCE 7
SCF_ALGORITHM  GDM
method DSD-PBEPBE-D3
GEN_SCFMAN TRUE
UNRESTRICTED True
THRESH  14
SYMMETRY FALSE
SYM_IGNORE TRUE
max_scf_cycles 200

XC_GRID 000099000590
BASIS DEF2-QZVPPD


$end










