$molecule
0 1
C    -1.3656935   -1.3512634    0.0000000 
C    -2.7484086   -1.0224421    0.0000000 
C    -2.8156508    0.3249638    0.0000000 
O    -1.5751158    0.8611200    0.0000000 
C    -0.6954624   -0.1694461    0.0000000 
C     0.6954624    0.1694461    0.0000000 
O     1.5751158   -0.8611200    0.0000000 
C     2.8156508   -0.3249638    0.0000000 
C     2.7484086    1.0224421    0.0000000 
C     1.3656935    1.3512634    0.0000000 
H    -0.9206722   -2.3269899    0.0000000 
H    -3.5790533   -1.7013250    0.0000000 
H    -3.6279757    1.0236724    0.0000000 
H     3.6279757   -1.0236724    0.0000000 
H     3.5790533    1.7013250    0.0000000 
H     0.9206722    2.3269899    0.0000000 
$end


$rem
N_FROZEN_CORE FC
MEM_TOTAL 15000
MEM_STATIC 6000
AUX_BASIS_CORR rimp2-def2-QZVPPD
SCF_CONVERGENCE 7
SCF_ALGORITHM  GDM
method DSD-PBEPBE-D3
GEN_SCFMAN TRUE
UNRESTRICTED True
THRESH  14
SYMMETRY FALSE
SYM_IGNORE TRUE
max_scf_cycles 200

XC_GRID 000099000590
BASIS DEF2-QZVPPD


$end










