$molecule
0 1
O     0.1640874    1.0771522    0.0000000 
C     0.1319097   -0.3310036    0.0000000 
H     1.1612146   -0.6758875    0.0000000 
H    -0.3605642   -0.7355506    0.8858582 
H    -0.3605642   -0.7355506   -0.8858582 
H    -0.7360833    1.4008402    0.0000000 
$end


$rem
N_FROZEN_CORE FC
MEM_TOTAL 3750
MEM_STATIC 1500
AUX_BASIS_CORR rimp2-def2-QZVPPD
SCF_CONVERGENCE 7
SCF_ALGORITHM  GDM
method DSD-PBEPBE-D3
GEN_SCFMAN TRUE
UNRESTRICTED True
THRESH  14
SYMMETRY FALSE
SYM_IGNORE TRUE
max_scf_cycles 200

XC_GRID 000099000590
BASIS DEF2-QZVPPD


$end










