$molecule
0 1
C    -1.4595330   -1.1910594    0.1600327 
C    -2.8488073   -0.9628516    0.0993153 
C    -3.1539559    0.3260872   -0.2060017 
S    -1.7497644    1.2592017   -0.4444530 
C    -0.7185117   -0.0716168   -0.1000887 
C     0.7185117    0.0716168   -0.1000887 
S     1.7497644   -1.2592017   -0.4444530 
C     3.1539559   -0.3260872   -0.2060017 
C     2.8488073    0.9628516    0.0993153 
C     1.4595330    1.1910594    0.1600327 
H    -1.0099655   -2.1339875    0.4228504 
H    -3.5907346   -1.7189217    0.2898715 
H    -4.1235319    0.7747989   -0.3122418 
H     4.1235319   -0.7747989   -0.3122418 
H     3.5907346    1.7189217    0.2898715 
H     1.0099655    2.1339875    0.4228504
$end


$rem
N_FROZEN_CORE FC
MEM_TOTAL 15000
MEM_STATIC 6000
AUX_BASIS_CORR rimp2-def2-QZVPPD
SCF_CONVERGENCE 7
SCF_ALGORITHM  GDM
method DSD-PBEPBE-D3
GEN_SCFMAN TRUE
UNRESTRICTED True
THRESH  14
SYMMETRY FALSE
SYM_IGNORE TRUE
max_scf_cycles 200

XC_GRID 000099000590
BASIS DEF2-QZVPPD


$end










