$molecule
0 1
S    -0.0687310    1.0220312   -0.4834061 
S     0.0687310   -1.0220312   -0.4834061 
H     0.8386269    1.2863190    0.4675986 
H    -0.8386269   -1.2863190    0.4675986 
$end


$rem
N_FROZEN_CORE FC
MEM_TOTAL 3750
MEM_STATIC 1500
AUX_BASIS_CORR rimp2-def2-QZVPPD
SCF_CONVERGENCE 7
SCF_ALGORITHM  GDM
method DSD-PBEPBE-D3
GEN_SCFMAN TRUE
UNRESTRICTED True
THRESH  14
SYMMETRY FALSE
SYM_IGNORE TRUE
max_scf_cycles 200

XC_GRID 000099000590
BASIS DEF2-QZVPPD


$end










