$molecule
0 1
C     0.3094552    1.4885766    0.4289354 
C     0.0086953    0.7307683   -0.6178885 
C    -0.0086953   -0.7307683   -0.6178885 
C    -0.3094552   -1.4885766    0.4289354 
H    -0.2198754    1.2121312   -1.5596547 
H     0.2918854    2.5648378    0.3671684 
H     0.5938825    1.0525743    1.3749643 
H     0.2198754   -1.2121312   -1.5596547 
H    -0.5938825   -1.0525743    1.3749643 
H    -0.2918854   -2.5648378    0.3671684
$end


$rem
N_FROZEN_CORE FC
MEM_TOTAL 3750
MEM_STATIC 1500
AUX_BASIS_CORR rimp2-def2-QZVPPD
SCF_CONVERGENCE 7
SCF_ALGORITHM  GDM
method DSD-PBEPBE-D3
GEN_SCFMAN TRUE
UNRESTRICTED True
THRESH  14
SYMMETRY FALSE
SYM_IGNORE TRUE
max_scf_cycles 200

XC_GRID 000099000590
BASIS DEF2-QZVPPD


$end










