$molecule
0 1
N     0.0507550    0.7066917   -0.2218809 
N    -0.0507550   -0.7066917   -0.2218809 
H     0.8523830   -1.0838766   -0.4577758 
H    -0.3235893   -1.0740537    0.6796527 
H    -0.8523830    1.0838766   -0.4577758 
H     0.3235893    1.0740537    0.6796527 
$end


$rem
N_FROZEN_CORE FC
MEM_TOTAL 3750
MEM_STATIC 1500
AUX_BASIS_CORR rimp2-def2-QZVPPD
SCF_CONVERGENCE 7
SCF_ALGORITHM  GDM
method DSD-PBEPBE-D3
GEN_SCFMAN TRUE
UNRESTRICTED True
THRESH  14
SYMMETRY FALSE
SYM_IGNORE TRUE
max_scf_cycles 200

XC_GRID 000099000590
BASIS DEF2-QZVPPD


$end










