$molecule
0 1
C     1.1718442    1.4111858    0.0000000 
C     0.0357523    0.7227548    0.0000000 
C    -0.0357523   -0.7227548    0.0000000 
C    -1.1718442   -1.4111858    0.0000000 
H    -0.9095134    1.2507964    0.0000000 
H     1.1817440    2.4889070    0.0000000 
H     2.1293121    0.9111032    0.0000000 
H     0.9095134   -1.2507964    0.0000000 
H    -1.1817440   -2.4889070    0.0000000 
H    -2.1293121   -0.9111032    0.0000000 
$end


$rem
N_FROZEN_CORE FC
MEM_TOTAL 3750
MEM_STATIC 1500
AUX_BASIS_CORR rimp2-def2-QZVPPD
SCF_CONVERGENCE 7
SCF_ALGORITHM  GDM
method DSD-PBEPBE-D3
GEN_SCFMAN TRUE
UNRESTRICTED True
THRESH  14
SYMMETRY FALSE
SYM_IGNORE TRUE
max_scf_cycles 200

XC_GRID 000099000590
BASIS DEF2-QZVPPD


$end










