$molecule
0 1
C    -0.0207058   -0.7667877    0.0000000 
C     0.0207058    0.7667877    0.0000000 
C     0.6956377    1.3103885    1.2529874 
C     0.6956377    1.3103885   -1.2529874 
H    -1.0164326    1.1164572    0.0000000 
C    -0.6956377   -1.3103885   -1.2529874 
C    -0.6956377   -1.3103885    1.2529874 
H     1.0164326   -1.1164572    0.0000000 
H     0.8029041    2.3913793    1.1998404 
H     0.1285111    1.0817107    2.1497585 
H     1.6917129    0.8829484    1.3708423 
H     0.1285111    1.0817107   -2.1497585 
H     0.8029041    2.3913793   -1.1998404 
H     1.6917129    0.8829484   -1.3708423 
H    -0.8029041   -2.3913793    1.1998404 
H    -0.1285111   -1.0817107    2.1497585 
H    -1.6917129   -0.8829484    1.3708423 
H    -0.8029041   -2.3913793   -1.1998404 
H    -1.6917129   -0.8829484   -1.3708423 
H    -0.1285111   -1.0817107   -2.1497585
$end


$rem
N_FROZEN_CORE FC
MEM_TOTAL 15000
MEM_STATIC 6000
AUX_BASIS_CORR rimp2-def2-QZVPPD
SCF_CONVERGENCE 7
SCF_ALGORITHM  GDM
method DSD-PBEPBE-D3
GEN_SCFMAN TRUE
UNRESTRICTED True
THRESH  14
SYMMETRY FALSE
SYM_IGNORE TRUE
max_scf_cycles 200

XC_GRID 000099000590
BASIS DEF2-QZVPPD


$end










