$molecule
0 1
  N   -0.11115880832978     -0.02551613494687     -0.01730510413245
  O   -0.58895878482719      0.46555591931502      1.24339838521922
  H   0.90087984737186     -0.04906254294276      0.02793548072260
  H   -0.33038589374312      0.73021745058808     -0.65400731806521
  H   0.15696863952822      0.47750630798653      1.84464755625584
$end


$rem
N_FROZEN_CORE FC
MEM_TOTAL 3750
MEM_STATIC 1500
AUX_BASIS_CORR rimp2-def2-QZVPPD
SCF_CONVERGENCE 7
SCF_ALGORITHM  GDM
method DSD-PBEPBE-D3
GEN_SCFMAN TRUE
UNRESTRICTED True
THRESH  14
SYMMETRY FALSE
SYM_IGNORE TRUE
max_scf_cycles 200

XC_GRID 000099000590
BASIS DEF2-QZVPPD


$end










