$molecule
0 1
S     1.0572291    0.0000000   -0.6622784 
S    -1.0572291    0.0000000   -0.6622784 
H     1.2093176    0.0000000    0.6627105 
H    -1.2093176    0.0000000    0.6627105
$end


$rem
N_FROZEN_CORE FC
MEM_TOTAL 3750
MEM_STATIC 1500
AUX_BASIS_CORR rimp2-def2-QZVPPD
SCF_CONVERGENCE 7
SCF_ALGORITHM  GDM
method DSD-PBEPBE-D3
GEN_SCFMAN TRUE
UNRESTRICTED True
THRESH  14
SYMMETRY FALSE
SYM_IGNORE TRUE
max_scf_cycles 200

XC_GRID 000099000590
BASIS DEF2-QZVPPD


$end










