$molecule
0 1
N    -0.3896245   -0.4975700    0.0000000 
O    -0.3776717    0.9154097    0.0000000 
H     0.1141459   -0.8133419    0.8207146 
H     0.1141459   -0.8133419   -0.8207146 
H     0.5390043    1.2088440    0.0000000 
$end


$rem
N_FROZEN_CORE FC
MEM_TOTAL 3750
MEM_STATIC 1500
AUX_BASIS_CORR rimp2-def2-QZVPPD
SCF_CONVERGENCE 7
SCF_ALGORITHM  GDM
method DSD-PBEPBE-D3
GEN_SCFMAN TRUE
UNRESTRICTED True
THRESH  14
SYMMETRY FALSE
SYM_IGNORE TRUE
max_scf_cycles 200

XC_GRID 000099000590
BASIS DEF2-QZVPPD


$end










