$molecule
0 1
C  1.45271874392  -0.177550165308  1.26347331621
C  1.45271874392  -0.177550165308  -1.26347331621
C  -1.45271874392  0.177550165308  1.26347331621
C  -1.45271874392  0.177550165308  -1.26347331621
C  0.719272214691  0.26132395798  0.0
C  -0.719272214691  -0.26132395798  0.0
C  0.716607325579  0.261458377971  -2.52517343653
C  0.716607325579  0.261458377971  2.52517343653
C  -0.716607325579  -0.261458377971  -2.52517343653
C  -0.716607325579  -0.261458377971  2.52517343653
H  0.699053612517  1.35446538107  -2.56760286553
H  0.699053612517  1.35446538107  2.56760286553
H  -0.699053612517  -1.35446538107  -2.56760286553
H  -0.699053612517  -1.35446538107  2.56760286553
H  -1.53822899681  1.26963429337  -1.25549540668
H  -1.53822899681  1.26963429337  1.25549540668
H  1.53822899681  -1.26963429337  -1.25549540668
H  1.53822899681  -1.26963429337  1.25549540668
H  -0.665814261594  -1.35942817331  0.0
H  0.665814261594  1.35942817331  0.0
H  1.24764728399  -0.0815967654046  -3.41452791045
H  1.24764728399  -0.0815967654046  3.41452791045
H  -1.24764728399  0.0815967654046  -3.41452791045
H  -1.24764728399  0.0815967654046  3.41452791045
H  -2.47092087994  -0.218794623329  -1.25557254383
H  -2.47092087994  -0.218794623329  1.25557254383
H  2.47092087994  0.218794623329  -1.25557254383
H  2.47092087994  0.218794623329  1.25557254383
$end


$rem
N_FROZEN_CORE FC
MEM_TOTAL 30000
MEM_STATIC 8000
AUX_BASIS_CORR rimp2-def2-QZVPPD
SCF_CONVERGENCE 7
SCF_ALGORITHM  GDM
method DSD-PBEPBE-D3
GEN_SCFMAN TRUE
UNRESTRICTED True
THRESH  14
SYMMETRY FALSE
SYM_IGNORE TRUE
max_scf_cycles 200

XC_GRID 000099000590
BASIS DEF2-QZVPPD


$end










