$molecule
0 1
C  1.14537569338  -0.852495748858  -1.33714407432
C  0.0  0.0  -0.782472686003
C  0.0  0.0  0.782472686003
C  1.14537569338  0.852495748858  1.33714407432
C  0.165595128439  1.41817232177  -1.33714407432
C  -1.31097082182  -0.565676572916  -1.33714407432
C  0.165595128439  -1.41817232177  1.33714407432
C  -1.31097082182  0.565676572916  1.33714407432
H  2.11012132271  -0.561400674737  -0.921942369756
H  0.992865364541  -1.91233163698  -1.13794629009
H  1.20109637638  -0.72494498937  -2.41932788952
H  2.11012132271  0.561400674737  0.921942369756
H  0.992865364541  1.91233163698  1.13794629009
H  1.20109637638  0.72494498937  2.41932788952
H  1.15969509582  1.81601244672  -1.13794629009
H  0.0272725889495  1.40265246903  -2.41932788952
H  -0.568873415333  2.10811900791  -0.921942369756
H  -1.54124790738  -1.54671833317  -0.921942369756
H  -2.15256046036  0.0963191902605  -1.13794629009
H  -1.22836896533  -0.677707479655  -2.41932788952
H  1.15969509582  -1.81601244672  1.13794629009
H  0.0272725889495  -1.40265246903  2.41932788952
H  -0.568873415333  -2.10811900791  0.921942369756
H  -1.54124790738  1.54671833317  0.921942369756
H  -2.15256046036  -0.0963191902605  1.13794629009
H  -1.22836896533  0.677707479655  2.41932788952
$end


$rem
N_FROZEN_CORE FC
MEM_TOTAL 30000
MEM_STATIC 8000
AUX_BASIS_CORR rimp2-def2-QZVPPD
SCF_CONVERGENCE 7
SCF_ALGORITHM  GDM
method DSD-PBEPBE-D3
GEN_SCFMAN TRUE
UNRESTRICTED True
THRESH  14
SYMMETRY FALSE
SYM_IGNORE TRUE
max_scf_cycles 200

XC_GRID 000099000590
BASIS DEF2-QZVPPD


$end










