$molecule
0 1
C  0.885292953664  0.885292953664  -0.885292953664
C  -0.885292953664  -0.885292953664  -0.885292953664
C  -0.885292953664  0.885292953664  0.885292953664
C  0.885292953664  -0.885292953664  0.885292953664
C  1.76649949234  0.0  0.0
C  0.0  -1.76649949234  0.0
C  0.0  0.0  1.76649949234
C  0.0  0.0  -1.76649949234
C  -1.76649949234  0.0  0.0
C  0.0  1.76649949234  0.0
H  2.41445852891  0.622947662102  0.622947662102
H  0.622947662102  -2.41445852891  -0.622947662102
H  -0.622947662102  -0.622947662102  2.41445852891
H  -0.622947662102  0.622947662102  -2.41445852891
H  -2.41445852891  0.622947662102  -0.622947662102
H  -0.622947662102  2.41445852891  -0.622947662102
H  -0.622947662102  -2.41445852891  0.622947662102
H  0.622947662102  0.622947662102  2.41445852891
H  2.41445852891  -0.622947662102  -0.622947662102
H  -2.41445852891  -0.622947662102  0.622947662102
H  0.622947662102  2.41445852891  0.622947662102
H  0.622947662102  -0.622947662102  -2.41445852891
H  1.51602920048  1.51602920048  -1.51602920048
H  -1.51602920048  -1.51602920048  -1.51602920048
H  -1.51602920048  1.51602920048  1.51602920048
H  1.51602920048  -1.51602920048  1.51602920048
$end


$rem
N_FROZEN_CORE FC
MEM_TOTAL 30000
MEM_STATIC 8000
AUX_BASIS_CORR rimp2-def2-QZVPPD
SCF_CONVERGENCE 7
SCF_ALGORITHM  GDM
method DSD-PBEPBE-D3
GEN_SCFMAN TRUE
UNRESTRICTED True
THRESH  14
SYMMETRY FALSE
SYM_IGNORE TRUE
max_scf_cycles 200

XC_GRID 000099000590
BASIS DEF2-QZVPPD


$end










