$molecule
0 1
C  -3.14883766096  -0.563078158318  0.0
C  -1.92284755588  0.340589785343  0.0
C  -0.617915257477  -0.44460062607  0.0
C  0.617915257477  0.44460062607  0.0
C  1.92284755588  -0.340589785343  0.0
C  3.14883766096  0.563078158318  0.0
H  -3.15497449865  -1.20649910847  0.879687993206
H  -4.07346545703  0.0119630696792  0.0
H  -3.15497449865  -1.20649910847  -0.879687993206
H  -1.94653640682  0.99468701004  0.87451695998
H  -1.94653640682  0.99468701004  -0.87451695998
H  -0.591947477143  -1.10006192635  0.87536577108
H  -0.591947477143  -1.10006192635  -0.87536577108
H  0.591947477143  1.10006192635  0.87536577108
H  0.591947477143  1.10006192635  -0.87536577108
H  1.94653640682  -0.99468701004  0.87451695998
H  1.94653640682  -0.99468701004  -0.87451695998
H  3.15497449865  1.20649910847  0.879687993206
H  4.07346545703  -0.0119630696792  0.0
H  3.15497449865  1.20649910847  -0.879687993206
$end


$rem
N_FROZEN_CORE FC
MEM_TOTAL 15000
MEM_STATIC 6000
AUX_BASIS_CORR rimp2-def2-QZVPPD
SCF_CONVERGENCE 7
SCF_ALGORITHM  GDM
method DSD-PBEPBE-D3
GEN_SCFMAN TRUE
UNRESTRICTED True
THRESH  14
SYMMETRY FALSE
SYM_IGNORE TRUE
max_scf_cycles 200

XC_GRID 000099000590
BASIS DEF2-QZVPPD


$end










