$molecule
0 1
C  -1.58470504528  1.4589477272  0.0
C  -1.20364195037  -0.0170664493625  0.0
C  0.301406557977  -0.321345786087  0.0
C  0.970301946229  0.253134628441  1.24706123389
C  0.476256439204  -1.83865943642  0.0
C  0.970301946229  0.253134628441  -1.24706123389
H  -1.20312264586  1.97261282205  -0.880771075706
H  -2.6679636595  1.57178294653  0.0
H  -1.20312264586  1.97261282205  0.880771075706
H  -1.64609480982  -0.501357700195  -0.875361719351
H  -1.64609480982  -0.501357700195  0.875361719351
H  0.488781658995  -0.11894520969  2.15306150185
H  0.927839193719  1.34169639399  1.26153112863
H  2.02127746766  -0.0374818889704  1.28096153366
H  0.013607756748  -2.28235537761  0.88291204861
H  1.53346652263  -2.10826633789  0.0
H  0.013607756748  -2.28235537761  -0.88291204861
H  0.927839193719  1.34169639399  -1.26153112863
H  0.488781658995  -0.11894520969  -2.15306150185
H  2.02127746766  -0.0374818889704  -1.28096153366
$end


$rem
N_FROZEN_CORE FC
MEM_TOTAL 15000
MEM_STATIC 6000
AUX_BASIS_CORR rimp2-def2-QZVPPD
SCF_CONVERGENCE 7
SCF_ALGORITHM  GDM
method DSD-PBEPBE-D3
GEN_SCFMAN TRUE
UNRESTRICTED True
THRESH  14
SYMMETRY FALSE
SYM_IGNORE TRUE
max_scf_cycles 200

XC_GRID 000099000590
BASIS DEF2-QZVPPD


$end










