$molecule
0 1
C  -1.38190280491  0.434251104522  -1.2473388864
C  -0.896113580759  -0.30143730629  0.0
C  0.633949075053  -0.424254084539  0.0
C  1.42506452933  0.878596965464  0.0
C  2.92723260048  0.620278638825  0.0
C  -1.38190280491  0.434251104522  1.2473388864
C  -1.48228650976  -1.71210182788  0.0
H  -1.04362218974  1.46982877799  -1.26155986055
H  -1.01969973646  -0.0552520148232  -2.15313922654
H  -2.4723724958  0.441399755752  -1.28199411473
H  0.929283352065  -1.01194216656  -0.876079223827
H  0.929283352065  -1.01194216656  0.876079223827
H  1.16198295924  1.47416154527  -0.875320443406
H  1.16198295924  1.47416154527  0.875320443406
H  3.22144021444  0.04815269102  -0.879826278633
H  3.49448939498  1.54982534751  0.0
H  3.22144021444  0.04815269102  0.879826278633
H  -1.04362218974  1.46982877799  1.26155986055
H  -2.4723724958  0.441399755752  1.28199411473
H  -1.01969973646  -0.0552520148232  2.15313922654
H  -1.15980858392  -2.26611028131  -0.882954803211
H  -1.15980858392  -2.26611028131  0.882954803211
H  -2.57293693919  -1.67988655679  0.0
$end


$rem
N_FROZEN_CORE FC
MEM_TOTAL 15000
MEM_STATIC 6000
AUX_BASIS_CORR rimp2-def2-QZVPPD
SCF_CONVERGENCE 7
SCF_ALGORITHM  GDM
method DSD-PBEPBE-D3
GEN_SCFMAN TRUE
UNRESTRICTED True
THRESH  14
SYMMETRY FALSE
SYM_IGNORE TRUE
max_scf_cycles 200

XC_GRID 000099000590
BASIS DEF2-QZVPPD


$end










