$molecule
0 1
C  1.33090373446  1.0490520445  -0.775503830839
C  1.33090373446  1.0490520445  0.775503830839
C  -0.0528259287354  0.517195947854  -1.18252345142
C  -0.509924714056  -0.345219909932  0.0
C  -0.0528259287354  0.517195947854  1.18252345142
C  -2.01120554226  -0.586357835066  0.0
C  0.229469274909  -1.68173954351  0.0
H  2.11817099264  0.400472338819  -1.15684117487
H  1.51529625747  2.04057990777  -1.18451520689
H  2.11817099264  0.400472338819  1.15684117487
H  1.51529625747  2.04057990777  1.18451520689
H  -0.0392022635332  -0.0362955684468  -2.12260769174
H  -0.75339796836  1.34781324621  -1.29901650595
H  -0.0392022635332  -0.0362955684468  2.12260769174
H  -0.75339796836  1.34781324621  1.29901650595
H  -2.55467708107  0.359467713231  0.0
H  -2.31623632867  -1.15257584377  -0.881509466746
H  -2.31623632867  -1.15257584377  0.881509466746
H  1.31103775572  -1.54707792856  0.0
H  -0.035058341888  -2.26577832102  0.882772412684
H  -0.035058341888  -2.26577832102  -0.882772412684
$end


$rem
N_FROZEN_CORE FC
MEM_TOTAL 15000
MEM_STATIC 6000
AUX_BASIS_CORR rimp2-def2-QZVPPD
SCF_CONVERGENCE 7
SCF_ALGORITHM  GDM
method DSD-PBEPBE-D3
GEN_SCFMAN TRUE
UNRESTRICTED True
THRESH  14
SYMMETRY FALSE
SYM_IGNORE TRUE
max_scf_cycles 200

XC_GRID 000099000590
BASIS DEF2-QZVPPD


$end










