$molecule
0 1
C  -0.893958446062  -0.893958446062  -0.893958446062
C  0.893958446062  0.893958446062  -0.893958446062
C  -0.893958446062  0.893958446062  0.893958446062
C  0.893958446062  -0.893958446062  0.893958446062
C  -1.75628099388  0.0  0.0
C  0.0  0.0  -1.75628099388
C  0.0  1.75628099388  0.0
C  0.0  -1.75628099388  0.0
C  1.75628099388  0.0  0.0
C  0.0  0.0  1.75628099388
H  -2.40693646473  -0.623880812733  0.623880812733
H  0.623880812733  -0.623880812733  -2.40693646473
H  0.623880812733  2.40693646473  0.623880812733
H  -0.623880812733  -2.40693646473  0.623880812733
H  2.40693646473  -0.623880812733  -0.623880812733
H  0.623880812733  0.623880812733  2.40693646473
H  -0.623880812733  -0.623880812733  2.40693646473
H  0.623880812733  -2.40693646473  -0.623880812733
H  2.40693646473  0.623880812733  0.623880812733
H  -2.40693646473  0.623880812733  -0.623880812733
H  -0.623880812733  0.623880812733  -2.40693646473
H  -0.623880812733  2.40693646473  -0.623880812733
C  -1.77194992638  -1.77194992638  -1.77194992638
C  1.77194992638  1.77194992638  -1.77194992638
C  -1.77194992638  1.77194992638  1.77194992638
C  1.77194992638  -1.77194992638  1.77194992638
H  1.16253758846  2.41236692424  -2.41236692424
H  -2.41236692424  2.41236692424  1.16253758846
H  -2.41236692424  -1.16253758846  -2.41236692424
H  2.41236692424  1.16253758846  -2.41236692424
H  -1.16253758846  2.41236692424  2.41236692424
H  -2.41236692424  -2.41236692424  -1.16253758846
H  2.41236692424  2.41236692424  -1.16253758846
H  -2.41236692424  1.16253758846  2.41236692424
H  -1.16253758846  -2.41236692424  -2.41236692424
H  1.16253758846  -2.41236692424  2.41236692424
H  2.41236692424  -2.41236692424  1.16253758846
H  2.41236692424  -1.16253758846  2.41236692424
$end


$rem
N_FROZEN_CORE FC
MEM_TOTAL 120000
MEM_STATIC 8000
AUX_BASIS_CORR rimp2-def2-QZVPPD
SCF_CONVERGENCE 7
SCF_ALGORITHM  GDM
method DSD-PBEPBE-D3
GEN_SCFMAN TRUE
UNRESTRICTED True
THRESH  14
SYMMETRY FALSE
SYM_IGNORE TRUE
max_scf_cycles 200

XC_GRID 000099000590
BASIS DEF2-QZVPPD


$end










