$molecule
0 1
C  0.141891956989  -1.56240217374  0.775997181466
C  0.141891956989  -1.56240217374  -0.775997181466
C  0.170476587402  -0.0814917714752  1.18315403788
C  -0.464236141251  0.647944361646  0.0
C  0.170476587402  -0.0814917714752  -1.18315403788
C  -0.246067094202  2.15001233837  0.0
H  0.983914186216  -2.11503069074  1.18828000677
H  -0.76401887391  -2.0363478565  1.15189382334
H  0.983914186216  -2.11503069074  -1.18828000677
H  -0.76401887391  -2.0363478565  -1.15189382334
H  1.20282937718  0.264418903748  1.28481953899
H  -0.335589052309  0.111074557546  2.12881152641
H  -1.53868818241  0.434317896611  0.0
H  -0.335589052309  0.111074557546  -2.12881152641
H  1.20282937718  0.264418903748  -1.28481953899
H  0.822000458557  2.3737476475  0.0
H  -0.68600870191  2.6167679091  0.881189946024
H  -0.68600870191  2.6167679091  -0.881189946024
$end


$rem
N_FROZEN_CORE FC
MEM_TOTAL 7500
MEM_STATIC 3000
AUX_BASIS_CORR rimp2-def2-QZVPPD
SCF_CONVERGENCE 7
SCF_ALGORITHM  GDM
method DSD-PBEPBE-D3
GEN_SCFMAN TRUE
UNRESTRICTED True
THRESH  14
SYMMETRY FALSE
SYM_IGNORE TRUE
max_scf_cycles 200

XC_GRID 000099000590
BASIS DEF2-QZVPPD


$end










