$molecule
0 1    
 C -1.927198 -0.439332 -0.271016
 H -2.199525 -1.219006 0.448873
 O -2.362695 0.840086 0.187884
 C -0.4328 -0.490868 -0.562136
 H -0.200109 -1.468069 -0.996605
 H -0.188322 0.261353 -1.311918
 C 0.431711 -0.275749 0.677734
 H 0.195604 -1.030538 1.435346
 H 0.211802 0.700526 1.122062
 H -2.053872 0.94544 1.090583
 H -2.488833 -0.62546 -1.184977
 C 1.92553 -0.344017 0.380607
 H 2.497855 -0.257449 1.309316
 H 2.171533 -1.304948 -0.071029
 O 2.348174 0.634754 -0.564888
 H 2.186577 1.499229 -0.17676
$end


$rem
N_FROZEN_CORE FC
MEM_TOTAL 7500
MEM_STATIC 3000
AUX_BASIS_CORR rimp2-def2-QZVPPD
SCF_CONVERGENCE 7
SCF_ALGORITHM  GDM
method DSD-PBEPBE-D3
GEN_SCFMAN TRUE
UNRESTRICTED True
THRESH  14
SYMMETRY FALSE
SYM_IGNORE TRUE
max_scf_cycles 200

XC_GRID 000099000590
BASIS DEF2-QZVPPD


$end










