$molecule
0 1    
 C 1.249414 -0.415779 0.211236
 H 0.769122 -1.250783 -0.288233
 O 2.615776 -0.450441 -0.19593
 C 0.57923 0.902593 -0.163301
 H 1.178558 1.716885 0.256761
 H 0.612887 1.018575 -1.249044
 C -0.86155 1.057907 0.331844
 H -1.185909 2.086126 0.150262
 H -0.902884 0.911088 1.416585
 H 3.065033 0.276088 0.244419
 H 1.161039 -0.581774 1.291453
 C -1.875327 0.132895 -0.333103
 H -2.88981 0.461191 -0.087477
 H -1.767359 0.18039 -1.41673
 O -1.705508 -1.24352 0.003009
 H -1.873421 -1.331799 0.945314
$end


$rem
N_FROZEN_CORE FC
MEM_TOTAL 7500
MEM_STATIC 3000
AUX_BASIS_CORR rimp2-def2-QZVPPD
SCF_CONVERGENCE 7
SCF_ALGORITHM  GDM
method DSD-PBEPBE-D3
GEN_SCFMAN TRUE
UNRESTRICTED True
THRESH  14
SYMMETRY FALSE
SYM_IGNORE TRUE
max_scf_cycles 200

XC_GRID 000099000590
BASIS DEF2-QZVPPD


$end










