$molecule
0 1    
 C 1.39889 -0.051902 0.578874
 H 0.847483 -0.488257 1.410002
 O 1.42537 -1.079354 -0.419635
 C 0.721991 1.227465 0.100633
 H 0.62639 1.8885 0.966428
 H 1.377791 1.741483 -0.608366
 C -0.657736 1.024448 -0.542881
 H -0.555442 0.584578 -1.537038
 H -1.113192 2.007037 -0.682955
 H 1.86905 -0.728859 -1.197578
 H 2.411397 0.164223 0.927947
 C -1.61285 0.146872 0.26534
 H -1.527577 0.398114 1.330342
 H -2.640388 0.356194 -0.033161
 O -1.412462 -1.248012 0.07265
 H -0.500543 -1.385385 -0.211537
$end


$rem
N_FROZEN_CORE FC
MEM_TOTAL 7500
MEM_STATIC 3000
AUX_BASIS_CORR rimp2-def2-QZVPPD
SCF_CONVERGENCE 7
SCF_ALGORITHM  GDM
method DSD-PBEPBE-D3
GEN_SCFMAN TRUE
UNRESTRICTED True
THRESH  14
SYMMETRY FALSE
SYM_IGNORE TRUE
max_scf_cycles 200

XC_GRID 000099000590
BASIS DEF2-QZVPPD


$end










