$molecule
0 1    
 C -0.189664 1.832638 0.638601
 H 0.196678 2.328188 1.534168
 O 0.148233 2.576351 -0.531934
 C 0.29514 0.390403 0.585502
 H 1.388409 0.381532 0.515051
 H 0.041886 -0.105891 1.524318
 C -0.29514 -0.390403 -0.585502
 H -0.041886 0.105891 -1.524318
 H -1.388409 -0.381532 -0.515051
 H 1.106938 2.638025 -0.562948
 H -1.278214 1.859587 0.69059
 C 0.189664 -1.832638 -0.638601
 H -0.196678 -2.328188 -1.534168
 H 1.278214 -1.859587 -0.69059
 O -0.148233 -2.576351 0.531934
 H -1.106938 -2.638025 0.562948
$end


$rem
N_FROZEN_CORE FC
MEM_TOTAL 7500
MEM_STATIC 3000
AUX_BASIS_CORR rimp2-def2-QZVPPD
SCF_CONVERGENCE 7
SCF_ALGORITHM  GDM
method DSD-PBEPBE-D3
GEN_SCFMAN TRUE
UNRESTRICTED True
THRESH  14
SYMMETRY FALSE
SYM_IGNORE TRUE
max_scf_cycles 200

XC_GRID 000099000590
BASIS DEF2-QZVPPD


$end










