$molecule
0 1    
 C -0.253018 1.544059 -0.414718
 H -1.346677 1.491057 -0.454871
 O 0.184119 2.886591 -0.213281
 C 0.253018 0.721674 0.757634
 H 1.345096 0.740477 0.754502
 H -0.068656 1.219414 1.673453
 C -0.253018 -0.721674 0.757634
 H -1.345096 -0.740477 0.754502
 H 0.068656 -1.219414 1.673453
 H -0.108269 3.407157 -0.965537
 H 0.137616 1.15319 -1.358797
 C 0.253018 -1.544059 -0.414718
 H -0.137616 -1.15319 -1.358797
 H 1.346677 -1.491057 -0.454871
 O -0.184119 -2.886591 -0.213281
 H 0.108269 -3.407157 -0.965537
$end


$rem
N_FROZEN_CORE FC
MEM_TOTAL 7500
MEM_STATIC 3000
AUX_BASIS_CORR rimp2-def2-QZVPPD
SCF_CONVERGENCE 7
SCF_ALGORITHM  GDM
method DSD-PBEPBE-D3
GEN_SCFMAN TRUE
UNRESTRICTED True
THRESH  14
SYMMETRY FALSE
SYM_IGNORE TRUE
max_scf_cycles 200

XC_GRID 000099000590
BASIS DEF2-QZVPPD


$end










