$molecule
0 1    
 C -1.382632 -0.460567 0.507638
 H -2.034408 -0.581224 1.378715
 O -2.156028 -0.42233 -0.692798
 C -0.519937 0.787141 0.677476
 H -1.182766 1.657775 0.694597
 H -0.032682 0.750239 1.656417
 C 0.531502 0.96373 -0.425516
 H 0.750936 2.02508 -0.562967
 H 0.12897 0.594219 -1.369668
 H -2.76303 0.319055 -0.61741
 H -0.754765 -1.342041 0.423545
 C 1.851305 0.273256 -0.129843
 H 2.555268 0.46396 -0.94552
 H 2.280046 0.684906 0.790766
 O 1.619534 -1.128395 0.014159
 H 2.462948 -1.547526 0.202104
$end


$rem
N_FROZEN_CORE FC
MEM_TOTAL 7500
MEM_STATIC 3000
AUX_BASIS_CORR rimp2-def2-QZVPPD
SCF_CONVERGENCE 7
SCF_ALGORITHM  GDM
method DSD-PBEPBE-D3
GEN_SCFMAN TRUE
UNRESTRICTED True
THRESH  14
SYMMETRY FALSE
SYM_IGNORE TRUE
max_scf_cycles 200

XC_GRID 000099000590
BASIS DEF2-QZVPPD


$end










