$molecule
0 1    
 C -1.968987 0.087575 0.178775
 H -2.896873 0.294017 -0.352941
 O -1.673457 -1.284698 -0.080468
 C -0.879669 1.047371 -0.288221
 H -0.792514 0.986816 -1.375965
 H -1.219403 2.059534 -0.056357
 C 0.489114 0.795582 0.360951
 H 0.364817 0.375939 1.363487
 H 1.031553 1.733089 0.486394
 H -1.046796 -1.576096 0.586499
 H -2.157679 0.240012 1.246214
 C 1.365615 -0.139737 -0.455984
 H 0.843718 -1.078207 -0.655796
 H 1.58557 0.32867 -1.421174
 O 2.563276 -0.362583 0.286179
 H 3.132613 -0.930276 -0.239175
$end


$rem
N_FROZEN_CORE FC
MEM_TOTAL 7500
MEM_STATIC 3000
AUX_BASIS_CORR rimp2-def2-QZVPPD
SCF_CONVERGENCE 7
SCF_ALGORITHM  GDM
method DSD-PBEPBE-D3
GEN_SCFMAN TRUE
UNRESTRICTED True
THRESH  14
SYMMETRY FALSE
SYM_IGNORE TRUE
max_scf_cycles 200

XC_GRID 000099000590
BASIS DEF2-QZVPPD


$end










