$molecule
0 1    
 C -1.824129 -0.641852 -0.185956
 H -2.336832 -1.494785 0.268355
 O -2.485491 0.578469 0.152396
 C -0.399989 -0.560509 0.329901
 H -0.431823 -0.403058 1.411128
 H 0.095542 -1.515795 0.153729
 C 0.399982 0.560539 -0.329827
 H -0.095517 1.515835 -0.153617
 H 0.431775 0.403117 -1.411059
 H -3.375106 0.540032 -0.207182
 H -1.816911 -0.788522 -1.271355
 C 1.824145 0.641833 0.185975
 H 2.336838 1.494787 -0.268308
 H 1.816979 0.788436 1.271384
 O 2.485476 -0.578477 -0.152479
 H 3.37512 -0.540057 0.207029
$end


$rem
N_FROZEN_CORE FC
MEM_TOTAL 7500
MEM_STATIC 3000
AUX_BASIS_CORR rimp2-def2-QZVPPD
SCF_CONVERGENCE 7
SCF_ALGORITHM  GDM
method DSD-PBEPBE-D3
GEN_SCFMAN TRUE
UNRESTRICTED True
THRESH  14
SYMMETRY FALSE
SYM_IGNORE TRUE
max_scf_cycles 200

XC_GRID 000099000590
BASIS DEF2-QZVPPD


$end










