$molecule
0 1    
 C -0.257096 1.556863 -0.41196
 H -1.34716 1.541142 -0.424081
 O 0.101244 2.931016 -0.295699
 C 0.257096 0.721265 0.754998
 H 1.352011 0.717645 0.741968
 H -0.045597 1.218131 1.677867
 C -0.257096 -0.721265 0.754998
 H -1.352011 -0.717645 0.741968
 H 0.045597 -1.218131 1.677867
 H 1.060622 2.980741 -0.321552
 H 0.088906 1.151058 -1.366844
 C 0.257096 -1.556863 -0.41196
 H -0.088906 -1.151058 -1.366844
 H 1.34716 -1.541142 -0.424081
 O -0.101244 -2.931016 -0.295699
 H -1.060622 -2.980741 -0.321552
$end


$rem
N_FROZEN_CORE FC
MEM_TOTAL 7500
MEM_STATIC 3000
AUX_BASIS_CORR rimp2-def2-QZVPPD
SCF_CONVERGENCE 7
SCF_ALGORITHM  GDM
method DSD-PBEPBE-D3
GEN_SCFMAN TRUE
UNRESTRICTED True
THRESH  14
SYMMETRY FALSE
SYM_IGNORE TRUE
max_scf_cycles 200

XC_GRID 000099000590
BASIS DEF2-QZVPPD


$end










