$molecule
0 1    
 C 2.046373 0.354631 0.32139
 H 2.044382 0.24001 1.410792
 O 2.462541 -0.852415 -0.311477
 C 0.679427 0.834504 -0.151869
 H 0.48614 1.813229 0.29777
 H 0.71619 0.975438 -1.234491
 C -0.449077 -0.128363 0.210783
 H -0.469658 -0.295035 1.290804
 H -0.292182 -1.097521 -0.267034
 H 1.897684 -1.559049 0.010687
 H 2.807259 1.091009 0.068123
 C -1.807219 0.388704 -0.223631
 H -2.01149 1.347766 0.263948
 H -1.809647 0.553967 -1.306023
 O -2.780715 -0.585286 0.14462
 H -3.640316 -0.265062 -0.139761
$end


$rem
N_FROZEN_CORE FC
MEM_TOTAL 7500
MEM_STATIC 3000
AUX_BASIS_CORR rimp2-def2-QZVPPD
SCF_CONVERGENCE 7
SCF_ALGORITHM  GDM
method DSD-PBEPBE-D3
GEN_SCFMAN TRUE
UNRESTRICTED True
THRESH  14
SYMMETRY FALSE
SYM_IGNORE TRUE
max_scf_cycles 200

XC_GRID 000099000590
BASIS DEF2-QZVPPD


$end










