$molecule
0 1    
 C -0.466737 1.887282 -0.023508
 H -1.102447 1.905735 0.861314
 O 0.283724 3.09666 0.023599
 C 0.411539 0.643534 -0.006295
 H 1.061697 0.65232 -0.887093
 H 1.061833 0.68878 0.869926
 C -0.411539 -0.643534 0.006295
 H -1.061833 -0.68878 -0.869926
 H -1.061697 -0.65232 0.887093
 H 0.820377 3.132962 -0.772687
 H -1.123307 1.868388 -0.899859
 C 0.466737 -1.887282 0.023508
 H 1.102447 -1.905735 -0.861314
 H 1.123307 -1.868388 0.899859
 O -0.283724 -3.09666 -0.023599
 H -0.820377 -3.132962 0.772687
$end


$rem
N_FROZEN_CORE FC
MEM_TOTAL 7500
MEM_STATIC 3000
AUX_BASIS_CORR rimp2-def2-QZVPPD
SCF_CONVERGENCE 7
SCF_ALGORITHM  GDM
method DSD-PBEPBE-D3
GEN_SCFMAN TRUE
UNRESTRICTED True
THRESH  14
SYMMETRY FALSE
SYM_IGNORE TRUE
max_scf_cycles 200

XC_GRID 000099000590
BASIS DEF2-QZVPPD


$end










