$molecule
0 1    
 C 0.419805 1.910469 0.399249
 H 1.056541 1.910924 1.290856
 O 1.198991 2.096355 -0.7785
 C -0.419805 0.638354 0.362827
 H -1.080821 0.637279 1.235747
 H -1.048622 0.677201 -0.529555
 C 0.419805 -0.638354 0.362827
 H 1.080821 -0.637279 1.235747
 H 1.048622 -0.677201 -0.529555
 H 1.867867 1.407601 -0.798033
 H -0.228702 2.783073 0.456529
 C -0.419805 -1.910469 0.399249
 H 0.228702 -2.783073 0.456529
 H -1.056541 -1.910924 1.290856
 O -1.198991 -2.096355 -0.7785
 H -1.867867 -1.407601 -0.798033
$end


$rem
N_FROZEN_CORE FC
MEM_TOTAL 7500
MEM_STATIC 3000
AUX_BASIS_CORR rimp2-def2-QZVPPD
SCF_CONVERGENCE 7
SCF_ALGORITHM  GDM
method DSD-PBEPBE-D3
GEN_SCFMAN TRUE
UNRESTRICTED True
THRESH  14
SYMMETRY FALSE
SYM_IGNORE TRUE
max_scf_cycles 200

XC_GRID 000099000590
BASIS DEF2-QZVPPD


$end










