$molecule
0 1    
 C -1.805977 0.363392 -0.270339
 H -1.773206 0.412343 -1.364272
 O -2.883357 -0.460151 0.167323
 C -0.457476 -0.092516 0.267229
 H -0.509684 -0.132402 1.357836
 H -0.24784 -1.10498 -0.084091
 C 0.676924 0.832375 -0.169103
 H 0.504464 1.840967 0.216097
 H 0.70403 0.903287 -1.259146
 H -2.70398 -1.35105 -0.145299
 H -2.039363 1.363568 0.094848
 C 2.037612 0.361016 0.311441
 H 2.802806 1.093758 0.038919
 H 2.032175 0.263461 1.40223
 O 2.305081 -0.897468 -0.306587
 H 3.150305 -1.213603 0.021626
$end


$rem
N_FROZEN_CORE FC
MEM_TOTAL 7500
MEM_STATIC 3000
AUX_BASIS_CORR rimp2-def2-QZVPPD
SCF_CONVERGENCE 7
SCF_ALGORITHM  GDM
method DSD-PBEPBE-D3
GEN_SCFMAN TRUE
UNRESTRICTED True
THRESH  14
SYMMETRY FALSE
SYM_IGNORE TRUE
max_scf_cycles 200

XC_GRID 000099000590
BASIS DEF2-QZVPPD


$end










