$molecule
0 1    
 C 0.421691 1.898289 0.398278
 H 1.077573 1.89922 1.276359
 O 1.191768 1.925497 -0.803162
 C -0.421691 0.636516 0.385716
 H -1.070502 0.648845 1.266675
 H -1.065996 0.647988 -0.493045
 C 0.421691 -0.636516 0.385716
 H 1.070502 -0.648845 1.266675
 H 1.065996 -0.647988 -0.493045
 H 1.731452 2.719524 -0.788411
 H -0.227085 2.777253 0.459755
 C -0.421691 -1.898289 0.398278
 H 0.227085 -2.777253 0.459755
 H -1.077573 -1.89922 1.276359
 O -1.191768 -1.925497 -0.803162
 H -1.731452 -2.719524 -0.788411
$end


$rem
N_FROZEN_CORE FC
MEM_TOTAL 7500
MEM_STATIC 3000
AUX_BASIS_CORR rimp2-def2-QZVPPD
SCF_CONVERGENCE 7
SCF_ALGORITHM  GDM
method DSD-PBEPBE-D3
GEN_SCFMAN TRUE
UNRESTRICTED True
THRESH  14
SYMMETRY FALSE
SYM_IGNORE TRUE
max_scf_cycles 200

XC_GRID 000099000590
BASIS DEF2-QZVPPD


$end










