$molecule
0 1    
 C -1.38662 -0.06982 0.488134
 H -1.543127 0.660287 1.282218
 O -2.689541 -0.408677 0.021739
 C -0.512729 0.531521 -0.606158
 H -0.32899 -0.219569 -1.381057
 H -1.079255 1.332365 -1.083365
 C 0.822127 1.084556 -0.098897
 H 0.633223 1.875529 0.633135
 H 1.35714 1.540532 -0.933359
 H -2.585023 -1.04799 -0.688206
 H -0.905181 -0.943444 0.940155
 C 1.737082 0.046753 0.546114
 H 2.678332 0.517613 0.824711
 H 1.290469 -0.35156 1.461646
 O 2.090532 -1.010941 -0.342913
 H 1.315328 -1.564869 -0.461645
$end


$rem
N_FROZEN_CORE FC
MEM_TOTAL 7500
MEM_STATIC 3000
AUX_BASIS_CORR rimp2-def2-QZVPPD
SCF_CONVERGENCE 7
SCF_ALGORITHM  GDM
method DSD-PBEPBE-D3
GEN_SCFMAN TRUE
UNRESTRICTED True
THRESH  14
SYMMETRY FALSE
SYM_IGNORE TRUE
max_scf_cycles 200

XC_GRID 000099000590
BASIS DEF2-QZVPPD


$end










