$molecule
0 1    
 C 1.242096 -0.431692 -0.153642
 H 1.074458 -0.737096 -1.185681
 O 2.655728 -0.403256 0.015318
 C 0.601437 0.927426 0.108276
 H 0.683219 1.160092 1.175474
 H 1.19993 1.670165 -0.422464
 C -0.861144 1.059256 -0.329091
 H -0.945795 0.898958 -1.406356
 H -1.17778 2.087483 -0.135809
 H 2.832694 -0.133237 0.920767
 H 0.809957 -1.200429 0.497421
 C -1.85256 0.127794 0.364157
 H -1.67323 0.11938 1.445156
 H -2.864056 0.497878 0.204906
 O -1.862091 -1.198567 -0.161353
 H -1.067468 -1.645312 0.136681
$end


$rem
N_FROZEN_CORE FC
MEM_TOTAL 7500
MEM_STATIC 3000
AUX_BASIS_CORR rimp2-def2-QZVPPD
SCF_CONVERGENCE 7
SCF_ALGORITHM  GDM
method DSD-PBEPBE-D3
GEN_SCFMAN TRUE
UNRESTRICTED True
THRESH  14
SYMMETRY FALSE
SYM_IGNORE TRUE
max_scf_cycles 200

XC_GRID 000099000590
BASIS DEF2-QZVPPD


$end










