$molecule
0 1    
 C 1.846339 0.615057 0.229391
 H 1.873878 0.683608 1.316632
 O 2.559486 -0.577006 -0.092167
 C 0.399993 0.58723 -0.251605
 H -0.052224 1.555012 -0.016395
 H 0.390624 0.486876 -1.343392
 C -0.41074 -0.542498 0.379372
 H -0.471101 -0.38646 1.459035
 H 0.108665 -1.488737 0.21582
 H 2.636741 -0.615698 -1.049424
 H 2.361318 1.492827 -0.172015
 C -1.822691 -0.653989 -0.179253
 H -1.784934 -0.857957 -1.255155
 H -2.345465 -1.483351 0.294091
 O -2.622786 0.497574 0.08497
 H -2.288504 1.214538 -0.459056
$end


$rem
N_FROZEN_CORE FC
MEM_TOTAL 7500
MEM_STATIC 3000
AUX_BASIS_CORR rimp2-def2-QZVPPD
SCF_CONVERGENCE 7
SCF_ALGORITHM  GDM
method DSD-PBEPBE-D3
GEN_SCFMAN TRUE
UNRESTRICTED True
THRESH  14
SYMMETRY FALSE
SYM_IGNORE TRUE
max_scf_cycles 200

XC_GRID 000099000590
BASIS DEF2-QZVPPD


$end










