$molecule
0 1    
 C 1.929586 -0.374395 0.311719
 H 2.206715 -1.241198 -0.288749
 O 2.288913 0.758383 -0.47683
 C 0.443933 -0.41484 0.645207
 H 0.255416 -1.277388 1.292092
 H 0.177846 0.474238 1.221559
 C -0.440113 -0.494414 -0.596989
 H -0.251144 -1.433539 -1.124366
 H -0.184624 0.316072 -1.279807
 H 2.04333 1.541885 0.023488
 H 2.521062 -0.406238 1.232004
 C -1.920107 -0.41231 -0.271017
 H -2.509477 -0.545214 -1.182888
 H -2.19449 -1.208485 0.429907
 O -2.169056 0.871031 0.30461
 H -3.103284 0.920316 0.521004
$end


$rem
N_FROZEN_CORE FC
MEM_TOTAL 7500
MEM_STATIC 3000
AUX_BASIS_CORR rimp2-def2-QZVPPD
SCF_CONVERGENCE 7
SCF_ALGORITHM  GDM
method DSD-PBEPBE-D3
GEN_SCFMAN TRUE
UNRESTRICTED True
THRESH  14
SYMMETRY FALSE
SYM_IGNORE TRUE
max_scf_cycles 200

XC_GRID 000099000590
BASIS DEF2-QZVPPD


$end










