$molecule
0 1
C    -0.0946966    0.9537325    0.0000000 
C     0.0687777   -1.1995273    0.6745538 
C     0.0687777   -1.1995273   -0.6745538 
N    -0.0168669    0.1210566   -1.0555598 
N    -0.0168669    0.1210566    1.0555598 
H     0.1219831   -2.0180118    1.3746740 
H     0.1219831   -2.0180118   -1.3746740 
C    -0.0293988    0.5625742   -2.4291242 
C    -0.0293988    0.5625742    2.4291242 
H     0.8662890    0.2299422   -2.9558198 
H    -0.9047067    0.1789916   -2.9548717 
H    -0.0587290    1.6481081   -2.4390162 
H    -0.9047067    0.1789916    2.9548717 
H     0.8662890    0.2299422    2.9558198 
H    -0.0587290    1.6481081    2.4390162 
$end


$rem
N_FROZEN_CORE FC
MEM_TOTAL 7500
MEM_STATIC 3000
AUX_BASIS_CORR rimp2-def2-QZVPPD
SCF_CONVERGENCE 7
SCF_ALGORITHM  GDM
method DSD-PBEPBE-D3
GEN_SCFMAN TRUE
UNRESTRICTED True
THRESH  14
SYMMETRY FALSE
SYM_IGNORE TRUE
max_scf_cycles 200

XC_GRID 000099000590
BASIS DEF2-QZVPPD


$end










