$molecule
0 1
C    -0.0475043    0.9518242    0.0000000 
C     0.0553300   -1.2085107    0.6721468 
C     0.0553300   -1.2085107   -0.6721468 
N    -0.0068292    0.1134193   -1.0558935 
N    -0.0068292    0.1134193    1.0558935 
H     0.0964756   -2.0286085    1.3710413 
H     0.0964756   -2.0286085   -1.3710413 
C    -0.0268963    0.5655123   -2.4237681 
C    -0.0268963    0.5655123    2.4237681 
H     0.8604394    0.2291423   -2.9613472 
H    -0.9121045    0.2011767   -2.9468824 
H    -0.0426629    1.6519566   -2.4198035 
H    -0.9121045    0.2011767    2.9468824 
H     0.8604394    0.2291423    2.9613472 
H    -0.0426629    1.6519566    2.4198035 
$end


$rem
N_FROZEN_CORE FC
MEM_TOTAL 7500
MEM_STATIC 3000
AUX_BASIS_CORR rimp2-def2-QZVPPD
SCF_CONVERGENCE 7
SCF_ALGORITHM  GDM
method DSD-PBEPBE-D3
GEN_SCFMAN TRUE
UNRESTRICTED True
THRESH  14
SYMMETRY FALSE
SYM_IGNORE TRUE
max_scf_cycles 200

XC_GRID 000099000590
BASIS DEF2-QZVPPD


$end










