$molecule
0 1
N    -0.0000000    0.0000000    0.2864269 
H    -0.4695853    0.8133456   -0.0954756 
H    -0.4695853   -0.8133456   -0.0954756 
H     0.9391706    0.0000000   -0.0954756 
$end


$rem
N_FROZEN_CORE FC
MEM_TOTAL 3750
MEM_STATIC 1500
AUX_BASIS_CORR rimp2-def2-QZVPPD
SCF_CONVERGENCE 7
SCF_ALGORITHM  GDM
method DSD-PBEPBE-D3
GEN_SCFMAN TRUE
UNRESTRICTED True
THRESH  14
SYMMETRY FALSE
SYM_IGNORE TRUE
max_scf_cycles 200

XC_GRID 000099000590
BASIS DEF2-QZVPPD


$end










