$molecule
0 1
C    -0.7812762    0.1517281   -0.7419824 
Cl    0.1322569   -0.0037532   -2.1651677 
C     0.0535089    0.0161273    0.4601907 
H     1.1401585    0.0053175    0.3540221 
H    -0.2671755    0.7649204    1.1894818 
H    -0.2774726   -0.9343402    0.9034555 
$end


$rem
N_FROZEN_CORE FC
MEM_TOTAL 3750
MEM_STATIC 1500
AUX_BASIS_CORR rimp2-def2-QZVPPD
SCF_CONVERGENCE 7
SCF_ALGORITHM  GDM
method DSD-PBEPBE-D3
GEN_SCFMAN TRUE
UNRESTRICTED True
THRESH  14
SYMMETRY FALSE
SYM_IGNORE TRUE
max_scf_cycles 200

XC_GRID 000099000590
BASIS DEF2-QZVPPD


$end










