$molecule
0 1
N    -0.0000000    0.0000000   -0.2777296 
H    -0.4727155   -0.8187672    0.0925765 
H    -0.4727155    0.8187672    0.0925765 
H     0.9454309    0.0000000    0.0925765 
$end


$rem
N_FROZEN_CORE FC
MEM_TOTAL 3750
MEM_STATIC 1500
AUX_BASIS_CORR rimp2-def2-QZVPPD
SCF_CONVERGENCE 7
SCF_ALGORITHM  GDM
method DSD-PBEPBE-D3
GEN_SCFMAN TRUE
UNRESTRICTED True
THRESH  14
SYMMETRY FALSE
SYM_IGNORE TRUE
max_scf_cycles 200

XC_GRID 000099000590
BASIS DEF2-QZVPPD


$end










