$molecule
0 1
O    -2.6230507    0.0983053   -0.2620611 
H    -1.6716484    0.0200216   -0.4294782 
H    -2.8369391    0.9964234   -0.5148255 
C     0.4073302   -0.0340636   -0.5409216 
Cl    1.3208633   -0.1895449   -1.9641069 
C     1.2421153   -0.1696644    0.6612515 
H     2.3287649   -0.1804742    0.5550829 
H     0.9214309    0.5791287    1.3905426 
H     0.9111337   -1.1201319    1.1045163 
$end


$rem
N_FROZEN_CORE FC
MEM_TOTAL 3750
MEM_STATIC 1500
AUX_BASIS_CORR rimp2-def2-QZVPPD
SCF_CONVERGENCE 7
SCF_ALGORITHM  GDM
method DSD-PBEPBE-D3
GEN_SCFMAN TRUE
UNRESTRICTED True
THRESH  14
SYMMETRY FALSE
SYM_IGNORE TRUE
max_scf_cycles 200

XC_GRID 000099000590
BASIS DEF2-QZVPPD


$end










