$molecule
0 1
C     0.0000000    0.0000000   -0.9584282 
C    -0.0000000    0.6736464    1.2112590 
C    -0.0000000   -0.6736464    1.2112590 
N     0.0000000   -1.0537038   -0.1132391 
N     0.0000000    1.0537038   -0.1132391 
H    -0.0000000    1.3723205    2.0327101 
H    -0.0000000   -1.3723205    2.0327101 
C     0.0000000   -2.4211809   -0.5661872 
C     0.0000000    2.4211809   -0.5661872 
H     0.8869830   -2.9521266   -0.2163042 
H    -0.8869830   -2.9521266   -0.2163042 
H     0.0000000   -2.4135116   -1.6527202 
H    -0.8869830    2.9521266   -0.2163042 
H     0.8869830    2.9521266   -0.2163042 
H     0.0000000    2.4135116   -1.6527202 
$end


$rem
N_FROZEN_CORE FC
MEM_TOTAL 7500
MEM_STATIC 3000
AUX_BASIS_CORR rimp2-def2-QZVPPD
SCF_CONVERGENCE 7
SCF_ALGORITHM  GDM
method DSD-PBEPBE-D3
GEN_SCFMAN TRUE
UNRESTRICTED True
THRESH  14
SYMMETRY FALSE
SYM_IGNORE TRUE
max_scf_cycles 200

XC_GRID 000099000590
BASIS DEF2-QZVPPD


$end










