$molecule
0 1
C    -0.7375496    0.1931454   -0.7568952 
Cl    0.1501291    0.0084722   -2.1749417 
C     0.0490747    0.0027236    0.4636855 
H     1.1320954   -0.0961517    0.3761685 
H    -0.2234460    0.7950730    1.1676971 
H    -0.3703035   -0.9032624    0.9242858 
$end


$rem
N_FROZEN_CORE FC
MEM_TOTAL 3750
MEM_STATIC 1500
AUX_BASIS_CORR rimp2-def2-QZVPPD
SCF_CONVERGENCE 7
SCF_ALGORITHM  GDM
method DSD-PBEPBE-D3
GEN_SCFMAN TRUE
UNRESTRICTED True
THRESH  14
SYMMETRY FALSE
SYM_IGNORE TRUE
max_scf_cycles 200

XC_GRID 000099000590
BASIS DEF2-QZVPPD


$end










