$molecule
0 1
N     0.0000000    0.0000000   -0.2853278 
H    -0.4684205    0.8113281    0.0951093 
H    -0.4684205   -0.8113281    0.0951093 
H     0.9368410    0.0000000    0.0951093 
$end


$rem
N_FROZEN_CORE FC
MEM_TOTAL 3750
MEM_STATIC 1500
AUX_BASIS_CORR rimp2-def2-QZVPPD
SCF_CONVERGENCE 7
SCF_ALGORITHM  GDM
method DSD-PBEPBE-D3
GEN_SCFMAN TRUE
UNRESTRICTED True
THRESH  14
SYMMETRY FALSE
SYM_IGNORE TRUE
max_scf_cycles 200

XC_GRID 000099000590
BASIS DEF2-QZVPPD


$end










