$molecule
0 1
O    -1.8677672   -0.0680743    0.0000000 
H    -0.8993875   -0.0438208    0.0000000 
H    -2.1345069    0.8507332    0.0000000 
C     1.1931097   -0.1465760    0.0000000 
H     1.8542760   -0.2961310   -0.8689284 
H     1.8542760   -0.2961310    0.8689284 
$end


$rem
N_FROZEN_CORE FC
MEM_TOTAL 3750
MEM_STATIC 1500
AUX_BASIS_CORR rimp2-def2-QZVPPD
SCF_CONVERGENCE 7
SCF_ALGORITHM  GDM
method DSD-PBEPBE-D3
GEN_SCFMAN TRUE
UNRESTRICTED True
THRESH  14
SYMMETRY FALSE
SYM_IGNORE TRUE
max_scf_cycles 200

XC_GRID 000099000590
BASIS DEF2-QZVPPD


$end










