$molecule
0 1
O    -2.2315426   -0.0184865    0.0000000 
H    -1.3109947    0.2590669    0.0000000 
H    -2.7355320    0.7954934    0.0000000 
Si    1.4665347   -0.0547721    0.0000000 
H     2.4057673   -0.4906509   -1.0901298 
H     2.4057673   -0.4906509    1.0901298 
$end


$rem
N_FROZEN_CORE FC
MEM_TOTAL 3750
MEM_STATIC 1500
AUX_BASIS_CORR rimp2-def2-QZVPPD
SCF_CONVERGENCE 7
SCF_ALGORITHM  GDM
method DSD-PBEPBE-D3
GEN_SCFMAN TRUE
UNRESTRICTED True
THRESH  14
SYMMETRY FALSE
SYM_IGNORE TRUE
max_scf_cycles 200

XC_GRID 000099000590
BASIS DEF2-QZVPPD


$end










