$molecule
1 1 
  K     -0.52255792     -0.69580706     -0.08762402
  O      1.05946357      1.41661246      0.17358440
  H      2.01489558      1.43516905      0.23109813
  H      0.81042444      2.33892497      0.23556280
$end


$rem
N_FROZEN_CORE FC
MEM_TOTAL 3750
MEM_STATIC 1500
AUX_BASIS_CORR rimp2-def2-QZVPPD
SCF_CONVERGENCE 7
SCF_ALGORITHM  GDM
method DSD-PBEPBE-D3
GEN_SCFMAN TRUE
UNRESTRICTED True
THRESH  14
SYMMETRY FALSE
SYM_IGNORE TRUE
max_scf_cycles 200

XC_GRID 000099000590
BASIS DEF2-QZVPPD


$end










