$molecule
2 2
Ag       0.042907   -0.738897    1.377295 
Ag       0.042907   -0.738897   -1.377295 
Ag       0.042907    1.650155    0.000000 
Ag      -2.359989    0.058032    0.000000 
Ag       2.446266    0.058418    0.000000 
O       -1.263117   -1.696766    0.000000 
$end


$rem
N_FROZEN_CORE FC
MEM_TOTAL 3750
MEM_STATIC 1500
AUX_BASIS_CORR rimp2-def2-QZVPPD
SCF_CONVERGENCE 7
SCF_ALGORITHM  GDM
method DSD-PBEPBE-D3
GEN_SCFMAN TRUE
UNRESTRICTED True
THRESH  14
SYMMETRY FALSE
SYM_IGNORE TRUE
max_scf_cycles 200

XC_GRID 000099000590
BASIS DEF2-QZVPPD


$end










