$molecule
2 2
Cu      -0.967673    0.056725    1.180703 
Cu      -0.972439   -0.054931   -1.177653 
Cu       0.936359    1.185605   -0.057167 
Cu       0.933653   -1.187345    0.053806 
H        2.032882   -0.001578    0.009000 
$end


$rem
N_FROZEN_CORE FC
MEM_TOTAL 3750
MEM_STATIC 1500
AUX_BASIS_CORR rimp2-def2-QZVPPD
SCF_CONVERGENCE 7
SCF_ALGORITHM  GDM
method DSD-PBEPBE-D3
GEN_SCFMAN TRUE
UNRESTRICTED True
THRESH  14
SYMMETRY FALSE
SYM_IGNORE TRUE
max_scf_cycles 200

XC_GRID 000099000590
BASIS DEF2-QZVPPD


$end










