$molecule
1 1
Cu      -0.000000    1.350762    0.000000 
Cu       1.169794   -0.675381    0.000000 
Cu      -1.169794   -0.675381    0.000000 
Cu       0.000000    0.000000    2.038554 
Cu       0.000000    0.000000   -2.038554 
$end


$rem
N_FROZEN_CORE FC
MEM_TOTAL 3750
MEM_STATIC 1500
AUX_BASIS_CORR rimp2-def2-QZVPPD
SCF_CONVERGENCE 7
SCF_ALGORITHM  GDM
method DSD-PBEPBE-D3
GEN_SCFMAN TRUE
UNRESTRICTED True
THRESH  14
SYMMETRY FALSE
SYM_IGNORE TRUE
max_scf_cycles 200

XC_GRID 000099000590
BASIS DEF2-QZVPPD


$end










