$molecule
2 2
Au      -0.026666   -0.758489    1.368291 
Au      -0.026666   -0.758489   -1.368291 
Au      -0.026666    1.620510    0.000000 
Au       2.221859    0.036850    0.000000 
Au      -2.275641    0.037199    0.000000 
O        1.321085   -1.753623    0.000000 
$end


$rem
N_FROZEN_CORE FC
MEM_TOTAL 3750
MEM_STATIC 1500
AUX_BASIS_CORR rimp2-def2-QZVPPD
SCF_CONVERGENCE 7
SCF_ALGORITHM  GDM
method DSD-PBEPBE-D3
GEN_SCFMAN TRUE
UNRESTRICTED True
THRESH  14
SYMMETRY FALSE
SYM_IGNORE TRUE
max_scf_cycles 200

XC_GRID 000099000590
BASIS DEF2-QZVPPD


$end










