$molecule
2 2
Au       1.963153   -0.000000   -0.005891 
Au      -0.000000    1.386060    1.383042 
Au       0.000000   -1.388345   -1.393150 
Au      -1.963153    0.000000   -0.005891 
Au      -0.000000   -1.386060    1.383042 
Au       0.000000    1.388345   -1.393150 
H       -0.000000   -0.000000    2.527667 
$end


$rem
N_FROZEN_CORE FC
MEM_TOTAL 3750
MEM_STATIC 1500
AUX_BASIS_CORR rimp2-def2-QZVPPD
SCF_CONVERGENCE 7
SCF_ALGORITHM  GDM
method DSD-PBEPBE-D3
GEN_SCFMAN TRUE
UNRESTRICTED True
THRESH  14
SYMMETRY FALSE
SYM_IGNORE TRUE
max_scf_cycles 200

XC_GRID 000099000590
BASIS DEF2-QZVPPD


$end










