$molecule
2 1
Cu       0.543145   -0.896300    1.192832 
Cu       0.543145   -0.896300   -1.192832 
Cu      -1.492086   -0.543328    0.000000 
Cu       0.211399    1.215580   -0.000000 
N        0.543145    3.129666   -0.000000 
H        0.146420    3.607894   -0.818022 
H        0.146420    3.607894    0.818022 
H        1.542647    3.366638   -0.000000 
$end


$rem
N_FROZEN_CORE FC
MEM_TOTAL 3750
MEM_STATIC 1500
AUX_BASIS_CORR rimp2-def2-QZVPPD
SCF_CONVERGENCE 7
SCF_ALGORITHM  GDM
method DSD-PBEPBE-D3
GEN_SCFMAN TRUE
UNRESTRICTED True
THRESH  14
SYMMETRY FALSE
SYM_IGNORE TRUE
max_scf_cycles 200

XC_GRID 000099000590
BASIS DEF2-QZVPPD


$end










