$molecule
2 1
Ag       0.000000    2.007270    0.225406 
Ag      -2.007270   -0.000000    0.225406 
Ag       2.007270   -0.000000    0.225406 
Ag      -0.000000   -2.007270    0.225406 
Ag       0.000000   -0.000000    2.232676 
Ag      -0.000000    0.000000   -1.781864 
C       -0.000000    0.000000   -3.897165 
O       -0.000000    0.000000   -5.022688 
$end


$rem
N_FROZEN_CORE FC
MEM_TOTAL 7500
MEM_STATIC 3000
AUX_BASIS_CORR rimp2-def2-QZVPPD
SCF_CONVERGENCE 7
SCF_ALGORITHM  GDM
method DSD-PBEPBE-D3
GEN_SCFMAN TRUE
UNRESTRICTED True
THRESH  14
SYMMETRY FALSE
SYM_IGNORE TRUE
max_scf_cycles 200

XC_GRID 000250000974
BASIS DEF2-QZVPPD


$end










