$molecule
2 1
Ag      -0.268639    1.507918    0.000000 
Ag       1.705052   -0.492854   -0.000000 
Ag      -0.647170   -0.911099    1.379441 
Ag      -0.647170   -0.911099   -1.379441 
N       -0.647170    3.675657    0.000000 
H       -0.250844    4.149729    0.817426 
H       -0.250844    4.149729   -0.817426 
H       -1.645581    3.906275    0.000000 
$end


$rem
N_FROZEN_CORE FC
MEM_TOTAL 3750
MEM_STATIC 1500
AUX_BASIS_CORR rimp2-def2-QZVPPD
SCF_CONVERGENCE 7
SCF_ALGORITHM  GDM
method DSD-PBEPBE-D3
GEN_SCFMAN TRUE
UNRESTRICTED True
THRESH  14
SYMMETRY FALSE
SYM_IGNORE TRUE
max_scf_cycles 200

XC_GRID 000099000590
BASIS DEF2-QZVPPD


$end










