$molecule
2 1
Ag       0.000000    1.637626    1.091303 
Ag      -1.418226   -0.818813    1.091303 
Ag       1.419532    0.819567   -1.226705 
Ag      -0.000000   -1.639134   -1.226705 
Ag       1.418226   -0.818813    1.091303 
Ag      -1.419532    0.819567   -1.226705 
O       -0.000000    0.000000    2.386459 
$end


$rem
N_FROZEN_CORE FC
MEM_TOTAL 3750
MEM_STATIC 1500
AUX_BASIS_CORR rimp2-def2-QZVPPD
SCF_CONVERGENCE 7
SCF_ALGORITHM  GDM
method DSD-PBEPBE-D3
GEN_SCFMAN TRUE
UNRESTRICTED True
THRESH  14
SYMMETRY FALSE
SYM_IGNORE TRUE
max_scf_cycles 200

XC_GRID 000099000590
BASIS DEF2-QZVPPD


$end










