$molecule
2 1
Cu       0.000000    1.413868    0.907717 
Cu      -1.224446   -0.706934    0.907717 
Cu       1.228230    0.709119   -1.098178 
Cu      -0.000000   -1.418238   -1.098178 
Cu       1.224446   -0.706934    0.907717 
Cu      -1.228230    0.709119   -1.098178 
O        0.000000    0.000000    2.071262 
$end


$rem
N_FROZEN_CORE FC
MEM_TOTAL 7500
MEM_STATIC 3000
AUX_BASIS_CORR rimp2-def2-QZVPPD
SCF_CONVERGENCE 7
SCF_ALGORITHM  GDM
method DSD-PBEPBE-D3
GEN_SCFMAN TRUE
UNRESTRICTED True
THRESH  14
SYMMETRY FALSE
SYM_IGNORE TRUE
max_scf_cycles 200

XC_GRID 000099000590
BASIS DEF2-QZVPPD


$end










