$molecule
2 1
Cu       0.000000    0.000000    1.350606 
Cu       1.169659    0.000000   -0.675303 
Cu      -1.169659    0.000000   -0.675303 
Cu       0.000000   -2.709070    1.350606 
Cu       1.169659   -2.709070   -0.675303 
Cu      -1.169659   -2.709070   -0.675303 
$end


$rem
N_FROZEN_CORE FC
MEM_TOTAL 3750
MEM_STATIC 1500
AUX_BASIS_CORR rimp2-def2-QZVPPD
SCF_CONVERGENCE 7
SCF_ALGORITHM  GDM
method DSD-PBEPBE-D3
GEN_SCFMAN TRUE
UNRESTRICTED True
THRESH  14
SYMMETRY FALSE
SYM_IGNORE TRUE
max_scf_cycles 200

XC_GRID 000099000590
BASIS DEF2-QZVPPD


$end










