$molecule
2 1
Cu      -0.000000    1.169143   -1.321072 
Cu      -0.000000   -1.169143   -1.321072 
Cu       1.135668   -0.000000    0.586389 
Cu      -1.135668    0.000000    0.586389 
C        0.000000    0.000000    2.397786 
O        0.000000    0.000000    3.528114 
$end


$rem
N_FROZEN_CORE FC
MEM_TOTAL 3750
MEM_STATIC 1500
AUX_BASIS_CORR rimp2-def2-QZVPPD
SCF_CONVERGENCE 7
SCF_ALGORITHM  GDM
method DSD-PBEPBE-D3
GEN_SCFMAN TRUE
UNRESTRICTED True
THRESH  14
SYMMETRY FALSE
SYM_IGNORE TRUE
max_scf_cycles 200

XC_GRID 000099000590
BASIS DEF2-QZVPPD


$end










