$molecule
2 2
Au       1.371014   -0.886381   -0.000000 
Au       0.000111    1.488448    0.000000 
Au      -1.371100   -0.886204   -0.000000 
Au       0.000009   -0.094639    2.248855 
Au       0.000009   -0.094639   -2.248855 
N        0.000009    3.625027    0.000000 
H        0.474612    4.009946   -0.823382 
H       -0.952720    4.004745    0.000000 
H        0.474612    4.009946    0.823382 
$end


$rem
N_FROZEN_CORE FC
MEM_TOTAL 3750
MEM_STATIC 1500
AUX_BASIS_CORR rimp2-def2-QZVPPD
SCF_CONVERGENCE 7
SCF_ALGORITHM  GDM
method DSD-PBEPBE-D3
GEN_SCFMAN TRUE
UNRESTRICTED True
THRESH  14
SYMMETRY FALSE
SYM_IGNORE TRUE
max_scf_cycles 200

XC_GRID 000099000590
BASIS DEF2-QZVPPD


$end










