$molecule
2 2
Ag       0.000000    0.000000    1.733523 
Ag       0.000000    1.616553   -0.602470 
Ag      -1.399976   -0.808277   -0.602470 
Ag       1.399976   -0.808277   -0.602470 
H        0.000000    0.000000    3.472645 
$end


$rem
N_FROZEN_CORE FC
MEM_TOTAL 3750
MEM_STATIC 1500
AUX_BASIS_CORR rimp2-def2-QZVPPD
SCF_CONVERGENCE 7
SCF_ALGORITHM  GDM
method DSD-PBEPBE-D3
GEN_SCFMAN TRUE
UNRESTRICTED True
THRESH  14
SYMMETRY FALSE
SYM_IGNORE TRUE
max_scf_cycles 200

XC_GRID 000099000590
BASIS DEF2-QZVPPD


$end










