$molecule
2 1
Au       0.000000    1.557965   -0.374277 
Au       1.349238   -0.778983   -0.374277 
Au      -1.349238   -0.778983   -0.374277 
Au       0.000000    0.000000    1.847226 
C        0.000000    0.000000   -3.443199 
O        0.000000    0.000000   -4.570996 
$end


$rem
N_FROZEN_CORE FC
MEM_TOTAL 3750
MEM_STATIC 1500
AUX_BASIS_CORR rimp2-def2-QZVPPD
SCF_CONVERGENCE 7
SCF_ALGORITHM  GDM
method DSD-PBEPBE-D3
GEN_SCFMAN TRUE
UNRESTRICTED True
THRESH  14
SYMMETRY FALSE
SYM_IGNORE TRUE
max_scf_cycles 200

XC_GRID 000099000590
BASIS DEF2-QZVPPD


$end










