$molecule
2 1
Ag      -0.496232    1.424332    0.766014 
Ag      -0.495534   -0.047990   -1.616616 
Ag      -0.497653   -1.375526    0.849595 
Ag       1.791247   -0.000831    0.001016 
O       -1.773239    0.000091   -0.000053 
$end


$rem
N_FROZEN_CORE FC
MEM_TOTAL 3750
MEM_STATIC 1500
AUX_BASIS_CORR rimp2-def2-QZVPPD
SCF_CONVERGENCE 7
SCF_ALGORITHM  GDM
method DSD-PBEPBE-D3
GEN_SCFMAN TRUE
UNRESTRICTED True
THRESH  14
SYMMETRY FALSE
SYM_IGNORE TRUE
max_scf_cycles 200

XC_GRID 000099000590
BASIS DEF2-QZVPPD


$end










