$molecule
2 1
Au       1.097463   -0.851949    1.387945
Au       1.097463   -0.851949   -1.387945
Au      -1.169041    0.750711    1.387945
Au      -1.169041    0.750711   -1.387945
Au       1.097463    1.552042    0.000000
Au      -1.169041   -1.653280   -0.000000
O        2.120505    2.999193    0.000000
$end


$rem
N_FROZEN_CORE FC
MEM_TOTAL 3750
MEM_STATIC 1500
AUX_BASIS_CORR rimp2-def2-QZVPPD
SCF_CONVERGENCE 7
SCF_ALGORITHM  GDM
method DSD-PBEPBE-D3
GEN_SCFMAN TRUE
UNRESTRICTED True
THRESH  14
SYMMETRY FALSE
SYM_IGNORE TRUE
max_scf_cycles 200

XC_GRID 000250000974
BASIS DEF2-QZVPPD


$end










