$molecule
2 2
Au       0.000000    1.567068   -0.568281 
Au       1.357120   -0.783534   -0.568281 
Au      -1.357120   -0.783534   -0.568281 
Au       0.000000    0.000000    1.725922 
H        0.000000    0.000000   -1.665144 
$end


$rem
N_FROZEN_CORE FC
MEM_TOTAL 3750
MEM_STATIC 1500
AUX_BASIS_CORR rimp2-def2-QZVPPD
SCF_CONVERGENCE 7
SCF_ALGORITHM  GDM
method DSD-PBEPBE-D3
GEN_SCFMAN TRUE
UNRESTRICTED True
THRESH  14
SYMMETRY FALSE
SYM_IGNORE TRUE
max_scf_cycles 200

XC_GRID 000099000590
BASIS DEF2-QZVPPD


$end










