$molecule
2 1
Ag      -0.330751   -1.937536   -0.432938 
Ag      -1.975843    0.357144   -0.139031 
Ag       1.981953   -0.315294   -0.153667 
Ag       0.336861    1.979387    0.140241 
Ag       0.043919    0.304680   -2.133041 
Ag      -0.037808   -0.262831    1.840343 
N       -0.083725   -0.573330    4.010445 
H        0.767216   -1.022750    4.360684 
H       -0.179325    0.303383    4.530919 
H       -0.863334   -1.168170    4.305579 
$end


$rem
N_FROZEN_CORE FC
MEM_TOTAL 7500
MEM_STATIC 3000
AUX_BASIS_CORR rimp2-def2-QZVPPD
SCF_CONVERGENCE 7
SCF_ALGORITHM  GDM
method DSD-PBEPBE-D3
GEN_SCFMAN TRUE
UNRESTRICTED True
THRESH  14
SYMMETRY FALSE
SYM_IGNORE TRUE
max_scf_cycles 200

XC_GRID 000099000590
BASIS DEF2-QZVPPD


$end










