$molecule
2 2
Cu      -0.986280    0.332987    0.000000 
Cu       0.984951   -0.333443    1.201371 
Cu       0.984951   -0.333443   -1.201371 
Cu      -0.329203   -2.054865    0.000000 
Cu       0.984951    1.832266    0.000000 
C       -2.786778    0.945453    0.000000 
O       -3.852628    1.308217    0.000000 
$end


$rem
N_FROZEN_CORE FC
MEM_TOTAL 3750
MEM_STATIC 1500
AUX_BASIS_CORR rimp2-def2-QZVPPD
SCF_CONVERGENCE 7
SCF_ALGORITHM  GDM
method DSD-PBEPBE-D3
GEN_SCFMAN TRUE
UNRESTRICTED True
THRESH  14
SYMMETRY FALSE
SYM_IGNORE TRUE
max_scf_cycles 200

XC_GRID 000099000590
BASIS DEF2-QZVPPD


$end










