$molecule
2 2
Cu       0.000000    1.416660    0.990820 
Cu       1.226864   -0.708330    0.990820 
Cu      -1.227787    0.708863   -1.014342 
Cu      -0.000000   -1.417726   -1.014342 
Cu      -1.226864   -0.708330    0.990820 
Cu       1.227787    0.708863   -1.014342 
H        0.000000    0.000000    2.046370 
$end


$rem
N_FROZEN_CORE FC
MEM_TOTAL 3750
MEM_STATIC 1500
AUX_BASIS_CORR rimp2-def2-QZVPPD
SCF_CONVERGENCE 7
SCF_ALGORITHM  GDM
method DSD-PBEPBE-D3
GEN_SCFMAN TRUE
UNRESTRICTED True
THRESH  14
SYMMETRY FALSE
SYM_IGNORE TRUE
max_scf_cycles 200

XC_GRID 000099000590
BASIS DEF2-QZVPPD


$end










