$molecule
2 1
Ag       0.007728    1.584333    0.000000 
Ag       0.007728   -0.802971    1.378593 
Ag       0.007728   -0.802971   -1.378593 
Ag      -2.394904   -0.006053    0.000000 
Ag       2.411149   -0.007849    0.000000 
H       -1.853114    1.669009    0.000000 
$end


$rem
N_FROZEN_CORE FC
MEM_TOTAL 3750
MEM_STATIC 1500
AUX_BASIS_CORR rimp2-def2-QZVPPD
SCF_CONVERGENCE 7
SCF_ALGORITHM  GDM
method DSD-PBEPBE-D3
GEN_SCFMAN TRUE
UNRESTRICTED True
THRESH  14
SYMMETRY FALSE
SYM_IGNORE TRUE
max_scf_cycles 200

XC_GRID 000099000590
BASIS DEF2-QZVPPD


$end










