$molecule
2 1
Cu       0.205540   -1.359095    1.080512 
Cu       0.205630    1.080517    1.359092 
Cu       0.206746   -1.080516   -1.359100 
Cu       0.206837    1.359097   -1.080521 
Cu      -1.530089    0.000162   -0.000845 
Cu       1.942465   -0.000160    0.000836 
N       -3.468531    0.000227   -0.000769 
H       -3.867879    0.868478   -0.374486 
H       -3.867071   -0.761984   -0.560517 
H       -3.862075   -0.108239    0.941092 
$end


$rem
N_FROZEN_CORE FC
MEM_TOTAL 7500
MEM_STATIC 3000
AUX_BASIS_CORR rimp2-def2-QZVPPD
SCF_CONVERGENCE 7
SCF_ALGORITHM  GDM
method DSD-PBEPBE-D3
GEN_SCFMAN TRUE
UNRESTRICTED True
THRESH  14
SYMMETRY FALSE
SYM_IGNORE TRUE
max_scf_cycles 200

XC_GRID 000250000974
BASIS DEF2-QZVPPD


$end










