$molecule
2 1
Cu       0.253817    1.375381    0.000000 
Cu       0.253817   -0.687598    1.191098 
Cu       0.253817   -0.687598   -1.191098 
Cu      -1.745352    0.000159    0.000000 
N        2.725949   -0.000959   -0.000000 
H        3.150217   -0.936878   -0.000000 
H        3.150637    0.466806   -0.810419 
H        3.150637    0.466806    0.810419 
$end


$rem
N_FROZEN_CORE FC
MEM_TOTAL 3750
MEM_STATIC 1500
AUX_BASIS_CORR rimp2-def2-QZVPPD
SCF_CONVERGENCE 7
SCF_ALGORITHM  GDM
method DSD-PBEPBE-D3
GEN_SCFMAN TRUE
UNRESTRICTED True
THRESH  14
SYMMETRY FALSE
SYM_IGNORE TRUE
max_scf_cycles 200

XC_GRID 000099000590
BASIS DEF2-QZVPPD


$end










