$molecule
2 1
Au       0.000000    1.548281   -0.453246 
Au       1.340851   -0.774141   -0.453246 
Au      -1.340851   -0.774141   -0.453246 
Au       0.000000    0.000000    1.783664 
N        0.000000    0.000000   -3.226055 
H       -0.813891    0.469900   -3.635956 
H        0.813891    0.469900   -3.635956 
H       -0.000000   -0.939800   -3.635956 
$end


$rem
N_FROZEN_CORE FC
MEM_TOTAL 3750
MEM_STATIC 1500
AUX_BASIS_CORR rimp2-def2-QZVPPD
SCF_CONVERGENCE 7
SCF_ALGORITHM  GDM
method DSD-PBEPBE-D3
GEN_SCFMAN TRUE
UNRESTRICTED True
THRESH  14
SYMMETRY FALSE
SYM_IGNORE TRUE
max_scf_cycles 200

XC_GRID 000099000590
BASIS DEF2-QZVPPD


$end










