$molecule
2 1
Au       0.086155   -0.019516   -1.962753 
Au       0.085530   -1.962752    0.019516 
Au       0.087583    1.962753   -0.019517 
Au       0.086957    0.019517    1.962752 
Au      -1.876294    0.001031    0.000390 
Au       2.049406   -0.001029   -0.000391 
N       -3.989595    0.000350   -0.000280 
H       -4.365276   -0.240795    0.922929 
H       -4.368830    0.918824   -0.252992 
H       -4.366335   -0.680831   -0.667756 
$end


$rem
N_FROZEN_CORE FC
MEM_TOTAL 7500
MEM_STATIC 3000
AUX_BASIS_CORR rimp2-def2-QZVPPD
SCF_CONVERGENCE 7
SCF_ALGORITHM  GDM
method DSD-PBEPBE-D3
GEN_SCFMAN TRUE
UNRESTRICTED True
THRESH  14
SYMMETRY FALSE
SYM_IGNORE TRUE
max_scf_cycles 200

XC_GRID 000250000974
BASIS DEF2-QZVPPD


$end










