$molecule
2 1
Cu       0.011050    1.376044    0.000000 
Cu       0.011050   -0.704316    1.201490 
Cu       0.011050   -0.704316   -1.201490 
Cu      -2.039695   -0.008851    0.000000 
Cu       2.062957   -0.011843    0.000000 
H       -1.635883    1.545197    0.000000 
$end


$rem
N_FROZEN_CORE FC
MEM_TOTAL 3750
MEM_STATIC 1500
AUX_BASIS_CORR rimp2-def2-QZVPPD
SCF_CONVERGENCE 7
SCF_ALGORITHM  GDM
method DSD-PBEPBE-D3
GEN_SCFMAN TRUE
UNRESTRICTED True
THRESH  14
SYMMETRY FALSE
SYM_IGNORE TRUE
max_scf_cycles 200

XC_GRID 000099000590
BASIS DEF2-QZVPPD


$end










