$molecule
2 1
Cu       0.000000    1.302539   -0.813466 
Cu      -0.000000   -1.302539   -0.813466 
Cu       1.855745   -0.000000    0.743724 
Cu      -1.855745    0.000000    0.743724 
O        0.000000    0.000000    0.505628 
$end


$rem
N_FROZEN_CORE FC
MEM_TOTAL 3750
MEM_STATIC 1500
AUX_BASIS_CORR rimp2-def2-QZVPPD
SCF_CONVERGENCE 7
SCF_ALGORITHM  GDM
method DSD-PBEPBE-D3
GEN_SCFMAN TRUE
UNRESTRICTED True
THRESH  14
SYMMETRY FALSE
SYM_IGNORE TRUE
max_scf_cycles 200

XC_GRID 000099000590
BASIS DEF2-QZVPPD


$end










