$molecule
2 2
Cu       0.000077    1.161604    0.000000 
Cu       1.201448   -0.919225   -0.000000 
Cu      -1.201294   -0.919225   -0.000000 
Cu       0.000077   -0.220353    2.052483 
Cu       0.000077   -0.220353   -2.052483 
N       -0.000639    3.119915    0.000000 
H        0.470229    3.525491   -0.816756 
H       -0.947079    3.518696    0.000000 
H        0.470229    3.525491    0.816756 
$end


$rem
N_FROZEN_CORE FC
MEM_TOTAL 7500
MEM_STATIC 3000
AUX_BASIS_CORR rimp2-def2-QZVPPD
SCF_CONVERGENCE 7
SCF_ALGORITHM  GDM
method DSD-PBEPBE-D3
GEN_SCFMAN TRUE
UNRESTRICTED True
THRESH  14
SYMMETRY FALSE
SYM_IGNORE TRUE
max_scf_cycles 200

XC_GRID 000099000590
BASIS DEF2-QZVPPD


$end










