$molecule
2 1
Ag       0.000000    0.000000    1.490737
Ag       0.000000    1.691549   -0.683302
Ag      -1.464925   -0.845775   -0.683302
Ag       1.464925   -0.845775   -0.683302
O        0.000000    0.000000    3.285115
$end


$rem
N_FROZEN_CORE FC
MEM_TOTAL 3750
MEM_STATIC 1500
AUX_BASIS_CORR rimp2-def2-QZVPPD
SCF_CONVERGENCE 7
SCF_ALGORITHM  GDM
method DSD-PBEPBE-D3
GEN_SCFMAN TRUE
UNRESTRICTED True
THRESH  14
SYMMETRY FALSE
SYM_IGNORE TRUE
max_scf_cycles 200

XC_GRID 000250000974
BASIS DEF2-QZVPPD
SCF_GUESS_MIX = 3
SCF_GUESS SADMO
$end










