$molecule
2 1
Au      -1.594590    0.078218   -0.000001 
Au       0.775096    1.517085    0.000162 
Au       0.582161   -0.813147    1.317203 
Au       0.582175   -0.812859   -1.317367 
O       -3.405313    0.303192    0.000038 
$end


$rem
N_FROZEN_CORE FC
MEM_TOTAL 3750
MEM_STATIC 1500
AUX_BASIS_CORR rimp2-def2-QZVPPD
SCF_CONVERGENCE 7
SCF_ALGORITHM  GDM
method DSD-PBEPBE-D3
GEN_SCFMAN TRUE
UNRESTRICTED True
THRESH  14
SYMMETRY FALSE
SYM_IGNORE TRUE
max_scf_cycles 200

XC_GRID 000099000590
BASIS DEF2-QZVPPD


$end










