$molecule
2 1
Au       0.714417    1.573734   -0.504464 
Au       1.005094   -1.407421   -0.501611 
Au      -1.724085   -0.168365   -0.496313 
Au       0.004959    0.002338    1.665312 
O       -0.003812   -0.002821   -1.608879 
$end


$rem
N_FROZEN_CORE FC
MEM_TOTAL 3750
MEM_STATIC 1500
AUX_BASIS_CORR rimp2-def2-QZVPPD
SCF_CONVERGENCE 7
SCF_ALGORITHM  GDM
method DSD-PBEPBE-D3
GEN_SCFMAN TRUE
UNRESTRICTED True
THRESH  14
SYMMETRY FALSE
SYM_IGNORE TRUE
max_scf_cycles 200

XC_GRID 000099000590
BASIS DEF2-QZVPPD


$end










