$molecule
2 1
Cu       0.000000    1.736277    0.316573 
Cu       1.736277   -0.000000    0.316573 
Cu      -1.736277    0.000000    0.316573 
Cu      -0.000000   -1.736277    0.316573 
Cu       0.000000    0.000000   -1.419704 
Cu      -0.000000   -0.000000    2.052850 
C        0.000000    0.000000   -3.290657 
O        0.000000    0.000000   -4.417470 
$end


$rem
N_FROZEN_CORE FC
MEM_TOTAL 7500
MEM_STATIC 3000
AUX_BASIS_CORR rimp2-def2-QZVPPD
SCF_CONVERGENCE 7
SCF_ALGORITHM  GDM
method DSD-PBEPBE-D3
GEN_SCFMAN TRUE
UNRESTRICTED True
THRESH  14
SYMMETRY FALSE
SYM_IGNORE TRUE
max_scf_cycles 200

XC_GRID 000250000974
BASIS DEF2-QZVPPD


$end










