$molecule
2 2
Ag       0.000000    1.653745    1.128710 
Ag       1.432185   -0.826873    1.128710 
Ag      -1.432424    0.827010   -1.144712 
Ag      -0.000000   -1.654021   -1.144712 
Ag      -1.432185   -0.826873    1.128710 
Ag       1.432424    0.827010   -1.144712 
H        0.000000    0.000000    2.256219 
$end


$rem
N_FROZEN_CORE FC
MEM_TOTAL 3750
MEM_STATIC 1500
AUX_BASIS_CORR rimp2-def2-QZVPPD
SCF_CONVERGENCE 7
SCF_ALGORITHM  GDM
method DSD-PBEPBE-D3
GEN_SCFMAN TRUE
UNRESTRICTED True
THRESH  14
SYMMETRY FALSE
SYM_IGNORE TRUE
max_scf_cycles 200

XC_GRID 000099000590
BASIS DEF2-QZVPPD


$end










