$molecule
2 1
Cu      -0.699169    1.414550   -0.009393 
Cu      -0.712473   -0.711612   -1.196247 
Cu      -0.713804   -0.695421    1.204985 
Cu       1.301110   -0.004786    0.000413 
O        2.988221   -0.009902    0.000880 
$end


$rem
N_FROZEN_CORE FC
MEM_TOTAL 3750
MEM_STATIC 1500
AUX_BASIS_CORR rimp2-def2-QZVPPD
SCF_CONVERGENCE 7
SCF_ALGORITHM  GDM
method DSD-PBEPBE-D3
GEN_SCFMAN TRUE
UNRESTRICTED True
THRESH  14
SYMMETRY FALSE
SYM_IGNORE TRUE
max_scf_cycles 200

XC_GRID 000250000974
BASIS DEF2-QZVPPD


$end










