$molecule
2 1
Au      -0.274490    1.572639   -0.000000 
Au       1.635934   -0.418177    0.000000 
Au      -0.639028   -0.815642    1.333593 
Au      -0.639028   -0.815642   -1.333593 
N       -0.639028    3.654013   -0.000000 
H       -0.235750    4.112347    0.824759 
H       -0.235750    4.112347   -0.824759 
H       -1.642949    3.866239   -0.000000 
$end


$rem
N_FROZEN_CORE FC
MEM_TOTAL 3750
MEM_STATIC 1500
AUX_BASIS_CORR rimp2-def2-QZVPPD
SCF_CONVERGENCE 7
SCF_ALGORITHM  GDM
method DSD-PBEPBE-D3
GEN_SCFMAN TRUE
UNRESTRICTED True
THRESH  14
SYMMETRY FALSE
SYM_IGNORE TRUE
max_scf_cycles 200

XC_GRID 000099000590
BASIS DEF2-QZVPPD


$end










