$molecule
2 1
Au      -0.130908   -1.387945   -1.387944 
Au      -0.130904    1.387945   -1.387944 
Au      -0.130896   -1.387945    1.387945 
Au      -0.130892    1.387945    1.387945 
Au       1.831950   -0.000003   -0.000008 
Au      -2.093750    0.000003    0.000009 
C        3.787390   -0.000005   -0.000016 
O        4.915284    0.000003    0.000002 
$end


$rem
N_FROZEN_CORE FC
MEM_TOTAL 7500
MEM_STATIC 3000
AUX_BASIS_CORR rimp2-def2-QZVPPD
SCF_CONVERGENCE 7
SCF_ALGORITHM  GDM
method DSD-PBEPBE-D3
GEN_SCFMAN TRUE
UNRESTRICTED True
THRESH  14
SYMMETRY FALSE
SYM_IGNORE TRUE
max_scf_cycles 200

XC_GRID 000099000590
BASIS DEF2-QZVPPD


$end










