$molecule
2 1
Cu       1.381027   -0.795410    0.362966 
Cu      -0.000179    1.593048    0.360575 
Cu      -1.381031   -0.795206    0.362763 
Cu       0.000216   -0.002525   -1.606417 
O       -0.000033    0.000093    1.221042 
$end


$rem
N_FROZEN_CORE FC
MEM_TOTAL 3750
MEM_STATIC 1500
AUX_BASIS_CORR rimp2-def2-QZVPPD
SCF_CONVERGENCE 7
SCF_ALGORITHM  GDM
method DSD-PBEPBE-D3
GEN_SCFMAN TRUE
UNRESTRICTED True
THRESH  14
SYMMETRY FALSE
SYM_IGNORE TRUE
max_scf_cycles 200

XC_GRID 000099000590
BASIS DEF2-QZVPPD


$end










