$molecule
1 2
Ag       0.000000    0.000000    1.557053 
Ag       1.348447    0.000000   -0.778526 
Ag      -1.348447    0.000000   -0.778526 
Ag       0.000000   -2.927105    1.557053 
Ag       1.348447   -2.927105   -0.778526 
Ag      -1.348447   -2.927105   -0.778526 
$end


$rem
N_FROZEN_CORE FC
MEM_TOTAL 3750
INTERNAL_STABILITY TRUE
MEM_STATIC 1500
AUX_BASIS_CORR rimp2-def2-QZVPPD
SCF_CONVERGENCE 7
SCF_ALGORITHM  GDM
method DSD-PBEPBE-D3
GEN_SCFMAN TRUE
UNRESTRICTED True
THRESH  14
SYMMETRY FALSE
SYM_IGNORE TRUE
max_scf_cycles 200

XC_GRID 000099000590
BASIS DEF2-QZVPPD


$end










