$molecule
0 2
Au      -0.000000    1.577175    0.000000 
Au       1.365874   -0.788588    0.000000 
Au      -1.365874   -0.788588    0.000000 
Au       0.000000    0.000000    2.257958 
Au       0.000000   -0.000000   -2.257958 
$end


$rem
N_FROZEN_CORE FC
MEM_TOTAL 3750
MEM_STATIC 1500
AUX_BASIS_CORR rimp2-def2-QZVPPD
SCF_CONVERGENCE 7
SCF_ALGORITHM  GDM
method DSD-PBEPBE-D3
GEN_SCFMAN TRUE
UNRESTRICTED True
THRESH  14
SYMMETRY FALSE
SYM_IGNORE TRUE
max_scf_cycles 200

XC_GRID 000099000590
BASIS DEF2-QZVPPD


$end










