$molecule
2 1
Au       0.004619    1.578906    0.000000 
Au       0.004619   -0.795700    1.371043 
Au       0.004619   -0.795700   -1.371043 
Au      -2.244186   -0.004230    0.000000 
Au       2.253549   -0.004181    0.000000 
H       -1.834497    1.651496    0.000000 
$end


$rem
N_FROZEN_CORE FC
MEM_TOTAL 3750
MEM_STATIC 1500
AUX_BASIS_CORR rimp2-def2-QZVPPD
SCF_CONVERGENCE 7
SCF_ALGORITHM  GDM
method DSD-PBEPBE-D3
GEN_SCFMAN TRUE
UNRESTRICTED True
THRESH  14
SYMMETRY FALSE
SYM_IGNORE TRUE
max_scf_cycles 200

XC_GRID 000099000590
BASIS DEF2-QZVPPD


$end










