$molecule
2 2
Cu       0.057840   -0.614926    1.198861 
Cu       0.057840   -0.614926   -1.198861 
Cu       0.057840    1.468739    0.000000 
Cu      -1.992746    0.079104    0.000000 
Cu       2.109831    0.081222    0.000000 
O       -1.053437   -1.447148    0.000000 
$end


$rem
N_FROZEN_CORE FC
MEM_TOTAL 3750
MEM_STATIC 1500
AUX_BASIS_CORR rimp2-def2-QZVPPD
SCF_CONVERGENCE 7
SCF_ALGORITHM  GDM
method DSD-PBEPBE-D3
GEN_SCFMAN TRUE
UNRESTRICTED True
THRESH  14
SYMMETRY FALSE
SYM_IGNORE TRUE
max_scf_cycles 200

XC_GRID 000099000590
BASIS DEF2-QZVPPD


$end










