$molecule
1 2
Au       0.000000    0.000000    1.532866 
Au       1.327501    0.000000   -0.766433 
Au      -1.327501    0.000000   -0.766433 
Au       0.000000   -2.824247    1.532866 
Au       1.327501   -2.824247   -0.766433 
Au      -1.327501   -2.824247   -0.766433 
$end


$rem
N_FROZEN_CORE FC
MEM_TOTAL 3750
MEM_STATIC 1500
AUX_BASIS_CORR rimp2-def2-QZVPPD
SCF_CONVERGENCE 7
SCF_ALGORITHM  GDM
method DSD-PBEPBE-D3
GEN_SCFMAN TRUE
UNRESTRICTED True
THRESH  14
SYMMETRY FALSE
SYM_IGNORE TRUE
max_scf_cycles 200

XC_GRID 000099000590
BASIS DEF2-QZVPPD


$end










