$molecule
2 2
Ag      -1.378531   -0.955954   -0.000000 
Ag      -0.000062    1.431626    0.000000 
Ag       1.378408   -0.955952   -0.000000 
Ag      -0.000062   -0.160094    2.403251 
Ag      -0.000062   -0.160094   -2.403251 
N        0.000829    3.642470    0.000000 
H        0.946375    4.036631    0.000000 
H       -0.468859    4.044029   -0.816716 
H       -0.468859    4.044029    0.816716 
$end


$rem
N_FROZEN_CORE FC
MEM_TOTAL 3750
MEM_STATIC 1500
AUX_BASIS_CORR rimp2-def2-QZVPPD
SCF_CONVERGENCE 7
SCF_ALGORITHM  GDM
method DSD-PBEPBE-D3
GEN_SCFMAN TRUE
UNRESTRICTED True
THRESH  14
SYMMETRY FALSE
SYM_IGNORE TRUE
max_scf_cycles 200

XC_GRID 000099000590
BASIS DEF2-QZVPPD


$end










