$molecule
0 1
C  -0.661894745559  -0.0597097863396  -1.39391048797
C  -1.48620932949  -0.113548397144  -0.144719260058
C  -0.691627713561  0.317536483026  1.08172606266
C  0.691627713561  -0.317536483026  1.08172606266
C  1.48620932949  0.113548397144  -0.144719260058
C  0.661894745559  0.0597097863396  -1.39391048797
H  -1.19027614627  -0.11879777577  -2.3417614574
H  -2.37325472573  0.518104979063  -0.263582029431
H  -1.87128378888  -1.13326884708  -0.00731552308944
H  -1.23554019055  0.0608749738432  1.99496925685
H  -0.583769074229  1.40834223295  1.07459343844
H  1.23554019055  -0.0608749738432  1.99496925685
H  0.583769074229  -1.40834223295  1.07459343844
H  2.37325472573  -0.518104979063  -0.263582029431
H  1.87128378888  1.13326884708  -0.00731552308944
H  1.19027614627  0.11879777577  -2.3417614574
$end


$rem
N_FROZEN_CORE FC
MEM_TOTAL 7500
MEM_STATIC 3000
AUX_BASIS_CORR rimp2-def2-QZVPPD
SCF_CONVERGENCE 7
SCF_ALGORITHM  GDM
method DSD-PBEPBE-D3
GEN_SCFMAN TRUE
UNRESTRICTED True
THRESH  14
SYMMETRY FALSE
SYM_IGNORE TRUE
max_scf_cycles 200

XC_GRID 000099000590
BASIS DEF2-QZVPPD


$end










