$molecule
0 1
C  1.24499916134  0.0  -0.663425809407
C  0.0  0.0  -1.48950112342
C  -1.24499916134  0.0  -0.663425809407
C  -1.24499916134  0.0  0.663425809407
C  0.0  0.0  1.48950112342
C  1.24499916134  0.0  0.663425809407
H  2.19097476668  0.0  -1.19755624822
H  0.0  0.868141917367  -2.16415289112
H  0.0  -0.868141917367  -2.16415289112
H  -2.19097476668  0.0  -1.19755624822
H  -2.19097476668  0.0  1.19755624822
H  0.0  -0.868141917367  2.16415289112
H  0.0  0.868141917367  2.16415289112
H  2.19097476668  0.0  1.19755624822
$end


$rem
N_FROZEN_CORE FC
MEM_TOTAL 7500
MEM_STATIC 3000
AUX_BASIS_CORR rimp2-def2-QZVPPD
SCF_CONVERGENCE 7
SCF_ALGORITHM  GDM
method DSD-PBEPBE-D3
GEN_SCFMAN TRUE
UNRESTRICTED True
THRESH  14
SYMMETRY FALSE
SYM_IGNORE TRUE
max_scf_cycles 200

XC_GRID 000099000590
BASIS DEF2-QZVPPD


$end










