$molecule
0 1
C  0.0  -1.17162727614  0.190641376158
C  0.0  -0.729927537231  -1.07677700321
C  0.0  0.729927537231  -1.07677700321
C  0.0  1.17162727614  0.190641376158
C  0.0  0.0  1.115789966
H  0.0  -2.20239405419  0.517286932562
H  0.0  -1.3455145682  -1.96712173719
H  0.0  1.3455145682  -1.96712173719
H  0.0  2.20239405419  0.517286932562
H  -0.87580408393  0.0  1.77807544869
H  0.87580408393  0.0  1.77807544869
$end


$rem
N_FROZEN_CORE FC
MEM_TOTAL 3750
MEM_STATIC 1500
AUX_BASIS_CORR rimp2-def2-QZVPPD
SCF_CONVERGENCE 7
SCF_ALGORITHM  GDM
method DSD-PBEPBE-D3
GEN_SCFMAN TRUE
UNRESTRICTED True
THRESH  14
SYMMETRY FALSE
SYM_IGNORE TRUE
max_scf_cycles 200

XC_GRID 000099000590
BASIS DEF2-QZVPPD


$end










