$molecule
0 1
C  0.0  1.27276581296  0.241143060903
C  -1.2279438081  0.663666966781  0.869592503589
C  -1.2279438081  -0.663666966781  0.869592503589
C  0.0  -1.27276581296  0.241143060903
C  0.0  0.767961811186  -1.23860978419
C  0.0  -0.767961811186  -1.23860978419
C  1.2279438081  0.663666966781  0.869592503589
C  1.2279438081  -0.663666966781  0.869592503589
H  0.0  2.36163402523  0.28107599611
H  -2.040009533  1.27863467246  1.23874618883
H  -2.040009533  -1.27863467246  1.23874618883
H  0.0  -2.36163402523  0.28107599611
H  0.880905886118  1.1614473835  -1.75014332883
H  -0.880905886118  1.1614473835  -1.75014332883
H  0.880905886118  -1.1614473835  -1.75014332883
H  -0.880905886118  -1.1614473835  -1.75014332883
H  2.040009533  1.27863467246  1.23874618883
H  2.040009533  -1.27863467246  1.23874618883
$end


$rem
N_FROZEN_CORE FC
MEM_TOTAL 15000
MEM_STATIC 6000
AUX_BASIS_CORR rimp2-def2-QZVPPD
SCF_CONVERGENCE 7
SCF_ALGORITHM  GDM
method DSD-PBEPBE-D3
GEN_SCFMAN TRUE
UNRESTRICTED True
THRESH  14
SYMMETRY FALSE
SYM_IGNORE TRUE
max_scf_cycles 200

XC_GRID 000099000590
BASIS DEF2-QZVPPD


$end










