$molecule
0 1
C  0.0  -1.11492279814  -0.212542292808
C  1.23315437663  -0.664009719368  0.576495801912
C  1.23315437663  0.664009719368  0.576495801912
C  0.0  1.11492279814  -0.212542292808
C  0.0  0.0  -1.28513215888
C  -1.23315437663  -0.664009719368  0.576495801912
C  -1.23315437663  0.664009719368  0.576495801912
H  0.0  -2.14861239304  -0.553540659705
H  1.9213243  -1.32975429281  1.0792874495
H  1.9213243  1.32975429281  1.0792874495
H  0.0  2.14861239304  -0.553540659705
H  -0.900303963931  0.0  -1.90291747088
H  0.900303963931  0.0  -1.90291747088
H  -1.9213243  -1.32975429281  1.0792874495
H  -1.9213243  1.32975429281  1.0792874495
$end


$rem
N_FROZEN_CORE FC
MEM_TOTAL 7500
MEM_STATIC 3000
AUX_BASIS_CORR rimp2-def2-QZVPPD
SCF_CONVERGENCE 7
SCF_ALGORITHM  GDM
method DSD-PBEPBE-D3
GEN_SCFMAN TRUE
UNRESTRICTED True
THRESH  14
SYMMETRY FALSE
SYM_IGNORE TRUE
max_scf_cycles 200

XC_GRID 000099000590
BASIS DEF2-QZVPPD


$end










