$molecule
0 1
C  0.822368471819  0.0456739564588  -1.12376963764
C  -0.514965971216  0.77309410404  -0.764331481847
C  -0.514965971216  0.77309410404  0.764331481847
C  0.822368471819  0.0456739564588  1.12376963764
C  0.67473534267  -1.38704801368  -0.666443167752
C  0.67473534267  -1.38704801368  0.666443167752
C  1.70910478779  0.602825408396  0.0
C  -1.76441466391  0.0225269943107  -1.14159381875
C  -1.76441466391  0.0225269943107  1.14159381875
O  -2.4321214675  -0.365872910064  0.0
O  -2.18347109057  -0.239252504937  2.22081201213
O  -2.18347109057  -0.239252504937  -2.22081201213
H  1.14107906771  0.200006320823  -2.1519791161
H  -0.547707902809  1.76567959296  -1.21621654524
H  -0.547707902809  1.76567959296  1.21621654524
H  1.14107906771  0.200006320823  2.1519791161
H  0.490204066475  -2.22773178325  -1.32217142603
H  0.490204066475  -2.22773178325  1.32217142603
H  1.7800863584  1.69410516252  0.0
H  2.70727568098  0.163045005675  0.0
$end


$rem
N_FROZEN_CORE FC
MEM_TOTAL 30000
MEM_STATIC 8000
AUX_BASIS_CORR rimp2-def2-QZVPPD
SCF_CONVERGENCE 7
SCF_ALGORITHM  GDM
method DSD-PBEPBE-D3
GEN_SCFMAN TRUE
UNRESTRICTED True
THRESH  14
SYMMETRY FALSE
SYM_IGNORE TRUE
max_scf_cycles 200

XC_GRID 000099000590
BASIS DEF2-QZVPPD


$end










