$molecule
0 1
C  1.07493540962  0.146988454548  -1.06208492526
C  -0.284734779436  0.876395965842  -0.761181744609
C  -0.284734779436  0.876395965842  0.761181744609
C  1.07493540962  0.146988454548  1.06208492526
C  0.904267712493  -1.30155343654  -0.664535999871
C  0.904267712493  -1.30155343654  0.664535999871
O  1.86195221956  0.665132812967  0.0
C  -1.52705297866  0.118262597188  -1.14136186264
C  -1.52705297866  0.118262597188  1.14136186264
O  -2.18546317776  -0.287890969056  0.0
O  -1.94474064634  -0.139933436241  2.22171067034
O  -1.94474064634  -0.139933436241  -2.22171067034
H  1.51270442904  0.369552829102  -2.03079940198
H  -0.291672540065  1.86403420262  -1.22051042371
H  -0.291672540065  1.86403420262  1.22051042371
H  1.51270442904  0.369552829102  2.03079940198
H  0.718048872446  -2.12236809847  -1.34224086402
H  0.718048872446  -2.12236809847  1.34224086402
$end


$rem
N_FROZEN_CORE FC
MEM_TOTAL 15000
MEM_STATIC 6000
AUX_BASIS_CORR rimp2-def2-QZVPPD
SCF_CONVERGENCE 7
SCF_ALGORITHM  GDM
method DSD-PBEPBE-D3
GEN_SCFMAN TRUE
UNRESTRICTED True
THRESH  14
SYMMETRY FALSE
SYM_IGNORE TRUE
max_scf_cycles 200

XC_GRID 000099000590
BASIS DEF2-QZVPPD


$end










