$molecule
0 1
C    -1.1988024    0.6921286    0.0000000 
C    -1.1988024   -0.6921286    0.0000000 
C     0.0000000   -1.3842539    0.0000000 
C     1.1988024   -0.6921286    0.0000000 
C     1.1988024    0.6921286    0.0000000 
C     0.0000000    1.3842539    0.0000000 
H    -2.1331549   -1.2315778    0.0000000 
H     0.0000000   -2.4631518    0.0000000 
H     2.1331549   -1.2315778    0.0000000 
H     2.1331549    1.2315778    0.0000000 
H     0.0000000    2.4631518    0.0000000 
H    -2.1331549    1.2315778    0.0000000 
$end


$rem
N_FROZEN_CORE FC
MEM_TOTAL 3750
MEM_STATIC 1500
AUX_BASIS_CORR rimp2-def2-QZVPPD
SCF_CONVERGENCE 7
SCF_ALGORITHM  GDM
method DSD-PBEPBE-D3
GEN_SCFMAN TRUE
UNRESTRICTED True
THRESH  14
SYMMETRY FALSE
SYM_IGNORE TRUE
max_scf_cycles 200

XC_GRID 000099000590
BASIS DEF2-QZVPPD


$end










