$molecule
0 1
C     1.9665666    0.0000000   -0.6998649 
C     1.1780212    1.1800989   -1.1195820 
C     0.0000000    0.7198623   -1.8110851 
C     0.0000000   -0.7198623   -1.8110851 
C     1.1780212   -1.1800989   -1.1195820 
C    -1.1780212    1.1800989   -1.1195820 
C    -1.9665666    0.0000000   -0.6998649 
C    -1.1780212   -1.1800989   -1.1195820 
C    -0.7637258    1.9514898    0.0000000 
C    -1.1780212    1.1800989    1.1195820 
C    -1.9665666    0.0000000    0.6998649 
C    -0.7637258   -1.9514898    0.0000000 
C    -1.1780212   -1.1800989    1.1195820 
C     0.0000000   -0.7198623    1.8110851 
C     0.0000000    0.7198623    1.8110851 
C     0.7637258    1.9514898    0.0000000 
C     1.1780212    1.1800989    1.1195820 
C     0.7637258   -1.9514898    0.0000000 
C     1.1780212   -1.1800989    1.1195820 
C     1.9665666    0.0000000    0.6998649 
$end


$rem
N_FROZEN_CORE FC
MEM_TOTAL 60000
MEM_STATIC 8000
AUX_BASIS_CORR rimp2-def2-QZVPPD
SCF_CONVERGENCE 7
SCF_ALGORITHM  GDM
method DSD-PBEPBE-D3
GEN_SCFMAN TRUE
UNRESTRICTED True
THRESH  14
SYMMETRY FALSE
SYM_IGNORE TRUE
max_scf_cycles 200

XC_GRID 000099000590
BASIS DEF2-QZVPPD


$end










