$molecule
0 1
O    -0.3731390   -1.6064389    0.0000000 
O     0.0407518   -0.8553721    1.1331736 
O     0.0407518   -0.8553721   -1.1331736 
C     0.0407518    0.4367224    0.6601088 
C     0.0407518    0.4367224   -0.6601088 
H     0.1050658    1.2218691    1.3905295 
H     0.1050658    1.2218691   -1.3905295 
$end


$rem
N_FROZEN_CORE FC
MEM_TOTAL 3750
MEM_STATIC 1500
AUX_BASIS_CORR rimp2-def2-QZVPPD
SCF_CONVERGENCE 7
SCF_ALGORITHM  GDM
method DSD-PBEPBE-D3
GEN_SCFMAN TRUE
UNRESTRICTED True
THRESH  14
SYMMETRY FALSE
SYM_IGNORE TRUE
max_scf_cycles 200

XC_GRID 000099000590
BASIS DEF2-QZVPPD


$end










