$molecule
0 1
O    -1.8507645    3.2056181    0.0000000 
C    -1.2533914    2.1709376    0.0000000 
C    -1.2139101    0.7146014    0.0000000 
C    -1.2139101   -0.7146014    0.0000000 
C    -1.2533914   -2.1709376    0.0000000 
O    -1.8507645   -3.2056181    0.0000000 
C    -0.0119079   -1.4085777    0.0000000 
C     1.2258181   -0.6939763    0.0000000 
C     2.5067828    0.0000000    0.0000000 
O     3.7015289    0.0000000    0.0000000 
C     1.2258181    0.6939763    0.0000000 
C    -0.0119079    1.4085777    0.0000000 
$end


$rem
N_FROZEN_CORE FC
MEM_TOTAL 7500
MEM_STATIC 3000
AUX_BASIS_CORR rimp2-def2-QZVPPD
SCF_CONVERGENCE 7
SCF_ALGORITHM  GDM
method DSD-PBEPBE-D3
GEN_SCFMAN TRUE
UNRESTRICTED True
THRESH  14
SYMMETRY FALSE
SYM_IGNORE TRUE
max_scf_cycles 200

XC_GRID 000099000590
BASIS DEF2-QZVPPD


$end










