$molecule
0 1
C    -0.7896879    0.7896879   -0.0934025 
C    -0.7896879   -0.7896879    0.0934025 
C     0.7896879   -0.7896879   -0.0934025 
C     0.7896879    0.7896879    0.0934025 
C    -1.6075822    1.6075822    0.9194274 
C    -1.2469837    1.2469837   -1.4910651 
C    -1.2469837   -1.2469837    1.4910651 
C    -1.6075822   -1.6075822   -0.9194274 
C     1.2469837   -1.2469837   -1.4910651 
C     1.6075822   -1.6075822    0.9194274 
C     1.2469837    1.2469837    1.4910651 
C     1.6075822    1.6075822   -0.9194274 
H    -1.3672705    1.3672705    1.9553787 
H    -1.4269269    2.6778795    0.7693540 
H    -2.6778795    1.4269269    0.7693540 
H    -0.7317362    0.7317362   -2.3016732 
H    -2.3204607    1.0676081   -1.6085856 
H    -1.0676081    2.3204607   -1.6085856 
H    -0.7317362   -0.7317362    2.3016732 
H    -2.3204607   -1.0676081    1.6085856 
H    -1.0676081   -2.3204607    1.6085856 
H    -1.3672705   -1.3672705   -1.9553787 
H    -1.4269269   -2.6778795   -0.7693540 
H    -2.6778795   -1.4269269   -0.7693540 
H     0.7317362   -0.7317362   -2.3016732 
H     2.3204607   -1.0676081   -1.6085856 
H     1.0676081   -2.3204607   -1.6085856 
H     1.3672705   -1.3672705    1.9553787 
H     1.4269269   -2.6778795    0.7693540 
H     2.6778795   -1.4269269    0.7693540 
H     0.7317362    0.7317362    2.3016732 
H     2.3204607    1.0676081    1.6085856 
H     1.0676081    2.3204607    1.6085856 
H     1.3672705    1.3672705   -1.9553787 
H     1.4269269    2.6778795   -0.7693540 
H     2.6778795    1.4269269   -0.7693540 
$end


$rem
N_FROZEN_CORE FC
MEM_TOTAL 60000
MEM_STATIC 8000
AUX_BASIS_CORR rimp2-def2-QZVPPD
SCF_CONVERGENCE 7
SCF_ALGORITHM  GDM
method DSD-PBEPBE-D3
GEN_SCFMAN TRUE
UNRESTRICTED True
THRESH  14
SYMMETRY FALSE
SYM_IGNORE TRUE
max_scf_cycles 200

XC_GRID 000099000590
BASIS DEF2-QZVPPD


$end










