$molecule
0 1
N     0.0000000    0.0000000   -1.8849400 
N     0.0000000    0.0000000   -0.7510000 
C     0.0000000    0.0000000    0.5411838 
H    -0.9508515    0.0000000    1.0473781 
H     0.9508515    0.0000000    1.0473781 
$end


$rem
N_FROZEN_CORE FC
MEM_TOTAL 3750
MEM_STATIC 1500
AUX_BASIS_CORR rimp2-def2-QZVPPD
SCF_CONVERGENCE 7
SCF_ALGORITHM  GDM
method DSD-PBEPBE-D3
GEN_SCFMAN TRUE
UNRESTRICTED True
THRESH  14
SYMMETRY FALSE
SYM_IGNORE TRUE
max_scf_cycles 200

XC_GRID 000099000590
BASIS DEF2-QZVPPD


$end










