$molecule
0 1
C    -1.1934517   -0.6890397   -0.3523943 
C    -0.7530970   -0.4348008   -1.7875032 
C     0.0000000    0.8696015   -1.7875032 
C     0.0000000    1.3780793   -0.3523943 
C    -1.1934517    0.6890397    0.3523943 
C     0.0000000   -1.3780793    0.3523943 
C     1.1934517   -0.6890397   -0.3523943 
C     0.7530970   -0.4348008   -1.7875032 
C     0.0000000   -0.8696015    1.7875032 
C    -0.7530970    0.4348008    1.7875032 
C     1.1934517    0.6890397    0.3523943 
C     0.7530970    0.4348008    1.7875032 
H    -2.1342244   -1.2321951   -0.2501843 
H    -1.3267714   -0.7660118   -2.6440116 
H     0.0000000    1.5320236   -2.6440116 
H     0.0000000    2.4643901   -0.2501843 
H    -2.1342244    1.2321951    0.2501843 
H     0.0000000   -2.4643901    0.2501843 
H     2.1342244   -1.2321951   -0.2501843 
H     1.3267714   -0.7660118   -2.6440116 
H     0.0000000   -1.5320236    2.6440116 
H    -1.3267714    0.7660118    2.6440116 
H     2.1342244    1.2321951    0.2501843 
H     1.3267714    0.7660118    2.6440116 
$end


$rem
N_FROZEN_CORE FC
MEM_TOTAL 30000
MEM_STATIC 8000
AUX_BASIS_CORR rimp2-def2-QZVPPD
SCF_CONVERGENCE 7
SCF_ALGORITHM  GDM
method DSD-PBEPBE-D3
GEN_SCFMAN TRUE
UNRESTRICTED True
THRESH  14
SYMMETRY FALSE
SYM_IGNORE TRUE
max_scf_cycles 200

XC_GRID 000099000590
BASIS DEF2-QZVPPD


$end










