$molecule
0 1
C     0.0000000    0.0000000   -0.6741358 
C     0.0000000    0.0000000    0.6741358 
C     1.2507238   -0.0248223   -1.5297833 
C    -1.2507238    0.0248223   -1.5297833 
C     1.2507238    0.0248223    1.5297833 
C    -1.2507238   -0.0248223    1.5297833 
H     2.1705012   -0.1993591   -0.9722999 
H     1.3561741    0.9189978   -2.0821230 
H     1.1637508   -0.8163732   -2.2856755 
H    -2.1705012    0.1993591   -0.9722999 
H    -1.1637508    0.8163732   -2.2856755 
H    -1.3561741   -0.9189978   -2.0821230 
H     2.1705012    0.1993591    0.9722999 
H     1.3561741   -0.9189978    2.0821230 
H     1.1637508    0.8163732    2.2856755 
H    -2.1705012   -0.1993591    0.9722999 
H    -1.1637508   -0.8163732    2.2856755 
H    -1.3561741    0.9189978    2.0821230 
$end


$rem
N_FROZEN_CORE FC
MEM_TOTAL 7500
MEM_STATIC 3000
AUX_BASIS_CORR rimp2-def2-QZVPPD
SCF_CONVERGENCE 7
SCF_ALGORITHM  GDM
method DSD-PBEPBE-D3
GEN_SCFMAN TRUE
UNRESTRICTED True
THRESH  14
SYMMETRY FALSE
SYM_IGNORE TRUE
max_scf_cycles 200

XC_GRID 000099000590
BASIS DEF2-QZVPPD


$end










