$molecule
0 1
C    -1.2045878    0.6954665    0.0000000 
C    -1.2045878   -0.6954666    0.0000000 
C    -0.0000000   -1.3909631    0.0000000 
C     1.2045879   -0.6954665    0.0000000 
C     1.2045880    0.6954665    0.0000000 
C    -0.0000000    1.3909631    0.0000000 
Cl   -2.6827211   -1.5488874    0.0000000 
Cl   -0.0000000   -3.0976517    0.0000000 
Cl    2.6827211   -1.5488876    0.0000000 
Cl    2.6827212    1.5488875    0.0000000 
Cl   -0.0000003    3.0976517    0.0000000 
Cl   -2.6827210    1.5488875    0.0000000 
$end


$rem
N_FROZEN_CORE FC
MEM_TOTAL 15000
MEM_STATIC 6000
AUX_BASIS_CORR rimp2-def2-QZVPPD
SCF_CONVERGENCE 7
SCF_ALGORITHM  GDM
method DSD-PBEPBE-D3
GEN_SCFMAN TRUE
UNRESTRICTED True
THRESH  14
SYMMETRY FALSE
SYM_IGNORE TRUE
max_scf_cycles 200

XC_GRID 000099000590
BASIS DEF2-QZVPPD


$end










