$molecule
0 1
C     0.0000000    1.1955475    0.1591536 
C     0.0000000    0.0000000   -0.8095231 
C     0.0000000   -1.1955475    0.1591536 
N     0.0000000   -0.6147607    1.5357795 
N     0.0000000    0.6147607    1.5357795 
H    -0.8790141    1.8382622    0.0805604 
H     0.8790141    1.8382622    0.0805604 
H    -0.8801214    0.0000000   -1.4512923 
H     0.8801214    0.0000000   -1.4512923 
H     0.8790141   -1.8382622    0.0805604 
H    -0.8790141   -1.8382622    0.0805604 
$end


$rem
N_FROZEN_CORE FC
MEM_TOTAL 3750
MEM_STATIC 1500
AUX_BASIS_CORR rimp2-def2-QZVPPD
SCF_CONVERGENCE 7
SCF_ALGORITHM  GDM
method DSD-PBEPBE-D3
GEN_SCFMAN TRUE
UNRESTRICTED True
THRESH  14
SYMMETRY FALSE
SYM_IGNORE TRUE
max_scf_cycles 200

XC_GRID 000099000590
BASIS DEF2-QZVPPD


$end










