$molecule
0 1
O    -0.0177338    2.6610455    0.0000000 
C     0.0404497    1.4394660    0.0000000 
C     1.2397591    0.6245600    0.0000000 
C     1.1801637   -0.7350108    0.0000000 
C    -0.0655982   -1.4250383    0.0000000 
C    -1.2053116   -0.6857515    0.0000000 
N    -1.1450088    0.6749887    0.0000000 
H     2.1801697    1.1583225    0.0000000 
H     2.0990321   -1.3107371    0.0000000 
H    -0.1136487   -2.5038375    0.0000000 
H    -2.1965269   -1.1195528    0.0000000 
H    -1.9957462    1.2215452    0.0000000 
$end


$rem
N_FROZEN_CORE FC
MEM_TOTAL 3750
MEM_STATIC 1500
AUX_BASIS_CORR rimp2-def2-QZVPPD
SCF_CONVERGENCE 7
SCF_ALGORITHM  GDM
method DSD-PBEPBE-D3
GEN_SCFMAN TRUE
UNRESTRICTED True
THRESH  14
SYMMETRY FALSE
SYM_IGNORE TRUE
max_scf_cycles 200

XC_GRID 000099000590
BASIS DEF2-QZVPPD


$end










