$molecule
0 1
O    -1.7466451    3.0252781    0.0000000 
C    -1.1412410    1.9766874    0.0000000 
C    -1.6814208    0.6129483    0.0000000 
C    -1.6814208   -0.6129483    0.0000000 
C    -1.1412410   -1.9766874    0.0000000 
O    -1.7466451   -3.0252781    0.0000000 
C     0.3098816   -1.7626273    0.0000000 
C     1.3715392   -1.1496790    0.0000000 
C     2.2824820    0.0000000    0.0000000 
O     3.4932902    0.0000000    0.0000000 
C     1.3715392    1.1496790    0.0000000 
C     0.3098816    1.7626273    0.0000000 
$end


$rem
N_FROZEN_CORE FC
MEM_TOTAL 7500
MEM_STATIC 3000
AUX_BASIS_CORR rimp2-def2-QZVPPD
SCF_CONVERGENCE 7
SCF_ALGORITHM  GDM
method DSD-PBEPBE-D3
GEN_SCFMAN TRUE
UNRESTRICTED True
THRESH  14
SYMMETRY FALSE
SYM_IGNORE TRUE
max_scf_cycles 200

XC_GRID 000099000590
BASIS DEF2-QZVPPD


$end










