$molecule
0 1
O    -0.6015578   -1.6259005    0.0000000 
O     0.0716080   -1.0609447    1.0901036 
O     0.0716080   -1.0609447   -1.0901036 
C     0.0716080    0.3180538    0.7706417 
C     0.0716080    0.3180538   -0.7706417 
H    -0.8151927    0.8154326    1.1676606 
H    -0.8151927    0.8154326   -1.1676606 
H     0.9727557    0.7404086    1.2093856 
H     0.9727557    0.7404086   -1.2093856 
$end


$rem
N_FROZEN_CORE FC
MEM_TOTAL 3750
MEM_STATIC 1500
AUX_BASIS_CORR rimp2-def2-QZVPPD
SCF_CONVERGENCE 7
SCF_ALGORITHM  GDM
method DSD-PBEPBE-D3
GEN_SCFMAN TRUE
UNRESTRICTED True
THRESH  14
SYMMETRY FALSE
SYM_IGNORE TRUE
max_scf_cycles 200

XC_GRID 000099000590
BASIS DEF2-QZVPPD


$end










