$molecule
0 1
C     3.1468549    0.6254851   -0.2401423 
C     2.0780896    1.5098205    0.0099138 
C     0.9793910    0.7115692    0.4703707 
C     0.9793910   -0.7115692    0.4703707 
C     2.0780896   -1.5098205    0.0099138 
C     3.1468549   -0.6254851   -0.2401423 
C    -0.3740941   -1.1513431    0.4703707 
C    -1.2105938    0.0000000    0.4703707 
C    -0.3740941    1.1513431    0.4703707 
C     1.5673033    2.7995514   -0.2401423 
C     0.3775600    3.1861224   -0.2401423 
C    -0.7937596    2.4429408    0.0099138 
C     1.5673033   -2.7995514   -0.2401423 
C     0.3775600   -3.1861224   -0.2401423 
C    -0.7937596   -2.4429408    0.0099138 
C    -2.1782082   -2.3557030   -0.2401423 
C    -2.9135100   -1.3436469   -0.2401423 
C    -2.5686600    0.0000000    0.0099138 
C    -2.9135100    1.3436469   -0.2401423 
C    -2.1782082    2.3557030   -0.2401423 
$end


$rem
N_FROZEN_CORE FC
MEM_TOTAL 30000
MEM_STATIC 8000
AUX_BASIS_CORR rimp2-def2-QZVPPD
SCF_CONVERGENCE 7
SCF_ALGORITHM  GDM
method DSD-PBEPBE-D3
GEN_SCFMAN TRUE
UNRESTRICTED True
THRESH  14
SYMMETRY FALSE
SYM_IGNORE TRUE
max_scf_cycles 200

XC_GRID 000099000590
BASIS DEF2-QZVPPD


$end










