$molecule
0 1
O       1.5317500000     0.0059220000    -0.1208800000
H       0.5759680000    -0.0052490000     0.0249660000
H       1.9062490000    -0.0375610000     0.7632180000
O      -1.3962260000    -0.0049900000     0.1067660000
H      -1.7893720000    -0.7422830000    -0.3710090000
H      -1.7770370000     0.7776380000    -0.3042640000
$end


$rem
N_FROZEN_CORE FC
MEM_TOTAL 3750
MEM_STATIC 1500
AUX_BASIS_CORR rimp2-def2-QZVPPD
SCF_CONVERGENCE 7
SCF_ALGORITHM  GDM
method DSD-PBEPBE-D3
GEN_SCFMAN TRUE
UNRESTRICTED True
THRESH  14
SYMMETRY FALSE
SYM_IGNORE TRUE
max_scf_cycles 200

XC_GRID 000099000590
BASIS AUG-PC-3


$end





$multipole_field
X 0.0
Y 0.0
Z 0.0001
$end




