$molecule
0 1
 P         0.0000000000    0.0000000000    0.3836000000
 O         0.0000000000    0.0000000000   -1.1042000000
 H         0.0000000000    1.2521000000    1.0264000000
 H        -1.0844000000   -0.6261000000    1.0264000000
 H         1.0844000000   -0.6261000000    1.0264000000
$end


$rem
N_FROZEN_CORE FC
MEM_TOTAL 3750
MEM_STATIC 1500
AUX_BASIS_CORR rimp2-def2-QZVPPD
SCF_CONVERGENCE 7
SCF_ALGORITHM  GDM
method DSD-PBEPBE-D3
GEN_SCFMAN TRUE
UNRESTRICTED True
THRESH  14
SYMMETRY FALSE
SYM_IGNORE TRUE
max_scf_cycles 200

XC_GRID 000099000590
BASIS AUG-PC-3


$end





$multipole_field
X 0.0
Y 0.0
Z -0.0001
$end




