$molecule
0 1
         N       0.7505020558    -0.1263257432    -0.0000000014
         H       1.1371866572     0.3468207227    -0.8058999300
         H       1.1371866572     0.3468207227     0.8058999300
         C      -0.7051562913     0.0180439780    -0.0000000014
         H      -1.1126045962    -0.4830900647     0.8751002462
         H      -1.1126045962    -0.4830900647    -0.8751002462
         H      -1.0717407540     1.0485550259     0.0000000000
$end


$rem
N_FROZEN_CORE FC
MEM_TOTAL 3750
MEM_STATIC 1500
AUX_BASIS_CORR rimp2-def2-QZVPPD
SCF_CONVERGENCE 7
SCF_ALGORITHM  GDM
method DSD-PBEPBE-D3
GEN_SCFMAN TRUE
UNRESTRICTED True
THRESH  14
SYMMETRY FALSE
SYM_IGNORE TRUE
max_scf_cycles 200

XC_GRID 000099000590
BASIS AUG-PC-3


$end





$multipole_field
X -0.0001
Y 0.0
Z 0.0
$end




