$molecule
0 2
        C        -0.0118000000   -0.6932000000    0.0000000000
        C        -0.0118000000    0.7930000000    0.0000000000
        H         1.0059000000   -1.0974000000    0.0000000000
        H        -0.5089000000   -1.0936000000    0.8816000000
        H        -0.5089000000   -1.0936000000   -0.8816000000
        H         0.0769000000    1.3430000000   -0.9217000000
       H         0.0769000000    1.3430000000    0.9217000000
$end


$rem
N_FROZEN_CORE FC
MEM_TOTAL 3750
MEM_STATIC 1500
AUX_BASIS_CORR rimp2-def2-QZVPPD
SCF_CONVERGENCE 7
SCF_ALGORITHM  GDM
method DSD-PBEPBE-D3
GEN_SCFMAN TRUE
UNRESTRICTED True
THRESH  14
SYMMETRY FALSE
SYM_IGNORE TRUE
max_scf_cycles 200

XC_GRID 000099000590
BASIS AUG-PC-3


$end





$multipole_field
X -0.0001
Y 0.0
Z 0.0
$end




