$molecule
0 1
       P       0.0000000000     0.0000000000     0.0000000000
         H       0.0000000000     0.0000000000     1.4183490000
         C       1.6600864825     0.0000000000    -0.2063414550
         H       2.3794407562     0.0000000000     0.6006795204
          H       2.0634774886     0.0000000000    -1.2113161293
$end


$rem
N_FROZEN_CORE FC
MEM_TOTAL 3750
MEM_STATIC 1500
AUX_BASIS_CORR rimp2-def2-QZVPPD
SCF_CONVERGENCE 7
SCF_ALGORITHM  GDM
method DSD-PBEPBE-D3
GEN_SCFMAN TRUE
UNRESTRICTED True
THRESH  14
SYMMETRY FALSE
SYM_IGNORE TRUE
max_scf_cycles 200

XC_GRID 000099000590
BASIS AUG-PC-3


$end





$multipole_field
X 0.0001
Y 0.0
Z 0.0
$end




