$molecule
0 1
N      -1.3955910000    -0.0215640000     0.0000370000
H      -1.6298110000     0.9610960000    -0.1062240000
H      -1.8627670000    -0.5125440000    -0.7559740000
H      -1.8335470000    -0.3307700000     0.8623070000
O       1.5685010000     0.1058920000     0.0000050000
H       0.6067360000    -0.0339620000    -0.0006280000
H       1.9405190000    -0.7800050000     0.0002220000
$end


$rem
N_FROZEN_CORE FC
MEM_TOTAL 3750
MEM_STATIC 1500
AUX_BASIS_CORR rimp2-def2-QZVPPD
SCF_CONVERGENCE 7
SCF_ALGORITHM  GDM
method DSD-PBEPBE-D3
GEN_SCFMAN TRUE
UNRESTRICTED True
THRESH  14
SYMMETRY FALSE
SYM_IGNORE TRUE
max_scf_cycles 200

XC_GRID 000099000590
BASIS AUG-PC-3


$end





$multipole_field
X 0.0001
Y 0.0
Z 0.0
$end




