$molecule
0 2
Al      0.0000000000     0.0000000000     0.0000000000
O       0.0000000000     0.0000000000     2.2121152736
H       0.8085587428     0.0000000000     2.7305871659
H      -0.6888860400     0.4233240654     2.7305871659
$end


$rem
N_FROZEN_CORE FC
MEM_TOTAL 3750
MEM_STATIC 1500
AUX_BASIS_CORR rimp2-def2-QZVPPD
SCF_CONVERGENCE 7
SCF_ALGORITHM  GDM
method DSD-PBEPBE-D3
GEN_SCFMAN TRUE
UNRESTRICTED True
THRESH  14
SYMMETRY FALSE
SYM_IGNORE TRUE
max_scf_cycles 200

XC_GRID 000099000590
BASIS AUG-PC-3


$end





$multipole_field
X 0.0
Y 0.0
Z -0.0001
$end




