$molecule
0 1
B     0.0000  0.0000  -0.9223
N     0.0000  0.0000  0.7230
H     0.0000  -1.1647 -1.2344
H     -1.0087 0.5824  -1.2344
H     1.0087  0.5824  -1.2344
H     0.0000  0.9432  1.0845
H     -0.8168 -0.4716 1.0845
H     0.8168  -0.4716 1.0845
$end


$rem
N_FROZEN_CORE FC
MEM_TOTAL 3750
MEM_STATIC 1500
AUX_BASIS_CORR rimp2-def2-QZVPPD
SCF_CONVERGENCE 7
SCF_ALGORITHM  GDM
method DSD-PBEPBE-D3
GEN_SCFMAN TRUE
UNRESTRICTED True
THRESH  14
SYMMETRY FALSE
SYM_IGNORE TRUE
max_scf_cycles 200

XC_GRID 000099000590
BASIS AUG-PC-3


$end





$multipole_field
X 0.0
Y 0.0
Z 0.0001
$end




