$molecule
0 1
        P         0.0382000000   -0.5722000000    0.0000000000
        O         0.0382000000    1.0955000000    0.0000000000
        H         0.9528000000    1.3882000000    0.0000000000
        H        -0.9154000000   -0.7852000000    1.0223000000
        H        -0.9154000000   -0.7852000000   -1.0223000000
$end


$rem
N_FROZEN_CORE FC
MEM_TOTAL 3750
MEM_STATIC 1500
AUX_BASIS_CORR rimp2-def2-QZVPPD
SCF_CONVERGENCE 7
SCF_ALGORITHM  GDM
method DSD-PBEPBE-D3
GEN_SCFMAN TRUE
UNRESTRICTED True
THRESH  14
SYMMETRY FALSE
SYM_IGNORE TRUE
max_scf_cycles 200

XC_GRID 000099000590
BASIS AUG-PC-3


$end





$multipole_field
X -0.0001
Y 0.0
Z 0.0
$end




