$molecule
0 1
        O        -1.0879000000   -0.4523000000    0.0000000000
        N         0.0000000000    0.0315000000    0.0000000000
        C         1.1369000000    0.3774000000    0.0000000000
        H         1.8819000000    1.1338000000    0.0000000000
$end


$rem
N_FROZEN_CORE FC
MEM_TOTAL 3750
MEM_STATIC 1500
AUX_BASIS_CORR rimp2-def2-QZVPPD
SCF_CONVERGENCE 7
SCF_ALGORITHM  GDM
method DSD-PBEPBE-D3
GEN_SCFMAN TRUE
UNRESTRICTED True
THRESH  14
SYMMETRY FALSE
SYM_IGNORE TRUE
max_scf_cycles 200

XC_GRID 000099000590
BASIS AUG-PC-3


$end





$multipole_field
X 0.0
Y 0.0001
Z 0.0
$end




