$molecule
0 2
F       0.0000000000     0.0000000000     0.0000000000
O       0.0000000000     0.0000000000     2.1064817995
H       0.9590607442     0.0000000000     2.0393169967
H      -0.2509764274     0.9256394244     2.0393169967
$end


$rem
N_FROZEN_CORE FC
MEM_TOTAL 3750
MEM_STATIC 1500
AUX_BASIS_CORR rimp2-def2-QZVPPD
SCF_CONVERGENCE 7
SCF_ALGORITHM  GDM
method DSD-PBEPBE-D3
GEN_SCFMAN TRUE
UNRESTRICTED True
THRESH  14
SYMMETRY FALSE
SYM_IGNORE TRUE
max_scf_cycles 200

XC_GRID 000099000590
BASIS AUG-PC-3


$end





$multipole_field
X 0.0
Y -0.0001
Z 0.0
$end




