$molecule
0   1
S         -2.030996    0.103233   -0.000782
H         -1.934020   -0.818462    0.969676
H         -1.940450   -0.836616   -0.954299
S          2.079838   -0.085112    0.000181
H          2.339154    1.231019   -0.002214
H          0.753848    0.134121   -0.003537
$end


$rem
N_FROZEN_CORE FC
MEM_TOTAL 3750
MEM_STATIC 1500
AUX_BASIS_CORR rimp2-def2-QZVPPD
SCF_CONVERGENCE 7
SCF_ALGORITHM  GDM
method DSD-PBEPBE-D3
GEN_SCFMAN TRUE
UNRESTRICTED True
THRESH  14
SYMMETRY FALSE
SYM_IGNORE TRUE
max_scf_cycles 200

XC_GRID 000099000590
BASIS AUG-PC-3


$end





$multipole_field
X 0.0
Y 0.0001
Z 0.0
$end




