$molecule
0 1
N      -0.0434931677     1.1241417694     0.0000000000
Cl     -0.0438846383    -0.6234084854     0.0000000000
H       0.5254889033     1.3621833626     0.8073930041
H       0.5254889027     1.3621833534    -0.8073930033
$end


$rem
N_FROZEN_CORE FC
MEM_TOTAL 3750
MEM_STATIC 1500
AUX_BASIS_CORR rimp2-def2-QZVPPD
SCF_CONVERGENCE 7
SCF_ALGORITHM  GDM
method DSD-PBEPBE-D3
GEN_SCFMAN TRUE
UNRESTRICTED True
THRESH  14
SYMMETRY FALSE
SYM_IGNORE TRUE
max_scf_cycles 200

XC_GRID 000099000590
BASIS AUG-PC-3


$end





$multipole_field
X 0.0
Y -0.0001
Z 0.0
$end




