$molecule
0 1
N                     1.575225    0.000085   -0.042607
H                    2.131108    0.813949   -0.286614
H                    1.496450   -0.002936    0.970257
H                    2.131721   -0.811892   -0.291453
N                    -1.688245    0.000083    0.104848
H                   -2.126403   -0.812680   -0.317310
H                   -2.127442    0.811842   -0.318158
H                   -0.714297    0.000543   -0.192407
$end


$rem
N_FROZEN_CORE FC
MEM_TOTAL 3750
MEM_STATIC 1500
AUX_BASIS_CORR rimp2-def2-QZVPPD
SCF_CONVERGENCE 7
SCF_ALGORITHM  GDM
method DSD-PBEPBE-D3
GEN_SCFMAN TRUE
UNRESTRICTED True
THRESH  14
SYMMETRY FALSE
SYM_IGNORE TRUE
max_scf_cycles 200

XC_GRID 000099000590
BASIS AUG-PC-3


$end





$multipole_field
X 0.0
Y 0.0
Z -0.0001
$end




