$molecule
0 1
O       0.0000000000     0.0000000000     0.0000000000
H       0.0000000000     0.0000000000     0.9630450000
B       1.2119533708     0.0000000000    -0.5375448272
C       2.4619212351     0.0000000000    -1.1461501387
H       2.9689994209     0.9208690341    -1.3911432627
H       2.9689001800    -0.9208733275    -1.3913324370
$end


$rem
N_FROZEN_CORE FC
MEM_TOTAL 3750
MEM_STATIC 1500
AUX_BASIS_CORR rimp2-def2-QZVPPD
SCF_CONVERGENCE 7
SCF_ALGORITHM  GDM
method DSD-PBEPBE-D3
GEN_SCFMAN TRUE
UNRESTRICTED True
THRESH  14
SYMMETRY FALSE
SYM_IGNORE TRUE
max_scf_cycles 200

XC_GRID 000099000590
BASIS AUG-PC-3


$end





$multipole_field
X 0.0
Y 0.0
Z 0.0001
$end




