$molecule
0 1 
   P          0.00000000      0.00000000     -0.57985935
   H          0.59583468     -1.03201594      0.19328645
   H          0.59583468      1.03201594      0.19328645
   H         -1.19166936      0.00000000      0.19328645
$end


$rem
N_FROZEN_CORE FC
MEM_TOTAL 3750
MEM_STATIC 1500
AUX_BASIS_CORR rimp2-def2-QZVPPD
SCF_CONVERGENCE 7
SCF_ALGORITHM  GDM
method DSD-PBEPBE-D3
GEN_SCFMAN TRUE
UNRESTRICTED True
THRESH  14
SYMMETRY FALSE
SYM_IGNORE TRUE
max_scf_cycles 200

XC_GRID 000099000590
BASIS DEF2-QZVPPD


$end










