$molecule
0 1 
   N          0.00000000      0.00000000     -0.29091629
   H          0.47158685     -0.81681238      0.09697210
   H          0.47158685      0.81681238      0.09697210
   H         -0.94317370      0.00000000      0.09697210
$end


$rem
N_FROZEN_CORE FC
MEM_TOTAL 3750
MEM_STATIC 1500
AUX_BASIS_CORR rimp2-def2-QZVPPD
SCF_CONVERGENCE 7
SCF_ALGORITHM  GDM
method DSD-PBEPBE-D3
GEN_SCFMAN TRUE
UNRESTRICTED True
THRESH  14
SYMMETRY FALSE
SYM_IGNORE TRUE
max_scf_cycles 200

XC_GRID 000099000590
BASIS DEF2-QZVPPD


$end










