$molecule
2 1 
   C          0.13122756     -0.66178531      0.00000000
   C         -0.13122756      0.66178531      0.00000000
   H         -0.80707569     -1.32582694      0.49166647
   H         -0.80707569     -1.32582694     -0.49166647
   H          1.08170581     -1.20629748      0.00000000
   H          0.80707569      1.32582694     -0.49166647
   H         -1.08170581      1.20629748      0.00000000
   H          0.80707569      1.32582694      0.49166647
$end


$rem
N_FROZEN_CORE FC
MEM_TOTAL 3750
MEM_STATIC 1500
AUX_BASIS_CORR rimp2-def2-QZVPPD
SCF_CONVERGENCE 7
SCF_ALGORITHM  GDM
method DSD-PBEPBE-D3
GEN_SCFMAN TRUE
UNRESTRICTED True
THRESH  14
SYMMETRY FALSE
SYM_IGNORE TRUE
max_scf_cycles 200

XC_GRID 000099000590
BASIS DEF2-QZVPPD


$end










