$molecule
2 1 
   C          0.00000000      0.00000000     -0.68473338
   C          0.00000000      0.00000000      0.68473338
   H          0.67988240      0.67988240     -1.28920617
   H         -0.67988240     -0.67988240     -1.28920617
   H          0.67988240     -0.67988240      1.28920617
   H         -0.67988240      0.67988240      1.28920617
$end


$rem
N_FROZEN_CORE FC
MEM_TOTAL 3750
MEM_STATIC 1500
AUX_BASIS_CORR rimp2-def2-QZVPPD
SCF_CONVERGENCE 7
SCF_ALGORITHM  GDM
method DSD-PBEPBE-D3
GEN_SCFMAN TRUE
UNRESTRICTED True
THRESH  14
SYMMETRY FALSE
SYM_IGNORE TRUE
max_scf_cycles 200

XC_GRID 000099000590
BASIS DEF2-QZVPPD


$end










