$molecule
2 1 
   C          0.00000000      0.00000000     -0.23924060
   O          0.00000000      0.00000000     -1.36686930
   H          0.79765650      0.00000000      0.80305495
   H         -0.79765650      0.00000000      0.80305495
$end


$rem
N_FROZEN_CORE FC
MEM_TOTAL 3750
MEM_STATIC 1500
AUX_BASIS_CORR rimp2-def2-QZVPPD
SCF_CONVERGENCE 7
SCF_ALGORITHM  GDM
method DSD-PBEPBE-D3
GEN_SCFMAN TRUE
UNRESTRICTED True
THRESH  14
SYMMETRY FALSE
SYM_IGNORE TRUE
max_scf_cycles 200

XC_GRID 000099000590
BASIS DEF2-QZVPPD


$end










