$molecule
-1 1
C -0.438496 -1.032389 0.000000
C 0.000000 0.353892 0.000000
H 0.432537 -1.697504 0.000000
H -1.029004 -1.260829 0.891922
H -1.029004 -1.260829 -0.891922
C 0.709408 1.381691 0.000000
$end


$rem
N_FROZEN_CORE FC
MEM_TOTAL 7500
MEM_STATIC 3000
AUX_BASIS_CORR rimp2-def2-QZVPPD
SCF_CONVERGENCE 7
SCF_ALGORITHM  GDM
method DSD-PBEPBE-D3
GEN_SCFMAN TRUE
UNRESTRICTED True
THRESH  14
SYMMETRY FALSE
SYM_IGNORE TRUE
max_scf_cycles 200

XC_GRID 000099000590
BASIS AUG-PC-4


$end










