$molecule
-1 1
C 0.0000 0.0000 -1.2512
C 0.0000 0.0000 0.1159
C 0.0000 0.0000 1.3383
H 0.0000 0.9288 -1.8099
H 0.0000 -0.9288 -1.8099
H 0.0000 0.0000 2.4018
$end


$rem
N_FROZEN_CORE FC
MEM_TOTAL 7500
MEM_STATIC 3000
AUX_BASIS_CORR rimp2-def2-QZVPPD
SCF_CONVERGENCE 7
SCF_ALGORITHM  GDM
method DSD-PBEPBE-D3
GEN_SCFMAN TRUE
UNRESTRICTED True
THRESH  14
SYMMETRY FALSE
SYM_IGNORE TRUE
max_scf_cycles 200

XC_GRID 000099000590
BASIS AUG-PC-4


$end










