$molecule
0 2
C 0.0000 0.4280 0.0000
H 0.2960 1.4945 0.0000
C 1.0559 -0.5273 0.0000
O -1.1920 0.1131 0.0000
H 2.0954 -0.2207 0.0000
H 0.8098 -1.5827 0.0000
$end


$rem
N_FROZEN_CORE FC
MEM_TOTAL 7500
MEM_STATIC 3000
AUX_BASIS_CORR rimp2-def2-QZVPPD
SCF_CONVERGENCE 7
SCF_ALGORITHM  GDM
method DSD-PBEPBE-D3
GEN_SCFMAN TRUE
UNRESTRICTED True
THRESH  14
SYMMETRY FALSE
SYM_IGNORE TRUE
max_scf_cycles 200

XC_GRID 000099000590
BASIS AUG-PC-4


$end










