$molecule
0 1
   C         -0.49938142     -0.14878748      0.23951650
   H          0.21351654     -0.67395966     -0.44371002
   H         -1.58392171     -0.26216920     -0.00900550
   O         -0.12206226      0.49971481      1.18671019
$end


$rem
N_FROZEN_CORE FC
MEM_TOTAL 3750
MEM_STATIC 1500
AUX_BASIS_CORR rimp2-def2-QZVPPD
SCF_CONVERGENCE 7
SCF_ALGORITHM  GDM
method DSD-PBEPBE-D3
GEN_SCFMAN TRUE
UNRESTRICTED True
THRESH  14
SYMMETRY FALSE
SYM_IGNORE TRUE
max_scf_cycles 200

XC_GRID 000099000590
BASIS DEF2-QZVPPD


$end










