$molecule
0 1
   C         -0.50973845     -4.57409193      4.82078256
   H          0.12390675     -4.81524791      5.68716964
   H          0.15526735     -4.38166597      3.96691327
   H         -1.11467319     -5.46282563      4.58988793
   C         -1.40199201     -3.35538275      5.11048399
   H         -2.04014145     -3.14723348      4.23950113
   H         -2.08767775     -3.61035058      5.93828216
   C         -0.60901681     -2.13869195      5.49603240
   H          0.06148939     -2.28076413      6.35155563
   C         -0.61956324     -0.92707393      4.91947698
   H          0.03865347     -0.16350647      5.34781832
   C         -1.43816619     -0.47482642      3.74666948
   H         -2.11673732      0.34474903      4.03474932
   H         -0.79185021     -0.07516951      2.94871813
   H         -2.04903062     -1.27818940      3.31602797
$end


$rem
N_FROZEN_CORE FC
MEM_TOTAL 7500
MEM_STATIC 3000
AUX_BASIS_CORR rimp2-def2-QZVPPD
SCF_CONVERGENCE 7
SCF_ALGORITHM  GDM
method DSD-PBEPBE-D3
GEN_SCFMAN TRUE
UNRESTRICTED True
THRESH  14
SYMMETRY FALSE
SYM_IGNORE TRUE
max_scf_cycles 200

XC_GRID 000099000590
BASIS DEF2-QZVPPD


$end










