$molecule
0 1
   O         -3.29297962     -0.02990796      0.02159993
   H         -3.34922114     -0.85430220      0.54446032
   O         -1.83694687      0.16541584      0.02149675
   H         -1.78057918      0.99088753      0.54268557
$end


$rem
N_FROZEN_CORE FC
MEM_TOTAL 3750
MEM_STATIC 1500
AUX_BASIS_CORR rimp2-def2-QZVPPD
SCF_CONVERGENCE 7
SCF_ALGORITHM  GDM
method DSD-PBEPBE-D3
GEN_SCFMAN TRUE
UNRESTRICTED True
THRESH  14
SYMMETRY FALSE
SYM_IGNORE TRUE
max_scf_cycles 200

XC_GRID 000099000590
BASIS DEF2-QZVPPD


$end










