$molecule
0 1
   C         -5.02272319     -1.01258348      0.00055031
   H         -4.68287386     -2.05837716     -0.03440472
   H         -4.68158996     -0.51929760     -0.92184329
   H         -6.12156661     -1.01893913     -0.01175941
   C         -4.49170389     -0.29534915      1.24518677
   H         -4.87082051      0.73891291      1.27191014
   H         -4.87202128     -0.79007801      2.15329223
   C         -2.96364099     -0.27178569      1.28837156
   H         -2.56398205      0.25062694      0.40777323
   H         -2.56488390     -1.29611844      1.29859426
   S         -2.40999711      0.60366820      2.80879173
   H         -1.08079721      0.48489522      2.58761783
$end


$rem
N_FROZEN_CORE FC
MEM_TOTAL 3750
MEM_STATIC 1500
AUX_BASIS_CORR rimp2-def2-QZVPPD
SCF_CONVERGENCE 7
SCF_ALGORITHM  GDM
method DSD-PBEPBE-D3
GEN_SCFMAN TRUE
UNRESTRICTED True
THRESH  14
SYMMETRY FALSE
SYM_IGNORE TRUE
max_scf_cycles 200

XC_GRID 000099000590
BASIS DEF2-QZVPPD


$end










