$molecule
0 1
   C         -3.16964077     -0.01079805      0.05174520
   H         -3.15622828     -1.10177392      0.01867376
   H         -3.15595667      0.50606029     -0.90966754
   C         -3.20048084      0.65550110      1.20564089
   H         -3.21390105      1.74647767      1.23867243
   H         -3.21417365      0.13866814      2.16705266
$end


$rem
N_FROZEN_CORE FC
MEM_TOTAL 3750
MEM_STATIC 1500
AUX_BASIS_CORR rimp2-def2-QZVPPD
SCF_CONVERGENCE 7
SCF_ALGORITHM  GDM
method DSD-PBEPBE-D3
GEN_SCFMAN TRUE
UNRESTRICTED True
THRESH  14
SYMMETRY FALSE
SYM_IGNORE TRUE
max_scf_cycles 200

XC_GRID 000099000590
BASIS DEF2-QZVPPD


$end










