$molecule
0 1
   C         -1.02120977     -0.00369329     -0.00000103
   CL        -0.25644546     -1.59040228      0.00000028
   CL        -2.77763435     -0.13380224      0.00000028
   O         -0.42833298      1.02200085      0.00000047
$end


$rem
N_FROZEN_CORE FC
MEM_TOTAL 3750
MEM_STATIC 1500
AUX_BASIS_CORR rimp2-def2-QZVPPD
SCF_CONVERGENCE 7
SCF_ALGORITHM  GDM
method DSD-PBEPBE-D3
GEN_SCFMAN TRUE
UNRESTRICTED True
THRESH  14
SYMMETRY FALSE
SYM_IGNORE TRUE
max_scf_cycles 200

XC_GRID 000099000590
BASIS DEF2-QZVPPD


$end










