$molecule
0 1
   C         -1.41328723     -0.04488472      0.00657972
   H         -1.03644320     -1.07503775      0.02712671
   H         -1.05068777      0.43736833     -0.91867585
   H         -2.51689170     -0.08099751     -0.02072603
   O         -0.91865501      0.59520166      1.18397022
   H         -1.24098250      1.51133389      1.18280244
$end


$rem
N_FROZEN_CORE FC
MEM_TOTAL 3750
MEM_STATIC 1500
AUX_BASIS_CORR rimp2-def2-QZVPPD
SCF_CONVERGENCE 7
SCF_ALGORITHM  GDM
method DSD-PBEPBE-D3
GEN_SCFMAN TRUE
UNRESTRICTED True
THRESH  14
SYMMETRY FALSE
SYM_IGNORE TRUE
max_scf_cycles 200

XC_GRID 000099000590
BASIS DEF2-QZVPPD


$end










