$molecule
-1 1
  N   0.00000000001751      0.00000000000000      0.44376479478274
  H   0.78887561064824      0.00000000000000     -0.22188239738350
  H   -0.78887561066575      0.00000000000000     -0.22188239739824
$end


$rem
N_FROZEN_CORE FC
MEM_TOTAL 3750
MEM_STATIC 1500
AUX_BASIS_CORR rimp2-def2-QZVPPD
SCF_CONVERGENCE 7
SCF_ALGORITHM  GDM
method DSD-PBEPBE-D3
GEN_SCFMAN TRUE
UNRESTRICTED True
THRESH  14
SYMMETRY FALSE
SYM_IGNORE TRUE
max_scf_cycles 200

XC_GRID 000099000590
BASIS AUG-PC-4


$end










