$molecule
0 2
  C   -0.00000223884450      0.00000000000474     -0.00000000007278
  H   -0.53885056641121      0.93331929037266      0.00000000002426
  H   -0.53885056642495     -0.93331929038376      0.00000000002426
  H   1.07770337168466      0.00000000000636      0.00000000002426
$end


$rem
N_FROZEN_CORE FC
MEM_TOTAL 3750
MEM_STATIC 1500
AUX_BASIS_CORR rimp2-def2-QZVPPD
SCF_CONVERGENCE 7
SCF_ALGORITHM  GDM
method DSD-PBEPBE-D3
GEN_SCFMAN TRUE
UNRESTRICTED True
THRESH  14
SYMMETRY FALSE
SYM_IGNORE TRUE
max_scf_cycles 200

XC_GRID 000099000590
BASIS AUG-PC-4


$end










