$molecule
-1 2
  C   -0.00000000000356      0.00000000000000      0.48340497710980
  H   0.86439251172179      0.00000000000000     -0.24170248855639
  H   -0.86439251171823      0.00000000000000     -0.24170248855341
$end


$rem
N_FROZEN_CORE FC
MEM_TOTAL 3750
MEM_STATIC 1500
AUX_BASIS_CORR rimp2-def2-QZVPPD
SCF_CONVERGENCE 7
SCF_ALGORITHM  GDM
method DSD-PBEPBE-D3
GEN_SCFMAN TRUE
UNRESTRICTED True
THRESH  14
SYMMETRY FALSE
SYM_IGNORE TRUE
max_scf_cycles 200

XC_GRID 000099000590
BASIS AUG-PC-4


$end










