$molecule
-1 1
  C   0.00000508944306     -0.00000339643547     -0.34938876232191
  H   0.50557873544733     -0.87569368839894      0.11646130572819
  H   0.50557197594222      0.87569205011160      0.11646302378228
  H   -1.01115580083661      0.00000503472281      0.11646443281244
$end


$rem
N_FROZEN_CORE FC
MEM_TOTAL 3750
MEM_STATIC 1500
AUX_BASIS_CORR rimp2-def2-QZVPPD
SCF_CONVERGENCE 7
SCF_ALGORITHM  GDM
method DSD-PBEPBE-D3
GEN_SCFMAN TRUE
UNRESTRICTED True
THRESH  14
SYMMETRY FALSE
SYM_IGNORE TRUE
max_scf_cycles 200

XC_GRID 000099000590
BASIS AUG-PC-4


$end










