$molecule
0 3
  C   -0.00000000000950      0.00000000000000      0.28257558077614
  H   0.99030315990397      0.00000000000000     -0.14128779039020
  H   -0.99030315989447      0.00000000000000     -0.14128779038594
$end


$rem
N_FROZEN_CORE FC
MEM_TOTAL 3750
MEM_STATIC 1500
AUX_BASIS_CORR rimp2-def2-QZVPPD
SCF_CONVERGENCE 7
SCF_ALGORITHM  GDM
method DSD-PBEPBE-D3
GEN_SCFMAN TRUE
UNRESTRICTED True
THRESH  14
SYMMETRY FALSE
SYM_IGNORE TRUE
max_scf_cycles 200

XC_GRID 000099000590
BASIS AUG-PC-4


$end










