$molecule
0 2
Si -0.0000007644 0.0000048761 -0.3362794024
H 0.7049749131 -1.2210563358 0.1120941388
H 0.7049861557 1.2210595759 0.1120922991
H -1.4099603044 -0.0000081163 0.1120929644
$end


$rem
N_FROZEN_CORE FC
MEM_TOTAL 3750
MEM_STATIC 1500
AUX_BASIS_CORR rimp2-def2-QZVPPD
SCF_CONVERGENCE 7
SCF_ALGORITHM  GDM
method DSD-PBEPBE-D3
GEN_SCFMAN TRUE
UNRESTRICTED True
THRESH  14
SYMMETRY FALSE
SYM_IGNORE TRUE
max_scf_cycles 200

XC_GRID 000099000590
BASIS AUG-PC-4


$end










