$molecule
-1 1
Si 0.0000165411 0.0000010547 -0.6091728238
H 0.6535403341 -1.1319893425 0.2030546979
H 0.6535424151 1.1319898410 0.2030537273
H -1.3070992903 -0.0000015531 0.2030643987
$end


$rem
N_FROZEN_CORE FC
MEM_TOTAL 3750
MEM_STATIC 1500
AUX_BASIS_CORR rimp2-def2-QZVPPD
SCF_CONVERGENCE 7
SCF_ALGORITHM  GDM
method DSD-PBEPBE-D3
GEN_SCFMAN TRUE
UNRESTRICTED True
THRESH  14
SYMMETRY FALSE
SYM_IGNORE TRUE
max_scf_cycles 200

XC_GRID 000099000590
BASIS AUG-PC-4


$end










