$molecule
0 2
  N   -0.00000000000332      0.00000000000000      0.42646565132973
  H   0.80077806984750      0.00000000000000     -0.21323282566670
  H   -0.80077806984418      0.00000000000000     -0.21323282566404
$end


$rem
N_FROZEN_CORE FC
MEM_TOTAL 3750
MEM_STATIC 1500
AUX_BASIS_CORR rimp2-def2-QZVPPD
SCF_CONVERGENCE 7
SCF_ALGORITHM  GDM
method DSD-PBEPBE-D3
GEN_SCFMAN TRUE
UNRESTRICTED True
THRESH  14
SYMMETRY FALSE
SYM_IGNORE TRUE
max_scf_cycles 200

XC_GRID 000099000590
BASIS AUG-PC-4


$end










