$molecule
1 2
  C   0.62556129596524      0.00737671665345     -0.00000148829530
  C   -0.62556137540209     -0.00737673226951      0.00000148023691
  H   -1.70445999590281     -0.02072870166660      0.00000290306086
  H   1.70445991571266      0.02072874285219     -0.00000294749615
$end


$rem
N_FROZEN_CORE FC
MEM_TOTAL 3750
MEM_STATIC 1500
AUX_BASIS_CORR rimp2-def2-QZVPPD
SCF_CONVERGENCE 7
SCF_ALGORITHM  GDM
method DSD-PBEPBE-D3
GEN_SCFMAN TRUE
UNRESTRICTED True
THRESH  14
SYMMETRY FALSE
SYM_IGNORE TRUE
max_scf_cycles 200

XC_GRID 000099000590
BASIS AUG-PC-4


$end










