$molecule
1 2
Si -0.0004034266 -0.0829725980 -0.0452048018
H 0.0029090812 1.7212432186 -0.3382727063
H 0.0028581818 1.7293908646 0.4494728867
H 1.2811127021 -0.2558566330 0.6553160056
H -1.2838972307 -0.2514836157 0.6527599513
$end


$rem
N_FROZEN_CORE FC
MEM_TOTAL 3750
MEM_STATIC 1500
AUX_BASIS_CORR rimp2-def2-QZVPPD
SCF_CONVERGENCE 7
SCF_ALGORITHM  GDM
method DSD-PBEPBE-D3
GEN_SCFMAN TRUE
UNRESTRICTED True
THRESH  14
SYMMETRY FALSE
SYM_IGNORE TRUE
max_scf_cycles 200

XC_GRID 000099000590
BASIS AUG-PC-4


$end










