$molecule
0 1
  O   -0.00000000000403      0.00000000000000     -0.39264493472585
  H   -0.75542936909589      0.00000000000000      0.19632246736086
  H   0.75542936909992      0.00000000000000      0.19632246736399
$end


$rem
N_FROZEN_CORE FC
MEM_TOTAL 3750
MEM_STATIC 1500
AUX_BASIS_CORR rimp2-def2-QZVPPD
SCF_CONVERGENCE 7
SCF_ALGORITHM  GDM
method DSD-PBEPBE-D3
GEN_SCFMAN TRUE
UNRESTRICTED True
THRESH  14
SYMMETRY FALSE
SYM_IGNORE TRUE
max_scf_cycles 200

XC_GRID 000099000590
BASIS AUG-PC-4


$end










