$molecule
0 1
P -0.0000006972 -0.0000004948 0.5734973324
H -0.5951303764 1.0307972319 -0.1911658206
H -0.5951315312 -1.0307975688 -0.1911654331
H 1.1902626049 0.0000008317 -0.1911660787
$end


$rem
N_FROZEN_CORE FC
MEM_TOTAL 3750
MEM_STATIC 1500
AUX_BASIS_CORR rimp2-def2-QZVPPD
SCF_CONVERGENCE 7
SCF_ALGORITHM  GDM
method DSD-PBEPBE-D3
GEN_SCFMAN TRUE
UNRESTRICTED True
THRESH  14
SYMMETRY FALSE
SYM_IGNORE TRUE
max_scf_cycles 200

XC_GRID 000099000590
BASIS AUG-PC-4


$end










