$molecule
0 1
Si -0.0000000067 -0.0000000006 0.0000000011
H 0.8537064057 -0.8537064010 0.8537063973
H -0.8537064012 0.8537064088 0.8537064036
H -0.8537064012 -0.8537064073 -0.8537064052
H 0.8537064034 0.8537064002 -0.8537063967
$end


$rem
N_FROZEN_CORE FC
MEM_TOTAL 3750
MEM_STATIC 1500
AUX_BASIS_CORR rimp2-def2-QZVPPD
SCF_CONVERGENCE 7
SCF_ALGORITHM  GDM
method DSD-PBEPBE-D3
GEN_SCFMAN TRUE
UNRESTRICTED True
THRESH  14
SYMMETRY FALSE
SYM_IGNORE TRUE
max_scf_cycles 200

XC_GRID 000099000590
BASIS AUG-PC-4


$end










