$molecule
1 2
  N   0.00000323217102      0.00000024307417     -0.00000055767679
  H   0.47902981536428     -0.90183921110769     -0.00000057249034
  H   0.54149441603808      0.86577557552695     -0.00000057249100
  H   -1.02052964158342      0.03606253775141     -0.00000057249070
$end


$rem
N_FROZEN_CORE FC
MEM_TOTAL 3750
MEM_STATIC 1500
AUX_BASIS_CORR rimp2-def2-QZVPPD
SCF_CONVERGENCE 7
SCF_ALGORITHM  GDM
method DSD-PBEPBE-D3
GEN_SCFMAN TRUE
UNRESTRICTED True
THRESH  14
SYMMETRY FALSE
SYM_IGNORE TRUE
max_scf_cycles 200

XC_GRID 000099000590
BASIS AUG-PC-4


$end










