$molecule
0 1
  N   -0.00000504405478      0.00000177084192      0.29164078243418
  H   -0.46738191654888      0.80953718339940     -0.09721259173599
  H   -0.46737816712913     -0.80953619930861     -0.09721328588087
  H   0.93476512773179     -0.00000275493271     -0.09721490481742
$end


$rem
N_FROZEN_CORE FC
MEM_TOTAL 3750
MEM_STATIC 1500
AUX_BASIS_CORR rimp2-def2-QZVPPD
SCF_CONVERGENCE 7
SCF_ALGORITHM  GDM
method DSD-PBEPBE-D3
GEN_SCFMAN TRUE
UNRESTRICTED True
THRESH  14
SYMMETRY FALSE
SYM_IGNORE TRUE
max_scf_cycles 200

XC_GRID 000099000590
BASIS AUG-PC-4


$end










