$molecule
0 1
  C   0.66713987142192      0.00000000001595     -0.00000000016436
  C   -0.66713987155904     -0.00000000000595     -0.00000000005522
  H   1.23166657242980     -0.92344306079594     -0.00000000009514
  H   1.23166657255310      0.92344306083623      0.00000000023464
  H   -1.23166657243006     -0.92344306084909      0.00000000020493
  H   -1.23166657241573      0.92344306079880     -0.00000000012485
$end


$rem
N_FROZEN_CORE FC
MEM_TOTAL 7500
MEM_STATIC 3000
AUX_BASIS_CORR rimp2-def2-QZVPPD
SCF_CONVERGENCE 7
SCF_ALGORITHM  GDM
method DSD-PBEPBE-D3
GEN_SCFMAN TRUE
UNRESTRICTED True
THRESH  14
SYMMETRY FALSE
SYM_IGNORE TRUE
max_scf_cycles 200

XC_GRID 000099000590
BASIS AUG-PC-4


$end










