$molecule
1 2
  C   0.00019549401175     -0.00003071404629     -0.00001448255293
  H   -0.82340085610229      0.65982400839321     -0.37021939938488
  H   0.65965327739930      0.82386514445600      0.36964646887043
  H   0.82299771528559     -0.66081529761159     -0.36958182035241
  H   -0.66097495740716     -0.82255750043496      0.37005306222062
$end


$rem
N_FROZEN_CORE FC
MEM_TOTAL 3750
MEM_STATIC 1500
AUX_BASIS_CORR rimp2-def2-QZVPPD
SCF_CONVERGENCE 7
SCF_ALGORITHM  GDM
method DSD-PBEPBE-D3
GEN_SCFMAN TRUE
UNRESTRICTED True
THRESH  14
SYMMETRY FALSE
SYM_IGNORE TRUE
max_scf_cycles 200

XC_GRID 000099000590
BASIS AUG-PC-4


$end










