$molecule
1 2
  C   0.70116669296021     -0.00000012716240      0.00000059123789
  C   -0.70116669309748     -0.00000010740050     -0.00000049654575
  H   -1.25458615421627     -0.91950813633788      0.16770367652440
  H   -1.25458587552145      0.91950825017318     -0.16770380280443
  H   1.25458589602716      0.91950824163320      0.16770377147188
  H   1.25458613348183     -0.91950814465313     -0.16770370863735
$end


$rem
N_FROZEN_CORE FC
MEM_TOTAL 7500
MEM_STATIC 3000
AUX_BASIS_CORR rimp2-def2-QZVPPD
SCF_CONVERGENCE 7
SCF_ALGORITHM  GDM
method DSD-PBEPBE-D3
GEN_SCFMAN TRUE
UNRESTRICTED True
THRESH  14
SYMMETRY FALSE
SYM_IGNORE TRUE
max_scf_cycles 200

XC_GRID 000099000590
BASIS AUG-PC-4


$end










