$molecule
1 2
P -0.0000003753 -0.0296402110 -0.0000032889
H -0.6736565274 0.3411170217 1.1668101162
H 1.3473193558 0.3411171705 0.0000056589
H -0.6736644301 0.3411159535 -1.1668124862
$end


$rem
N_FROZEN_CORE FC
MEM_TOTAL 3750
MEM_STATIC 1500
AUX_BASIS_CORR rimp2-def2-QZVPPD
SCF_CONVERGENCE 7
SCF_ALGORITHM  GDM
method DSD-PBEPBE-D3
GEN_SCFMAN TRUE
UNRESTRICTED True
THRESH  14
SYMMETRY FALSE
SYM_IGNORE TRUE
max_scf_cycles 200

XC_GRID 000099000590
BASIS AUG-PC-4


$end










