$molecule
0 1
  C   -0.00000000156241      0.00000000155953      0.60325084514227
  H   0.00000000147603     -0.00000000147456      1.66658386719620
  C   -0.00000000130331      0.00000000130466     -0.60323306862991
  H   0.00000000138969     -0.00000000138964     -1.66660164370856
$end


$rem
N_FROZEN_CORE FC
MEM_TOTAL 3750
MEM_STATIC 1500
AUX_BASIS_CORR rimp2-def2-QZVPPD
SCF_CONVERGENCE 7
SCF_ALGORITHM  GDM
method DSD-PBEPBE-D3
GEN_SCFMAN TRUE
UNRESTRICTED True
THRESH  14
SYMMETRY FALSE
SYM_IGNORE TRUE
max_scf_cycles 200

XC_GRID 000099000590
BASIS AUG-PC-4


$end










