$molecule
0 1
  C   0.00000000000292     -0.00000000000249     -0.00000000001107
  H   0.62810030114860     -0.62810030115182      0.62810030113209
  H   -0.62810030114809      0.62810030113756      0.62810030111461
  H   -0.62810030115726     -0.62810030114352     -0.62810030111105
  H   0.62810030115383      0.62810030116027     -0.62810030112458
$end


$rem
N_FROZEN_CORE FC
MEM_TOTAL 3750
MEM_STATIC 1500
AUX_BASIS_CORR rimp2-def2-QZVPPD
SCF_CONVERGENCE 7
SCF_ALGORITHM  GDM
method DSD-PBEPBE-D3
GEN_SCFMAN TRUE
UNRESTRICTED True
THRESH  14
SYMMETRY FALSE
SYM_IGNORE TRUE
max_scf_cycles 200

XC_GRID 000099000590
BASIS AUG-PC-4


$end










