$molecule
0 1
C  -0.342790442911  0.121149354916  0.0
O  1.0790913196  0.198514960472  0.0
H  -0.728361375745  -0.385127839315  -0.890711707461
H  -0.728361375745  -0.385127839315  0.890711707461
H  -0.713346942368  1.14449077499  0.0
H  1.43376881717  -0.693899411746  0.0
$end


$rem
N_FROZEN_CORE FC
MEM_TOTAL 3750
MEM_STATIC 1500
AUX_BASIS_CORR rimp2-def2-QZVPPD
SCF_CONVERGENCE 7
SCF_ALGORITHM  GDM
method DSD-PBEPBE-D3
GEN_SCFMAN TRUE
UNRESTRICTED True
THRESH  14
SYMMETRY FALSE
SYM_IGNORE TRUE
max_scf_cycles 200

XC_GRID 000099000590
BASIS DEF2-QZVPPD


$end










