$molecule
0 1
SI  0.0  0.0  1.17783383796
SI  0.0  0.0  -1.17783383796
H  1.20770436402  -0.697268439667  1.69586594611
H  0.0  1.39453687933  1.69586594611
H  -1.20770436402  -0.697268439667  1.69586594611
H  1.20770436402  0.697268439667  -1.69586594611
H  0.0  -1.39453687933  -1.69586594611
H  -1.20770436402  0.697268439667  -1.69586594611
$end


$rem
N_FROZEN_CORE FC
MEM_TOTAL 3750
MEM_STATIC 1500
AUX_BASIS_CORR rimp2-def2-QZVPPD
SCF_CONVERGENCE 7
SCF_ALGORITHM  GDM
method DSD-PBEPBE-D3
GEN_SCFMAN TRUE
UNRESTRICTED True
THRESH  14
SYMMETRY FALSE
SYM_IGNORE TRUE
max_scf_cycles 200

XC_GRID 000099000590
BASIS DEF2-QZVPPD


$end










