$molecule
0 1
SI  0.0  0.0  0.0
F  0.910201859871  -0.910201859871  0.910201859871
F  -0.910201859871  0.910201859871  0.910201859871
F  -0.910201859871  -0.910201859871  -0.910201859871
F  0.910201859871  0.910201859871  -0.910201859871
$end


$rem
N_FROZEN_CORE FC
MEM_TOTAL 3750
MEM_STATIC 1500
AUX_BASIS_CORR rimp2-def2-QZVPPD
SCF_CONVERGENCE 7
SCF_ALGORITHM  GDM
method DSD-PBEPBE-D3
GEN_SCFMAN TRUE
UNRESTRICTED True
THRESH  14
SYMMETRY FALSE
SYM_IGNORE TRUE
max_scf_cycles 200

XC_GRID 000099000590
BASIS DEF2-QZVPPD


$end










