$molecule
0 1
C  -0.423093943122  -0.55592379957  0.0
C  0.320219414579  0.749585161535  0.0
O  -0.148012142505  1.83215115197  0.0
CL  2.1447503349  0.539430769003  0.0
H  -1.06663093821  -0.576134746772  0.880432319479
H  0.239398212569  -1.41297378939  0.0
H  -1.06663093821  -0.576134746772  -0.880432319479
$end


$rem
N_FROZEN_CORE FC
MEM_TOTAL 3750
MEM_STATIC 1500
AUX_BASIS_CORR rimp2-def2-QZVPPD
SCF_CONVERGENCE 7
SCF_ALGORITHM  GDM
method DSD-PBEPBE-D3
GEN_SCFMAN TRUE
UNRESTRICTED True
THRESH  14
SYMMETRY FALSE
SYM_IGNORE TRUE
max_scf_cycles 200

XC_GRID 000099000590
BASIS DEF2-QZVPPD


$end










