$molecule
0 1
C  0.0  -0.667585218405  0.926423721818
C  0.0  -0.785510670472  -0.585221263623
C  0.0  0.785510670472  -0.585221263623
C  0.0  0.667585218405  0.926423721818
H  0.0  -1.41045923204  1.71319208506
H  0.887039536829  -1.242674407  -1.02719727163
H  -0.887039536829  -1.242674407  -1.02719727163
H  -0.887039536829  1.242674407  -1.02719727163
H  0.887039536829  1.242674407  -1.02719727163
H  0.0  1.41045923204  1.71319208506
$end


$rem
N_FROZEN_CORE FC
MEM_TOTAL 3750
MEM_STATIC 1500
AUX_BASIS_CORR rimp2-def2-QZVPPD
SCF_CONVERGENCE 7
SCF_ALGORITHM  GDM
method DSD-PBEPBE-D3
GEN_SCFMAN TRUE
UNRESTRICTED True
THRESH  14
SYMMETRY FALSE
SYM_IGNORE TRUE
max_scf_cycles 200

XC_GRID 000099000590
BASIS DEF2-QZVPPD


$end










