$molecule
0 1
N  0.0  0.0  0.285184164707
H  -0.469749185686  0.813629456421  -0.0950613882357
H  -0.469749185686  -0.813629456421  -0.0950613882357
H  0.939498371371  0.0  -0.0950613882357
$end


$rem
N_FROZEN_CORE FC
MEM_TOTAL 3750
MEM_STATIC 1500
AUX_BASIS_CORR rimp2-def2-QZVPPD
SCF_CONVERGENCE 7
SCF_ALGORITHM  GDM
method DSD-PBEPBE-D3
GEN_SCFMAN TRUE
UNRESTRICTED True
THRESH  14
SYMMETRY FALSE
SYM_IGNORE TRUE
max_scf_cycles 200

XC_GRID 000099000590
BASIS DEF2-QZVPPD


$end










