$molecule
0 1
C  -0.434516495623  0.752604647146  0.0
C  -0.434516495623  -0.752604647146  0.0
C  0.869032991246  0.0  0.0
H  -0.727609966074  1.26025742933  0.908130768003
H  -0.727609966074  1.26025742933  -0.908130768003
H  -0.727609966074  -1.26025742933  0.908130768003
H  -0.727609966074  -1.26025742933  -0.908130768003
H  1.45521993215  0.0  -0.908130768003
H  1.45521993215  0.0  0.908130768003
$end


$rem
N_FROZEN_CORE FC
MEM_TOTAL 3750
MEM_STATIC 1500
AUX_BASIS_CORR rimp2-def2-QZVPPD
SCF_CONVERGENCE 7
SCF_ALGORITHM  GDM
method DSD-PBEPBE-D3
GEN_SCFMAN TRUE
UNRESTRICTED True
THRESH  14
SYMMETRY FALSE
SYM_IGNORE TRUE
max_scf_cycles 200

XC_GRID 000099000590
BASIS DEF2-QZVPPD


$end










