$molecule
0 1
S  0.0  0.0  1.59689538166
C  0.0  -0.738650874691  -0.0852988105258
C  0.0  0.738650874691  -0.0852988105258
H  0.912678422211  -1.25059718282  -0.356574440151
H  -0.912678422211  -1.25059718282  -0.356574440151
H  -0.912678422211  1.25059718282  -0.356574440151
H  0.912678422211  1.25059718282  -0.356574440151
$end


$rem
N_FROZEN_CORE FC
MEM_TOTAL 3750
MEM_STATIC 1500
AUX_BASIS_CORR rimp2-def2-QZVPPD
SCF_CONVERGENCE 7
SCF_ALGORITHM  GDM
method DSD-PBEPBE-D3
GEN_SCFMAN TRUE
UNRESTRICTED True
THRESH  14
SYMMETRY FALSE
SYM_IGNORE TRUE
max_scf_cycles 200

XC_GRID 000099000590
BASIS DEF2-QZVPPD


$end










