$molecule
0 1
N  0.0  0.0  -2.11635787172
C  0.0  0.0  -0.966708254752
C  0.0  0.0  0.48949323067
H  0.511451116363  0.885859319129  0.8645242986
H  0.511451116363  -0.885859319129  0.8645242986
H  -1.02290223273  0.0  0.8645242986
$end


$rem
N_FROZEN_CORE FC
MEM_TOTAL 3750
MEM_STATIC 1500
AUX_BASIS_CORR rimp2-def2-QZVPPD
SCF_CONVERGENCE 7
SCF_ALGORITHM  GDM
method DSD-PBEPBE-D3
GEN_SCFMAN TRUE
UNRESTRICTED True
THRESH  14
SYMMETRY FALSE
SYM_IGNORE TRUE
max_scf_cycles 200

XC_GRID 000099000590
BASIS DEF2-QZVPPD


$end










