$molecule
0 1
C  -0.0989848673172  -1.1044476778  0.0
C  -0.495961202828  0.359964791669  0.0
O  -1.659733158  0.714330260194  0.0
N  0.534091399704  1.25435439462  0.0
H  -0.532864982976  -1.58026676704  0.878691925156
H  0.978038242377  -1.26791192377  0.0
H  -0.532864982976  -1.58026676704  -0.878691925156
H  1.49483212181  0.969183724683  0.0
H  0.313447430209  2.23505996448  0.0
$end


$rem
N_FROZEN_CORE FC
MEM_TOTAL 3750
MEM_STATIC 1500
AUX_BASIS_CORR rimp2-def2-QZVPPD
SCF_CONVERGENCE 7
SCF_ALGORITHM  GDM
method DSD-PBEPBE-D3
GEN_SCFMAN TRUE
UNRESTRICTED True
THRESH  14
SYMMETRY FALSE
SYM_IGNORE TRUE
max_scf_cycles 200

XC_GRID 000099000590
BASIS DEF2-QZVPPD


$end










