$molecule
0 1
C  -0.226052871113  0.0204978521441  -1.36715672074
S  0.801732491109  0.679934580126  0.0
O  2.07797632233  -0.122455881596  0.0
C  -0.226052871113  0.0204978521441  1.36715672074
H  0.286759282605  0.280810051665  -2.28995763925
H  -1.21252429008  0.481374588783  -1.34297371054
H  -0.288036528132  -1.06142184186  -1.26510604715
H  -1.21252429008  0.481374588783  1.34297371054
H  -0.288036528132  -1.06142184186  1.26510604715
H  0.286759282605  0.280810051665  2.28995763925
$end


$rem
N_FROZEN_CORE FC
MEM_TOTAL 3750
MEM_STATIC 1500
AUX_BASIS_CORR rimp2-def2-QZVPPD
SCF_CONVERGENCE 7
SCF_ALGORITHM  GDM
method DSD-PBEPBE-D3
GEN_SCFMAN TRUE
UNRESTRICTED True
THRESH  14
SYMMETRY FALSE
SYM_IGNORE TRUE
max_scf_cycles 200

XC_GRID 000099000590
BASIS DEF2-QZVPPD


$end










