$molecule
0 1
C  -0.262419574646  -0.59415453918  0.0
C  0.318439918158  0.790687384363  0.0
O  -0.328572042737  1.80653364366  0.0
H  -1.34937326046  -0.558699806523  0.0
H  0.0970213479714  -1.13980213026  0.876677777926
H  0.0970213479714  -1.13980213026  -0.876677777926
H  1.42788226375  0.835237578205  0.0
$end


$rem
N_FROZEN_CORE FC
MEM_TOTAL 3750
MEM_STATIC 1500
AUX_BASIS_CORR rimp2-def2-QZVPPD
SCF_CONVERGENCE 7
SCF_ALGORITHM  GDM
method DSD-PBEPBE-D3
GEN_SCFMAN TRUE
UNRESTRICTED True
THRESH  14
SYMMETRY FALSE
SYM_IGNORE TRUE
max_scf_cycles 200

XC_GRID 000099000590
BASIS DEF2-QZVPPD


$end










