$molecule
0 1
  N   -3.666346857  -0.513377110   0.000000000
  H   -4.446091717   0.132793165   0.000000000
  H   -3.762199085  -1.103781431   0.816949661
  H   -3.762199085  -1.103781431  -0.816949661
$end



$rem
N_FROZEN_CORE FC
MEM_TOTAL 3750
MEM_STATIC 1500
AUX_BASIS_CORR rimp2-def2-QZVPPD
method DSD-PBEPBE-D3
GEN_SCFMAN TRUE
UNRESTRICTED True
THRESH  14
SCF_CONVERGENCE 7
SYMMETRY FALSE
SYM_IGNORE TRUE
max_scf_cycles 200
scf_algorithm gdm

XC_GRID 000099000590
NL_GRID 000075000302
BASIS def2-QZVPPD


$end




