$molecule
0 1
  H   -3.985684876  -0.270111115  -0.696348801
  H   -3.442578344   1.410010602  -0.772041873
  H   -2.900677312   0.236229575  -1.988128555
  H   -1.156462383   0.453983068  -0.429005446
  H   -1.273750301  -0.047957719   1.836196953
  H   -2.979938475  -0.462300819   1.664451711
  H   -2.470556049   1.226651035   1.544999678
  C   -3.131310358   0.366556497  -0.931850616
  N   -1.990025408  -0.031801325  -0.125731675
  C   -2.188372380   0.192553739   1.296330851
$end



$rem
N_FROZEN_CORE FC
MEM_TOTAL 3750
MEM_STATIC 1500
AUX_BASIS_CORR rimp2-def2-QZVPPD
method DSD-PBEPBE-D3
GEN_SCFMAN TRUE
UNRESTRICTED True
THRESH  14
SCF_CONVERGENCE 7
SYMMETRY FALSE
SYM_IGNORE TRUE
max_scf_cycles 200
scf_algorithm gdm

XC_GRID 000099000590
NL_GRID 000075000302
BASIS def2-QZVPPD


$end




