$molecule
0 1
  O    2.086138680   0.036875492  -0.640328801
  H    1.254507692   0.488108996  -0.419264519
  C    2.896636269   0.005598133   0.516670310
  H    3.809307845  -0.533808290   0.268209454
  H    2.409354595  -0.513671280   1.349953454
  H    3.173247693   1.009378863   0.854756922
$end



$rem
N_FROZEN_CORE FC
MEM_TOTAL 3750
MEM_STATIC 1500
AUX_BASIS_CORR rimp2-def2-QZVPPD
method DSD-PBEPBE-D3
GEN_SCFMAN TRUE
UNRESTRICTED True
THRESH  14
SCF_CONVERGENCE 7
SYMMETRY FALSE
SYM_IGNORE TRUE
max_scf_cycles 200
scf_algorithm gdm

XC_GRID 000099000590
NL_GRID 000075000302
BASIS def2-QZVPPD


$end




