$molecule
0 1
  C    1.176313769   0.088121290   0.030200439
  O    0.672948322   1.176240815   0.217487640
  O    0.496647972  -1.055816157   0.081086722
  H   -0.467538763  -0.848189572   0.298263018
  C    2.633769353  -0.121133504  -0.285316637
  H    3.145986270   0.834074498  -0.322519011
  H    3.086159370  -0.758159649   0.473739971
  H    2.733750015  -0.636676755  -1.239644515
$end



$rem
N_FROZEN_CORE FC
MEM_TOTAL 3750
MEM_STATIC 1500
AUX_BASIS_CORR rimp2-def2-QZVPPD
method DSD-PBEPBE-D3
GEN_SCFMAN TRUE
UNRESTRICTED True
THRESH  14
SCF_CONVERGENCE 7
SYMMETRY FALSE
SYM_IGNORE TRUE
max_scf_cycles 200
scf_algorithm gdm

XC_GRID 000099000590
NL_GRID 000075000302
BASIS def2-QZVPPD


$end




