$molecule
0 1
  H   -4.383325716  -0.812666975   0.628871364
  H   -4.215140032  -0.621885545  -1.130781320
  H   -5.182918381   0.547718782  -0.198257506
  H    0.013244547  -1.262962290  -0.802263463
  H   -0.142281599  -1.414456511   0.955658743
  H   -0.790255487  -2.695882859  -0.104251694
  O   -3.196395924   0.791366378   0.018027982
  C   -1.960748835   0.303549309   0.082715850
  O   -1.006746787   1.019210175   0.253125577
  O   -1.921624179  -1.024458895  -0.058527398
  C   -0.615641230  -1.631502955   0.002652944
  C   -4.309865015  -0.095292891  -0.184539344
$end



$rem
N_FROZEN_CORE FC
MEM_TOTAL 3750
MEM_STATIC 1500
AUX_BASIS_CORR rimp2-def2-QZVPPD
method DSD-PBEPBE-D3
GEN_SCFMAN TRUE
UNRESTRICTED True
THRESH  14
SCF_CONVERGENCE 7
SYMMETRY FALSE
SYM_IGNORE TRUE
max_scf_cycles 200
scf_algorithm gdm

XC_GRID 000099000590
NL_GRID 000075000302
BASIS def2-QZVPPD


$end




