$molecule
0 1
  C   -1.205200996  -0.871042168  -1.449737819
  H   -0.432303424  -0.219865121  -1.850809147
  H   -1.892941863  -1.150627232  -2.244887634
  H   -0.711197363  -1.768250882  -1.079597916
  C   -1.883124478  -0.177005525  -0.291559368
  O   -1.248534336   0.349752073   0.616762065
  N   -3.233283319  -0.175905560  -0.295264308
  H   -3.718413433  -0.620605046  -1.051931880
  C   -3.999343746   0.435872616   0.776441661
  H   -3.750026321   1.491136133   0.872169109
  H   -5.057165258   0.336549326   0.551196185
  H   -3.787803579  -0.047383446   1.729052098
$end



$rem
N_FROZEN_CORE FC
MEM_TOTAL 3750
MEM_STATIC 1500
AUX_BASIS_CORR rimp2-def2-QZVPPD
method DSD-PBEPBE-D3
GEN_SCFMAN TRUE
UNRESTRICTED True
THRESH  14
SCF_CONVERGENCE 7
SYMMETRY FALSE
SYM_IGNORE TRUE
max_scf_cycles 200
scf_algorithm gdm

XC_GRID 000099000590
NL_GRID 000075000302
BASIS def2-QZVPPD


$end




