$molecule
0 1
  C    2.736076529  -0.932502851  -0.194815482
  H    3.097777250  -1.402192276   0.717909050
  H    3.488705889  -0.236554855  -0.560619776
  H    2.590052871  -1.719381592  -0.932489327
  C    1.398543231  -0.284685078   0.092086031
  O    0.452388340  -0.932758976   0.518496135
  N    1.315559683   1.043799815  -0.147339930
  H    2.125284198   1.522858513  -0.493599632
  C    0.096767788   1.801290549   0.091692942
  H   -0.721392069   1.427912634  -0.522133945
  H   -0.198795901   1.725658638   1.137665891
  H    0.285230511   2.844232597  -0.147655945
$end



$rem
N_FROZEN_CORE FC
MEM_TOTAL 3750
MEM_STATIC 1500
AUX_BASIS_CORR rimp2-def2-QZVPPD
method DSD-PBEPBE-D3
GEN_SCFMAN TRUE
UNRESTRICTED True
THRESH  14
SCF_CONVERGENCE 7
SYMMETRY FALSE
SYM_IGNORE TRUE
max_scf_cycles 200
scf_algorithm gdm

XC_GRID 000099000590
NL_GRID 000075000302
BASIS def2-QZVPPD


$end




