$molecule
0 1
  H   -4.746052888  -1.251767836   0.000028513
  H   -4.989491096   0.262500387  -0.885708890
  H   -4.989503754   0.262553488   0.885668965
  C   -4.540400481  -0.182958896  -0.000003507
  C   -3.106251349   0.047209850   0.000000962
  N   -1.973650772   0.228648078   0.000004882
$end



$rem
N_FROZEN_CORE FC
MEM_TOTAL 3750
MEM_STATIC 1500
AUX_BASIS_CORR rimp2-def2-QZVPPD
method DSD-PBEPBE-D3
GEN_SCFMAN TRUE
UNRESTRICTED True
THRESH  14
SCF_CONVERGENCE 7
SYMMETRY FALSE
SYM_IGNORE TRUE
max_scf_cycles 200
scf_algorithm gdm

XC_GRID 000099000590
NL_GRID 000075000302
BASIS def2-QZVPPD


$end




