$molecule
0 1
  N   -2.014481416  -0.177615640   0.588706996
  H   -1.648368283   0.667216801   1.012376873
  H   -2.665906389  -0.600022500   1.236860895
  C   -2.661561110   0.138854465  -0.690995371
  H   -2.998585046  -0.781874496  -1.163535630
  H   -3.515714503   0.813777961  -0.597838323
  H   -1.927054772   0.605302163  -1.344045575
$end



$rem
N_FROZEN_CORE FC
MEM_TOTAL 3750
MEM_STATIC 1500
AUX_BASIS_CORR rimp2-def2-QZVPPD
method DSD-PBEPBE-D3
GEN_SCFMAN TRUE
UNRESTRICTED True
THRESH  14
SCF_CONVERGENCE 7
SYMMETRY FALSE
SYM_IGNORE TRUE
max_scf_cycles 200
scf_algorithm gdm

XC_GRID 000099000590
NL_GRID 000075000302
BASIS def2-QZVPPD


$end




