$molecule
0 1
  N   -2.316216968   0.025865889  -0.635392564
  H   -1.530163493  -0.606012743  -0.732090283
  H   -3.018810396  -0.250636993  -1.307480736
  C   -2.846316511  -0.034698180   0.725589642
  H   -3.668788163   0.672564309   0.831117187
  H   -3.206611440  -1.022075733   1.037110085
  H   -2.067201286   0.266183491   1.425892153
$end



$rem
N_FROZEN_CORE FC
MEM_TOTAL 3750
MEM_STATIC 1500
AUX_BASIS_CORR rimp2-def2-QZVPPD
method DSD-PBEPBE-D3
GEN_SCFMAN TRUE
UNRESTRICTED True
THRESH  14
SCF_CONVERGENCE 7
SYMMETRY FALSE
SYM_IGNORE TRUE
max_scf_cycles 200
scf_algorithm gdm

XC_GRID 000099000590
NL_GRID 000075000302
BASIS def2-QZVPPD


$end




