$molecule
0 1
  H   -0.396908896  -0.915906628   0.650271823
  H    3.742416653  -1.835679113  -0.057145151
  H    1.450834687  -2.566372260   0.533468081
  H    2.338862042   2.198603042  -0.404817880
  H    0.114069420   2.494527145   0.005329856
  H    4.176372213   0.557485299  -0.526046623
  C    2.938537961  -1.116355257  -0.004060259
  C    1.650573153  -1.524164550   0.327788387
  C    0.609280853  -0.610232055   0.399655449
  C    0.865995696   0.730722373   0.133757855
  C    2.148369959   1.152381776  -0.199590588
  C    3.181125590   0.225193399  -0.266871299
  O   -0.188164688   1.606367180   0.211635016
$end



$rem
N_FROZEN_CORE FC
MEM_TOTAL 7500
MEM_STATIC 3000
AUX_BASIS_CORR rimp2-def2-QZVPPD
method DSD-PBEPBE-D3
GEN_SCFMAN TRUE
UNRESTRICTED True
THRESH  14
SCF_CONVERGENCE 7
SYMMETRY FALSE
SYM_IGNORE TRUE
max_scf_cycles 200
scf_algorithm gdm

XC_GRID 000099000590
NL_GRID 000075000302
BASIS def2-QZVPPD


$end




