$molecule
0 1
  H    2.275268804   2.278579022   0.877904238
  H    3.729855513   1.703853613   0.000000000
  H    2.275268804   2.278579022  -0.877904238
  H    2.645019245  -2.364598192  -0.876967692
  H    1.182037024  -1.815608929   0.000000000
  H    2.645019245  -2.364598192   0.876967692
  C    2.641493274   1.746305333   0.000000000
  N    2.046125376   0.413397712   0.000000000
  N    2.865678872  -0.503431382   0.000000000
  C    2.271565828  -1.836050890   0.000000000
$end



$rem
N_FROZEN_CORE FC
MEM_TOTAL 3750
MEM_STATIC 1500
AUX_BASIS_CORR rimp2-def2-QZVPPD
method DSD-PBEPBE-D3
GEN_SCFMAN TRUE
UNRESTRICTED True
THRESH  14
SCF_CONVERGENCE 7
SYMMETRY FALSE
SYM_IGNORE TRUE
max_scf_cycles 200
scf_algorithm gdm

XC_GRID 000099000590
NL_GRID 000075000302
BASIS def2-QZVPPD


$end




