$molecule
0 1
  H    1.264597513  -2.555053642  -0.496712876
  H    1.370116232  -1.920119749   1.178014614
  H   -0.213125666  -2.120167395   0.350958067
  H    1.067566071   2.317091962   0.489361080
  H    1.016547610   1.688719993  -1.188870234
  H    2.572428451   1.937218520  -0.332573981
  C    0.838776070  -1.861245505   0.228225026
  N    0.893572652  -0.521142479  -0.346870830
  N    1.499869344   0.295897702   0.344043623
  C    1.529518849   1.638296928  -0.227778905
$end



$rem
N_FROZEN_CORE FC
MEM_TOTAL 3750
MEM_STATIC 1500
AUX_BASIS_CORR rimp2-def2-QZVPPD
method DSD-PBEPBE-D3
GEN_SCFMAN TRUE
UNRESTRICTED True
THRESH  14
SCF_CONVERGENCE 7
SYMMETRY FALSE
SYM_IGNORE TRUE
max_scf_cycles 200
scf_algorithm gdm

XC_GRID 000099000590
NL_GRID 000075000302
BASIS def2-QZVPPD


$end




