$molecule
0 1
  C   -1.632836033   0.195414211  -0.006233081
  H   -0.624803912   0.547640871  -0.013199587
  C   -2.759699298  -0.208009732   0.000603703
  H   -3.759789351  -0.562414637   0.007102688
  O    1.499998666   0.638146390   0.024254433
  H    2.181728485   1.265666975  -0.223020658
  C    2.036408414  -0.681460402  -0.005591660
  H    1.222008019  -1.355722254   0.247078832
  H    2.411034965  -0.945086194  -0.997114918
  H    2.835606360  -0.809185391   0.727865032
$end



$rem
N_FROZEN_CORE FC
MEM_TOTAL 3750
MEM_STATIC 1500
AUX_BASIS_CORR rimp2-def2-QZVPPD
method DSD-PBEPBE-D3
GEN_SCFMAN TRUE
UNRESTRICTED True
THRESH  14
SCF_CONVERGENCE 7
SYMMETRY FALSE
SYM_IGNORE TRUE
max_scf_cycles 200
scf_algorithm gdm

XC_GRID 000099000590
NL_GRID 000075000302
BASIS def2-QZVPPD


$end




