$molecule
0 1
  H    2.227508385  -2.189629045  -0.919446302
  H    1.987700005  -1.293613109  -2.444775087
  H    0.829333047  -1.090957803  -1.106079904
  H    3.673157924   0.350255287   2.066074593
  H    4.511546958  -0.583248207   0.795026917
  H    4.202955792   1.162584297   0.570763711
  C    1.875517551  -1.256517312  -1.362238590
  O    2.684279363  -0.164174373  -0.961842083
  O    2.529567897  -0.059242610   0.485276553
  C    3.816692609   0.233805102   0.992951642
$end



$rem
N_FROZEN_CORE FC
MEM_TOTAL 3750
MEM_STATIC 1500
AUX_BASIS_CORR rimp2-def2-QZVPPD
method DSD-PBEPBE-D3
GEN_SCFMAN TRUE
UNRESTRICTED True
THRESH  14
SCF_CONVERGENCE 7
SYMMETRY FALSE
SYM_IGNORE TRUE
max_scf_cycles 200
scf_algorithm gdm

XC_GRID 000099000590
NL_GRID 000075000302
BASIS def2-QZVPPD


$end




