$molecule
0 1
  C    2.565653305  -1.275446016   0.000000000
  H    2.529294854  -1.917831945   0.877773548
  H    2.529294854  -1.917831945  -0.877773548
  H    3.503152005  -0.723061870   0.000000000
  C    1.342099601  -0.388243760   0.000000000
  O    0.213208949  -0.866855143   0.000000000
  N    1.563992160   0.942719865   0.000000000
  H    2.511359212   1.271102431   0.000000000
  C    0.481417307   1.914828975   0.000000000
  H   -0.149973609   1.795616014   0.878062348
  H   -0.149973609   1.795616014  -0.878062348
  H    0.911504697   2.912096870   0.000000000
$end



$rem
N_FROZEN_CORE FC
MEM_TOTAL 3750
MEM_STATIC 1500
AUX_BASIS_CORR rimp2-def2-QZVPPD
method DSD-PBEPBE-D3
GEN_SCFMAN TRUE
UNRESTRICTED True
THRESH  14
SCF_CONVERGENCE 7
SYMMETRY FALSE
SYM_IGNORE TRUE
max_scf_cycles 200
scf_algorithm gdm

XC_GRID 000099000590
NL_GRID 000075000302
BASIS def2-QZVPPD


$end




