$molecule
0 1
  H    1.460874612  -1.706457457  -0.921643441
  H    2.069562482  -1.661956445   0.720247802
  H    0.352980787  -1.175969316   0.409024102
  C    1.374319670  -1.179900380   0.030490162
  N    1.899760556   0.180096078  -0.199890236
  O    1.131730578   1.061930818   0.075731870
$end



$rem
N_FROZEN_CORE FC
MEM_TOTAL 3750
MEM_STATIC 1500
AUX_BASIS_CORR rimp2-def2-QZVPPD
method DSD-PBEPBE-D3
GEN_SCFMAN TRUE
UNRESTRICTED True
THRESH  14
SCF_CONVERGENCE 7
SYMMETRY FALSE
SYM_IGNORE TRUE
max_scf_cycles 200
scf_algorithm gdm

XC_GRID 000099000590
NL_GRID 000075000302
BASIS def2-QZVPPD


$end




