$molecule
0 1
  H    1.499341001  -1.883695637   0.844802401
  H    0.054416457  -1.633929104  -0.156860256
  H    1.665781861  -1.855979060  -0.898523134
  H    2.864189080   1.592198440   0.101192042
  H    3.419436922  -0.024292938   0.616027527
  C    1.114650745  -1.418570352  -0.065539522
  C    1.360720815   0.066900512   0.007404407
  O    0.456113165   0.865783355   0.141059490
  C    2.794097111   0.525596341  -0.088174026
  H    3.177040733   0.307135277  -1.086961966
$end



$rem
N_FROZEN_CORE FC
MEM_TOTAL 3750
MEM_STATIC 1500
AUX_BASIS_CORR rimp2-def2-QZVPPD
method DSD-PBEPBE-D3
GEN_SCFMAN TRUE
UNRESTRICTED True
THRESH  14
SCF_CONVERGENCE 7
SYMMETRY FALSE
SYM_IGNORE TRUE
max_scf_cycles 200
scf_algorithm gdm

XC_GRID 000099000590
NL_GRID 000075000302
BASIS def2-QZVPPD


$end




