$molecule
0 1
  H   -1.625251837  -0.166140828   1.642542880
  H   -2.639643952  -1.259606220   0.643247897
  H   -3.295590451   0.304339857   1.285677232
  C   -2.424056603  -0.223804707   0.900192438
  N   -1.929311976   0.531322121  -0.260080785
  O   -1.670524621  -0.144407542  -1.219698352
$end



$rem
N_FROZEN_CORE FC
MEM_TOTAL 3750
MEM_STATIC 1500
AUX_BASIS_CORR rimp2-def2-QZVPPD
method DSD-PBEPBE-D3
GEN_SCFMAN TRUE
UNRESTRICTED True
THRESH  14
SCF_CONVERGENCE 7
SYMMETRY FALSE
SYM_IGNORE TRUE
max_scf_cycles 200
scf_algorithm gdm

XC_GRID 000099000590
NL_GRID 000075000302
BASIS def2-QZVPPD


$end




