$molecule
0 1
  H   -3.250283383  -0.913303673   0.129661131
  H   -1.833395115  -1.480637986  -0.761771305
  H   -1.959629486  -1.750069976   0.987774805
  H   -0.552484573   0.091388698   0.689140218
  H   -1.149261409   2.117943164  -0.319358253
  H   -2.743438237   1.468646557  -0.690877702
  H   -1.328997393   0.852093951  -1.551213321
  C   -2.167081056  -1.036714141   0.191076396
  N   -1.538664890   0.234629209   0.494599982
  C   -1.690296186   1.206434385  -0.570710455
$end



$rem
N_FROZEN_CORE FC
MEM_TOTAL 3750
MEM_STATIC 1500
AUX_BASIS_CORR rimp2-def2-QZVPPD
method DSD-PBEPBE-D3
GEN_SCFMAN TRUE
UNRESTRICTED True
THRESH  14
SCF_CONVERGENCE 7
SYMMETRY FALSE
SYM_IGNORE TRUE
max_scf_cycles 200
scf_algorithm gdm

XC_GRID 000099000590
NL_GRID 000075000302
BASIS def2-QZVPPD


$end




