$molecule
0 1
  C    1.604751767  -1.393050016  -1.186149947
  H    1.760394030  -2.389143286  -0.774418709
  H    2.078821927  -1.368178832  -2.165724929
  H    0.538072931  -1.208957254  -1.294824905
  C    2.292519227  -0.382798403  -0.287303780
  O    3.496462472  -0.425778644  -0.076753708
  N    1.484769772   0.551972131   0.260385790
  H    0.486994292   0.544932123   0.058306453
  C    2.014066598   1.570676487   1.141621280
  H    2.730422756   2.210415601   0.625064476
  H    1.188567630   2.180069234   1.501985066
  H    2.528360606   1.124978923   1.993044021
$end



$rem
N_FROZEN_CORE FC
MEM_TOTAL 3750
MEM_STATIC 1500
AUX_BASIS_CORR rimp2-def2-QZVPPD
method DSD-PBEPBE-D3
GEN_SCFMAN TRUE
UNRESTRICTED True
THRESH  14
SCF_CONVERGENCE 7
SYMMETRY FALSE
SYM_IGNORE TRUE
max_scf_cycles 200
scf_algorithm gdm

XC_GRID 000099000590
NL_GRID 000075000302
BASIS def2-QZVPPD


$end




