$molecule
0 1
  H   -0.202087104   0.717282468   1.731624390
  H   -3.237581504  -2.195061328   0.884930410
  H   -1.437378863  -1.335263773   2.352174891
  H   -2.554148624   1.056038950  -1.822181260
  H   -0.917822130   2.530007337  -1.181017896
  H   -3.798049782  -0.981352705  -1.199385034
  C   -2.700901130  -1.297038957   0.617617275
  C   -1.690379357  -0.812506875   1.441126354
  C   -0.993422477   0.337929395   1.103375306
  C   -1.307604908   1.003382881  -0.074870075
  C   -2.318976988   0.533967181  -0.903208721
  C   -3.014186702  -0.616305970  -0.551394603
  O   -0.555999897   2.109356631  -0.396194011
$end



$rem
N_FROZEN_CORE FC
MEM_TOTAL 7500
MEM_STATIC 3000
AUX_BASIS_CORR rimp2-def2-QZVPPD
method DSD-PBEPBE-D3
GEN_SCFMAN TRUE
UNRESTRICTED True
THRESH  14
SCF_CONVERGENCE 7
SYMMETRY FALSE
SYM_IGNORE TRUE
max_scf_cycles 200
scf_algorithm gdm

XC_GRID 000099000590
NL_GRID 000075000302
BASIS def2-QZVPPD


$end




