$molecule
0 1
  N    1.400011094   0.590126126   0.332033260
  H    1.605487033   0.655972265   1.320229476
  H    1.800631933   1.409079103  -0.106654200
  C    1.960892139  -0.638396160  -0.242084504
  H    1.693776595  -0.691501936  -1.295705972
  H    3.048153765  -0.720136210  -0.155958378
  H    1.513445069  -1.498924472   0.251950450
$end



$rem
N_FROZEN_CORE FC
MEM_TOTAL 3750
MEM_STATIC 1500
AUX_BASIS_CORR rimp2-def2-QZVPPD
method DSD-PBEPBE-D3
GEN_SCFMAN TRUE
UNRESTRICTED True
THRESH  14
SCF_CONVERGENCE 7
SYMMETRY FALSE
SYM_IGNORE TRUE
max_scf_cycles 200
scf_algorithm gdm

XC_GRID 000099000590
NL_GRID 000075000302
BASIS def2-QZVPPD


$end




