$molecule
0 1
  H    3.239928312  -0.062996918  -0.329136704
  H    2.975176518   1.472751385   0.503691359
  H    2.729698193  -0.060525184   1.346749608
  H    0.525782011   2.338480008   0.677432914
  H    2.001630486  -2.056711760  -0.717386641
  H    1.502303580  -2.049186713   0.974190693
  H    0.429117851  -2.714268755  -0.259245618
  H    1.038973514   2.341994594  -0.996023791
  H   -0.536762951   1.637694982  -0.565919355
  C    1.162307190   0.430447122  -0.046842156
  N    0.499766191  -0.634416028  -0.248818616
  C    1.143919954  -1.921775558  -0.051688271
  C    0.494821845   1.759572423  -0.248788433
  C    2.607797457   0.456033393   0.393232321
$end



$rem
N_FROZEN_CORE FC
MEM_TOTAL 3750
MEM_STATIC 1500
AUX_BASIS_CORR rimp2-def2-QZVPPD
method DSD-PBEPBE-D3
GEN_SCFMAN TRUE
UNRESTRICTED True
THRESH  14
SCF_CONVERGENCE 7
SYMMETRY FALSE
SYM_IGNORE TRUE
max_scf_cycles 200
scf_algorithm gdm

XC_GRID 000099000590
NL_GRID 000075000302
BASIS def2-QZVPPD


$end




