$molecule
0 1
  H   -1.479926821  -1.576119023   0.876067438
  H   -1.479926821  -1.576119023  -0.876067438
  H    0.078263279  -1.309308659   0.000000000
  C   -0.996162043  -1.140719860   0.000000000
  N   -1.356856010   0.287076299   0.000000000
  O   -0.422511137   1.043878112   0.000000000
$end



$rem
N_FROZEN_CORE FC
MEM_TOTAL 3750
MEM_STATIC 1500
AUX_BASIS_CORR rimp2-def2-QZVPPD
method DSD-PBEPBE-D3
GEN_SCFMAN TRUE
UNRESTRICTED True
THRESH  14
SCF_CONVERGENCE 7
SYMMETRY FALSE
SYM_IGNORE TRUE
max_scf_cycles 200
scf_algorithm gdm

XC_GRID 000099000590
NL_GRID 000075000302
BASIS def2-QZVPPD


$end




