$molecule
0 1
  H   -3.368801103  -2.317259166   0.000018678
  H   -0.927287546  -1.850904195   0.000016568
  C   -3.887107889  -0.224307201   0.000001034
  C   -3.009258735  -1.299037823   0.000010458
  C   -1.645457971  -1.040549927   0.000009340
  N   -1.139352000   0.193166363  -0.000000240
  C   -1.988570139   1.220983614  -0.000009496
  C   -3.367564363   1.062625419  -0.000009207
  H   -1.545282028   2.208574582  -0.000017274
  H   -4.013315317   1.928136418  -0.000016634
  H   -4.955606269  -0.386367728   0.000001581
$end



$rem
N_FROZEN_CORE FC
MEM_TOTAL 3750
MEM_STATIC 1500
AUX_BASIS_CORR rimp2-def2-QZVPPD
method DSD-PBEPBE-D3
GEN_SCFMAN TRUE
UNRESTRICTED True
THRESH  14
SCF_CONVERGENCE 7
SYMMETRY FALSE
SYM_IGNORE TRUE
max_scf_cycles 200
scf_algorithm gdm

XC_GRID 000099000590
NL_GRID 000075000302
BASIS def2-QZVPPD


$end




