$molecule
0 1
  H   -0.292583670  -0.139246108   1.877098911
  H    2.754520722   2.232070414   0.015039075
  H    1.039617097   1.924635204   1.780747916
  H    1.781438320  -1.633720046  -1.556326418
  H   -1.037862865  -2.092457594   0.590060884
  H    3.115641217   0.426520574  -1.646084773
  H   -0.072436816  -2.780997715  -0.583711544
  C    2.168333910   1.326051686   0.056449133
  C    1.205243531   1.150445245   1.044098338
  C    0.451151911  -0.011310767   1.103243498
  C    0.642548119  -1.032377940   0.163728233
  C    1.617676205  -0.853375533  -0.824374796
  C    2.369142926   0.310972383  -0.872497740
  N   -0.097621838  -2.205425276   0.241343256
$end



$rem
N_FROZEN_CORE FC
MEM_TOTAL 7500
MEM_STATIC 3000
AUX_BASIS_CORR rimp2-def2-QZVPPD
method DSD-PBEPBE-D3
GEN_SCFMAN TRUE
UNRESTRICTED True
THRESH  14
SCF_CONVERGENCE 7
SYMMETRY FALSE
SYM_IGNORE TRUE
max_scf_cycles 200
scf_algorithm gdm

XC_GRID 000099000590
NL_GRID 000075000302
BASIS def2-QZVPPD


$end




