$molecule
0 1
  H   -1.811591436  -2.297506266  -0.214255093
  H   -4.465968539   0.853200008   0.994655395
  H   -3.987160005  -1.560723746   0.717053971
  H   -0.587517965   1.778982586  -0.585421635
  H    0.716014661  -0.013157309  -1.139574506
  H   -2.756196530   2.519453998   0.337586532
  C   -3.517935997   0.529670220   0.590928251
  C   -3.247109225  -0.825330403   0.434579676
  C   -2.031711454  -1.247869494  -0.084220334
  C   -1.077545279  -0.304983999  -0.450417877
  C   -1.336913397   1.053756182  -0.298850834
  C   -2.557930883   1.463277384   0.221699918
  O    0.111333231  -0.759532907  -0.955877787
$end



$rem
N_FROZEN_CORE FC
MEM_TOTAL 7500
MEM_STATIC 3000
AUX_BASIS_CORR rimp2-def2-QZVPPD
method DSD-PBEPBE-D3
GEN_SCFMAN TRUE
UNRESTRICTED True
THRESH  14
SCF_CONVERGENCE 7
SYMMETRY FALSE
SYM_IGNORE TRUE
max_scf_cycles 200
scf_algorithm gdm

XC_GRID 000099000590
NL_GRID 000075000302
BASIS def2-QZVPPD


$end




