$molecule
0 1
  H    3.293758499   0.750361027   1.305527015
  H    1.686415445   0.162353458   1.743221713
  H    1.902955535   1.825613159   1.168420634
  H    1.125934981   0.614068102  -0.666736051
  H    2.177140139  -1.223607960  -1.645777661
  H    3.478176579  -1.129229021  -0.458138273
  H    1.889946847  -1.697234291   0.041277063
  C    2.238449258   0.799457593   1.029873513
  N    2.068953461   0.411783979  -0.355469290
  C    2.409370137  -0.969106537  -0.613203039
$end



$rem
N_FROZEN_CORE FC
MEM_TOTAL 3750
MEM_STATIC 1500
AUX_BASIS_CORR rimp2-def2-QZVPPD
method DSD-PBEPBE-D3
GEN_SCFMAN TRUE
UNRESTRICTED True
THRESH  14
SCF_CONVERGENCE 7
SYMMETRY FALSE
SYM_IGNORE TRUE
max_scf_cycles 200
scf_algorithm gdm

XC_GRID 000099000590
NL_GRID 000075000302
BASIS def2-QZVPPD


$end




