$molecule
0 1
  H   -2.198485114  -1.632515646  -0.579160224
  H   -3.547775912  -0.772832139   0.135784159
  H   -2.079712957  -1.065742932   1.109926407
  H   -2.234699197   0.765791876  -1.392856319
  C   -2.457279360  -0.833322570   0.118174062
  C   -1.897222974   0.462849020  -0.381782110
  O   -1.134168957   1.163472671   0.232681545
$end



$rem
N_FROZEN_CORE FC
MEM_TOTAL 3750
MEM_STATIC 1500
AUX_BASIS_CORR rimp2-def2-QZVPPD
method DSD-PBEPBE-D3
GEN_SCFMAN TRUE
UNRESTRICTED True
THRESH  14
SCF_CONVERGENCE 7
SYMMETRY FALSE
SYM_IGNORE TRUE
max_scf_cycles 200
scf_algorithm gdm

XC_GRID 000099000590
NL_GRID 000075000302
BASIS def2-QZVPPD


$end




