$molecule
0 1
  H    1.737852329  -1.761050403   0.000000000
  H    3.220186605  -1.331685156  -0.886775002
  H    3.220186605  -1.331685156   0.886775002
  C    2.623440995  -1.127036415   0.000000000
  C    2.178082994   0.251759906   0.000000000
  N    1.778792694   1.328779066   0.000000000
$end



$rem
N_FROZEN_CORE FC
MEM_TOTAL 3750
MEM_STATIC 1500
AUX_BASIS_CORR rimp2-def2-QZVPPD
method DSD-PBEPBE-D3
GEN_SCFMAN TRUE
UNRESTRICTED True
THRESH  14
SCF_CONVERGENCE 7
SYMMETRY FALSE
SYM_IGNORE TRUE
max_scf_cycles 200
scf_algorithm gdm

XC_GRID 000099000590
NL_GRID 000075000302
BASIS def2-QZVPPD


$end




