$molecule
0 1
  H    3.918243270   0.332777825  -1.914337223
  H    1.469110248   0.702800871  -2.096145663
  C    3.801107180  -0.209456094   0.169155493
  C    3.280896894   0.186938164  -1.054897560
  C    1.912211744   0.394447277  -1.157757341
  N    1.073104897   0.230887879  -0.134712263
  C    1.580258807  -0.150427249   1.038036674
  C    2.934005138  -0.382203534   1.238803479
  H    0.870927905  -0.275704016   1.846592187
  H    3.294259051  -0.690317730   2.209035316
  H    4.861585965  -0.380929563   0.286954802
$end



$rem
N_FROZEN_CORE FC
MEM_TOTAL 3750
MEM_STATIC 1500
AUX_BASIS_CORR rimp2-def2-QZVPPD
method DSD-PBEPBE-D3
GEN_SCFMAN TRUE
UNRESTRICTED True
THRESH  14
SCF_CONVERGENCE 7
SYMMETRY FALSE
SYM_IGNORE TRUE
max_scf_cycles 200
scf_algorithm gdm

XC_GRID 000099000590
NL_GRID 000075000302
BASIS def2-QZVPPD


$end




