$molecule
0 1
  H   -1.484739676  -2.404787069   0.245426547
  H   -1.861017011  -1.447156479  -1.214646250
  H   -0.166551639  -1.529404495  -0.616288004
  C   -1.219026747  -1.534165478  -0.341673449
  O   -1.474391421  -0.394246630   0.545379775
  C   -1.104858440   0.748083159   0.102336187
  N   -0.779507848   1.796786132  -0.258056334
$end



$rem
N_FROZEN_CORE FC
MEM_TOTAL 3750
MEM_STATIC 1500
AUX_BASIS_CORR rimp2-def2-QZVPPD
method DSD-PBEPBE-D3
GEN_SCFMAN TRUE
UNRESTRICTED True
THRESH  14
SCF_CONVERGENCE 7
SYMMETRY FALSE
SYM_IGNORE TRUE
max_scf_cycles 200
scf_algorithm gdm

XC_GRID 000099000590
NL_GRID 000075000302
BASIS def2-QZVPPD


$end




