$molecule
0 1
  N    3.293608576  -0.214715014   0.308420115
  H    3.256564008  -0.988699119   0.958876245
  H    4.227786454   0.168737543   0.367564579
  C    2.999825480  -0.669279287  -1.056059660
  H    3.050897226   0.181589861  -1.733351707
  H    3.675338987  -1.444647987  -1.429513350
  H    1.981724525  -1.052031760  -1.091943500
$end



$rem
N_FROZEN_CORE FC
MEM_TOTAL 3750
MEM_STATIC 1500
AUX_BASIS_CORR rimp2-def2-QZVPPD
method DSD-PBEPBE-D3
GEN_SCFMAN TRUE
UNRESTRICTED True
THRESH  14
SCF_CONVERGENCE 7
SYMMETRY FALSE
SYM_IGNORE TRUE
max_scf_cycles 200
scf_algorithm gdm

XC_GRID 000099000590
NL_GRID 000075000302
BASIS def2-QZVPPD


$end




