$molecule
0 1
  H    2.892415195  -1.092790432   1.796875701
  H    1.546160282  -1.359369950   0.728076273
  H    4.835940984   0.689764916  -0.329936765
  H    4.570438558   0.413490923   1.403571257
  H    3.905376153   1.850006243   0.602334579
  O    2.252303967   0.365737278  -0.930725530
  C    2.849949434   0.077372323   0.103726061
  N    2.407920671  -0.878626548   0.946634740
  C    4.123542563   0.789886188   0.486313610
$end



$rem
N_FROZEN_CORE FC
MEM_TOTAL 3750
MEM_STATIC 1500
AUX_BASIS_CORR rimp2-def2-QZVPPD
method DSD-PBEPBE-D3
GEN_SCFMAN TRUE
UNRESTRICTED True
THRESH  14
SCF_CONVERGENCE 7
SYMMETRY FALSE
SYM_IGNORE TRUE
max_scf_cycles 200
scf_algorithm gdm

XC_GRID 000099000590
NL_GRID 000075000302
BASIS def2-QZVPPD


$end




