$molecule
0 1
  H    3.919558627   0.874786789  -1.398296829
  H    3.919558627  -0.874786789  -1.398296829
  H    4.500468297   0.000000000   0.048294735
  H    1.573463980   0.000000000  -0.994059120
  C    3.775223990   0.000000000  -0.760313289
  C    2.376856472   0.000000000  -0.233435971
  O    2.089994434   0.000000000   0.940100219
$end



$rem
N_FROZEN_CORE FC
MEM_TOTAL 3750
MEM_STATIC 1500
AUX_BASIS_CORR rimp2-def2-QZVPPD
method DSD-PBEPBE-D3
GEN_SCFMAN TRUE
UNRESTRICTED True
THRESH  14
SCF_CONVERGENCE 7
SYMMETRY FALSE
SYM_IGNORE TRUE
max_scf_cycles 200
scf_algorithm gdm

XC_GRID 000099000590
NL_GRID 000075000302
BASIS def2-QZVPPD


$end




