$molecule
0 1
  H    1.298954532   1.938539784  -0.833116536
  H   -0.215605525   1.449410104  -0.032827700
  H    1.220743807   1.893432440   0.915991509
  H    3.055234049  -1.320155237   0.032881542
  H    3.250161444   0.158087262  -0.938386789
  C    0.867624942   1.397275244   0.010133635
  C    1.337360995  -0.038083409   0.003609125
  O    0.561233694  -0.967641847   0.018062314
  C    2.830877968  -0.259428816  -0.021216171
  H    3.305422360   0.265005776   0.809412404
$end



$rem
N_FROZEN_CORE FC
MEM_TOTAL 3750
MEM_STATIC 1500
AUX_BASIS_CORR rimp2-def2-QZVPPD
method DSD-PBEPBE-D3
GEN_SCFMAN TRUE
UNRESTRICTED True
THRESH  14
SCF_CONVERGENCE 7
SYMMETRY FALSE
SYM_IGNORE TRUE
max_scf_cycles 200
scf_algorithm gdm

XC_GRID 000099000590
NL_GRID 000075000302
BASIS def2-QZVPPD


$end




