$molecule
0 1
  O   -1.874955420  -0.268202894   0.628684780
  H   -2.559328796   0.076793309   1.205627903
  C   -2.125121057   0.158482696  -0.707157405
  H   -1.323735408  -0.246125140  -1.319686970
  H   -2.112450357   1.247170472  -0.796212097
  H   -3.077315643  -0.222858853  -1.082582187
$end



$rem
N_FROZEN_CORE FC
MEM_TOTAL 3750
MEM_STATIC 1500
AUX_BASIS_CORR rimp2-def2-QZVPPD
method DSD-PBEPBE-D3
GEN_SCFMAN TRUE
UNRESTRICTED True
THRESH  14
SCF_CONVERGENCE 7
SYMMETRY FALSE
SYM_IGNORE TRUE
max_scf_cycles 200
scf_algorithm gdm

XC_GRID 000099000590
NL_GRID 000075000302
BASIS def2-QZVPPD


$end




