$molecule
0 1
  H   -4.020936171   0.859951265  -0.000000000
  H   -2.099956627  -1.936823498  -0.876714140
  H   -2.099956627  -1.936823498   0.876714140
  H   -0.674244743  -1.326254702  -0.000000000
  O   -1.752417683   1.028216837  -0.000000000
  C   -2.358431791  -0.017529669  -0.000000000
  O   -3.704883938  -0.054539959  -0.000000000
  C   -1.756250595  -1.389667455  -0.000000000
$end



$rem
N_FROZEN_CORE FC
MEM_TOTAL 3750
MEM_STATIC 1500
AUX_BASIS_CORR rimp2-def2-QZVPPD
method DSD-PBEPBE-D3
GEN_SCFMAN TRUE
UNRESTRICTED True
THRESH  14
SCF_CONVERGENCE 7
SYMMETRY FALSE
SYM_IGNORE TRUE
max_scf_cycles 200
scf_algorithm gdm

XC_GRID 000099000590
NL_GRID 000075000302
BASIS def2-QZVPPD


$end




