$molecule
0 1
  H   -3.039539983   0.513632792   0.875968190
  H   -3.371196375  -0.984673163   0.000000000
  H   -3.039539983   0.513632792  -0.875968190
  H   -1.319844096  -2.341451483  -0.876070530
  H   -1.329331994   2.170917241   0.882197754
  H   -1.329331994   2.170917241  -0.882197754
  H    0.163556670   2.501759802   0.000000000
  H   -1.319844096  -2.341451483   0.876070530
  H    0.175198923  -1.950726977   0.000000000
  C   -1.292421156  -0.388472574   0.000000000
  N   -0.378964926   0.493052434   0.000000000
  C   -0.742110571   1.900077083   0.000000000
  C   -0.904672443  -1.838332472   0.000000000
  C   -2.770735768  -0.078897909   0.000000000
$end



$rem
N_FROZEN_CORE FC
MEM_TOTAL 3750
MEM_STATIC 1500
AUX_BASIS_CORR rimp2-def2-QZVPPD
method DSD-PBEPBE-D3
GEN_SCFMAN TRUE
UNRESTRICTED True
THRESH  14
SCF_CONVERGENCE 7
SYMMETRY FALSE
SYM_IGNORE TRUE
max_scf_cycles 200
scf_algorithm gdm

XC_GRID 000099000590
NL_GRID 000075000302
BASIS def2-QZVPPD


$end




