$molecule
0 1
  H   -2.177533018   1.442931717   1.244766908
  H   -3.301494169   0.704711837   0.080828761
  H   -1.835817211   1.530619971  -0.498330816
  H   -0.932146139  -1.967233126  -0.533636297
  H   -2.542469575  -1.375836258  -1.002528840
  H   -1.081989695  -0.534549870  -1.574293952
  C   -2.248055532   0.906603662   0.302111163
  O   -1.516802075  -0.293597768   0.443135134
  C   -1.524097988  -1.077537651  -0.732191664
$end



$rem
N_FROZEN_CORE FC
MEM_TOTAL 3750
MEM_STATIC 1500
AUX_BASIS_CORR rimp2-def2-QZVPPD
method DSD-PBEPBE-D3
GEN_SCFMAN TRUE
UNRESTRICTED True
THRESH  14
SCF_CONVERGENCE 7
SYMMETRY FALSE
SYM_IGNORE TRUE
max_scf_cycles 200
scf_algorithm gdm

XC_GRID 000099000590
NL_GRID 000075000302
BASIS def2-QZVPPD


$end




