$molecule
0 1
  H    2.004943888   1.727033527   0.875557006
  H    2.004943888   1.727033527  -0.875557006
  H    0.548632130   1.099158806   0.000000000
  C    1.635542562   1.189504088   0.000000000
  N    2.320876672  -0.117799410   0.000000000
  O    1.579852910  -1.063145924   0.000000000
$end



$rem
N_FROZEN_CORE FC
MEM_TOTAL 3750
MEM_STATIC 1500
AUX_BASIS_CORR rimp2-def2-QZVPPD
method DSD-PBEPBE-D3
GEN_SCFMAN TRUE
UNRESTRICTED True
THRESH  14
SCF_CONVERGENCE 7
SYMMETRY FALSE
SYM_IGNORE TRUE
max_scf_cycles 200
scf_algorithm gdm

XC_GRID 000099000590
NL_GRID 000075000302
BASIS def2-QZVPPD


$end




