$molecule
0 1
  N    2.784541508   0.103314361  -0.094698501
  H    2.172857809  -0.019124213  -0.892716447
  H    3.729556178   0.182788472  -0.444855678
  C    2.407637104   1.303876314   0.650204116
  H    3.077511932   1.431160073   1.500190734
  H    2.418277651   2.231242599   0.066674136
  H    1.401704987   1.178650296   1.051307145
$end



$rem
N_FROZEN_CORE FC
MEM_TOTAL 3750
MEM_STATIC 1500
AUX_BASIS_CORR rimp2-def2-QZVPPD
method DSD-PBEPBE-D3
GEN_SCFMAN TRUE
UNRESTRICTED True
THRESH  14
SCF_CONVERGENCE 7
SYMMETRY FALSE
SYM_IGNORE TRUE
max_scf_cycles 200
scf_algorithm gdm

XC_GRID 000099000590
NL_GRID 000075000302
BASIS def2-QZVPPD


$end




