$molecule
0 1
  H    3.324946752   1.321814958   0.019734746
  H    2.032048822   1.226305196  -1.180803076
  H    1.767360146   2.070425821   0.358536725
  H    0.785471271  -0.041691923   0.554950738
  H    1.907769512  -2.089143503   0.428780634
  H    3.412727945  -1.249253617   0.066570360
  H    2.119383040  -1.281306009  -1.137614097
  C    2.245821590   1.204989119  -0.098678281
  N    1.800839776  -0.007811466   0.560405562
  C    2.328605459  -1.209523646  -0.057092692
$end



$rem
N_FROZEN_CORE FC
MEM_TOTAL 3750
MEM_STATIC 1500
AUX_BASIS_CORR rimp2-def2-QZVPPD
method DSD-PBEPBE-D3
GEN_SCFMAN TRUE
UNRESTRICTED True
THRESH  14
SCF_CONVERGENCE 7
SYMMETRY FALSE
SYM_IGNORE TRUE
max_scf_cycles 200
scf_algorithm gdm

XC_GRID 000099000590
NL_GRID 000075000302
BASIS def2-QZVPPD


$end




