$molecule
0 1
  H   -0.375067952  -1.257558271  -0.132791881
  H    1.233731948  -2.064649537  -0.073966372
  H    0.661772453  -1.247899946  -1.571193252
  C    0.652075303  -1.250969970  -0.486012732
  N    1.263621921   0.037930559  -0.036194694
  O    0.739730531   1.064226369  -0.440385800
  O    2.231290245  -0.014492643   0.697014759
$end



$rem
N_FROZEN_CORE FC
MEM_TOTAL 3750
MEM_STATIC 1500
AUX_BASIS_CORR rimp2-def2-QZVPPD
method DSD-PBEPBE-D3
GEN_SCFMAN TRUE
UNRESTRICTED True
THRESH  14
SCF_CONVERGENCE 7
SYMMETRY FALSE
SYM_IGNORE TRUE
max_scf_cycles 200
scf_algorithm gdm

XC_GRID 000099000590
NL_GRID 000075000302
BASIS def2-QZVPPD


$end




