$molecule
0 1
  H    1.488864990   0.425224049  -2.102696974
  H    3.826372294  -0.727365895  -1.355832704
  H    3.826372294  -0.727365895   1.355832704
  H    1.488864990   0.425224049   2.102696974
  N    1.170203652   0.586023419   0.000000000
  C    1.874717223   0.231131134  -1.118416757
  C    3.052389622  -0.351049769  -0.710455955
  C    3.052389622  -0.351049769   0.710455955
  C    1.874717223   0.231131134   1.118416757
  H    0.235991546   0.971291779   0.000000000
$end



$rem
N_FROZEN_CORE FC
MEM_TOTAL 3750
MEM_STATIC 1500
AUX_BASIS_CORR rimp2-def2-QZVPPD
method DSD-PBEPBE-D3
GEN_SCFMAN TRUE
UNRESTRICTED True
THRESH  14
SCF_CONVERGENCE 7
SYMMETRY FALSE
SYM_IGNORE TRUE
max_scf_cycles 200
scf_algorithm gdm

XC_GRID 000099000590
NL_GRID 000075000302
BASIS def2-QZVPPD


$end




