$molecule
0 1
  O   -2.209904462  -0.054816560  -0.580258992
  H   -1.268469531   0.138886139  -0.486211999
  C   -2.913172988   0.611520510   0.453485531
  H   -3.962376405   0.338293244   0.361242537
  H   -2.833471641   1.699786965   0.370772775
  H   -2.566253773   0.312060799   1.447564622
  H    1.362854480  -2.140115329  -0.612291187
  H    1.186018258  -1.926436744   1.147543079
  H   -0.251835523  -2.072636961   0.116891906
  C    0.759089304  -1.685166454   0.173496090
  N    0.652561875  -0.226899143  -0.013444170
  N    1.706253585   0.400832498  -0.009370663
  N    2.612284221   1.071996504  -0.020794711
$end



$rem
N_FROZEN_CORE FC
MEM_TOTAL 3750
MEM_STATIC 1500
AUX_BASIS_CORR rimp2-def2-QZVPPD
method DSD-PBEPBE-D3
GEN_SCFMAN TRUE
UNRESTRICTED True
THRESH  14
SCF_CONVERGENCE 7
SYMMETRY FALSE
SYM_IGNORE TRUE
max_scf_cycles 200
scf_algorithm gdm

XC_GRID 000099000590
NL_GRID 000075000302
BASIS def2-QZVPPD


$end




