$molecule
0 1
  H    1.254656955  -2.667117429  -0.424767993
  H    1.757892603  -2.024118416   1.173019438
  H    0.035978920  -2.042333431   0.674802755
  H    1.877975016   2.203789622   0.386819570
  H    1.402082159   1.568298343  -1.220810465
  H    3.117934460   1.605890950  -0.702376455
  C    1.065226812  -1.913033507   0.339028510
  N    1.169177574  -0.599290005  -0.288075499
  N    1.996542989   0.140763304   0.241791127
  C    2.087323126   1.457810118  -0.379952811
$end



$rem
N_FROZEN_CORE FC
MEM_TOTAL 3750
MEM_STATIC 1500
AUX_BASIS_CORR rimp2-def2-QZVPPD
method DSD-PBEPBE-D3
GEN_SCFMAN TRUE
UNRESTRICTED True
THRESH  14
SCF_CONVERGENCE 7
SYMMETRY FALSE
SYM_IGNORE TRUE
max_scf_cycles 200
scf_algorithm gdm

XC_GRID 000099000590
NL_GRID 000075000302
BASIS def2-QZVPPD


$end




