$molecule
0 1
  H    2.279923631  -2.146595774  -0.715226266
  H    0.526333810  -2.052768780   1.035959814
  C    2.423618341   0.000003333  -0.855807421
  C    1.922776997  -1.193072936  -0.354852543
  C    0.941725240  -1.140359423   0.626771726
  N    0.454153638   0.000003904   1.116022048
  C    0.941710628   1.140366916   0.626756491
  C    1.922761713   1.193079856  -0.354868463
  H    0.526307534   2.052776381   1.035932383
  H    2.279896160   2.146602431  -0.715254930
  H    3.186413637   0.000003093  -1.621487567
$end



$rem
N_FROZEN_CORE FC
MEM_TOTAL 3750
MEM_STATIC 1500
AUX_BASIS_CORR rimp2-def2-QZVPPD
method DSD-PBEPBE-D3
GEN_SCFMAN TRUE
UNRESTRICTED True
THRESH  14
SCF_CONVERGENCE 7
SYMMETRY FALSE
SYM_IGNORE TRUE
max_scf_cycles 200
scf_algorithm gdm

XC_GRID 000099000590
NL_GRID 000075000302
BASIS def2-QZVPPD


$end




