$molecule
0 1
  H    3.264204778   0.189211123   2.178299589
  H    1.949501707   1.243980805   1.686332499
  H    1.821259184  -0.517186026   1.342445967
  C    2.492999487   0.334061452   1.421898263
  N    3.188146039   0.633804799   0.160935198
  O    2.808058414  -0.000420247  -0.788411436
$end



$rem
N_FROZEN_CORE FC
MEM_TOTAL 3750
MEM_STATIC 1500
AUX_BASIS_CORR rimp2-def2-QZVPPD
method DSD-PBEPBE-D3
GEN_SCFMAN TRUE
UNRESTRICTED True
THRESH  14
SCF_CONVERGENCE 7
SYMMETRY FALSE
SYM_IGNORE TRUE
max_scf_cycles 200
scf_algorithm gdm

XC_GRID 000099000590
NL_GRID 000075000302
BASIS def2-QZVPPD


$end




