$molecule
0 1
  H   -2.485082966  -2.098408763  -0.853968867
  H   -4.026688716   1.633785037   0.608197701
  H   -4.408134085  -0.625787465  -0.335467356
  H    0.202187250   0.938287260   0.498419350
  H    0.844002840  -1.135250954  -0.285488572
  H   -1.708447229   2.402091595   1.022330716
  C   -3.189942447   0.989890483   0.380545332
  C   -3.401094315  -0.279200002  -0.149294698
  C   -2.331630321  -1.111154080  -0.443130671
  C   -1.028436196  -0.676598944  -0.207090242
  C   -0.807793817   0.595126239   0.322073503
  C   -1.889341620   1.418023582   0.612344185
  O   -0.014457997  -1.527838895  -0.513668008
$end



$rem
N_FROZEN_CORE FC
MEM_TOTAL 7500
MEM_STATIC 3000
AUX_BASIS_CORR rimp2-def2-QZVPPD
method DSD-PBEPBE-D3
GEN_SCFMAN TRUE
UNRESTRICTED True
THRESH  14
SCF_CONVERGENCE 7
SYMMETRY FALSE
SYM_IGNORE TRUE
max_scf_cycles 200
scf_algorithm gdm

XC_GRID 000099000590
NL_GRID 000075000302
BASIS def2-QZVPPD


$end




