$molecule
0 1
  N    3.274016695   0.059214175   0.000000000
  H    3.852544280  -0.101967192   0.814538171
  H    3.852544280  -0.101967192  -0.814538171
  H    2.547351328  -0.646626499   0.000000000
  H   -1.670267968   2.129061442   0.000000000
  H   -3.108300462  -0.200081620   0.000000000
  H    0.952230252   1.304809530   0.000000000
  H   -1.211499139  -2.169512902   0.000000000
  C   -2.038368532  -0.093738058   0.000000000
  C   -1.284925390   1.125358295   0.000000000
  C    0.021294067   0.768637850   0.000000000
  O    0.133355606  -0.591869766   0.000000000
  C   -1.131373454  -1.098820943   0.000000000
$end



$rem
N_FROZEN_CORE FC
MEM_TOTAL 3750
MEM_STATIC 1500
AUX_BASIS_CORR rimp2-def2-QZVPPD
method DSD-PBEPBE-D3
GEN_SCFMAN TRUE
UNRESTRICTED True
THRESH  14
SCF_CONVERGENCE 7
SYMMETRY FALSE
SYM_IGNORE TRUE
max_scf_cycles 200
scf_algorithm gdm

XC_GRID 000099000590
NL_GRID 000075000302
BASIS def2-QZVPPD


$end




