$molecule
0 1
  H   -3.900855321  -0.637849181  -0.997088701
  H   -4.184248041  -1.156282609   0.668008944
  H   -4.201444989   0.559792590   0.245578786
  H   -2.159346330  -1.104914233   2.296951879
  H   -2.468105000   0.904553444  -2.091837401
  H   -2.734356759   2.109874638  -0.831384471
  H   -1.180227144   2.034148032  -1.665527582
  H   -1.849998584  -2.278947066   1.034852073
  H   -0.594892233  -1.095194607   1.455875572
  C   -2.231399305  -0.301727698   0.316217762
  N   -1.455336241   0.516944110  -0.268800290
  C   -1.991272594   1.433331224  -1.262144401
  C   -1.663174462  -1.245485007   1.334436255
  C   -3.713598690  -0.396353280   0.050439406
$end



$rem
N_FROZEN_CORE FC
MEM_TOTAL 3750
MEM_STATIC 1500
AUX_BASIS_CORR rimp2-def2-QZVPPD
method DSD-PBEPBE-D3
GEN_SCFMAN TRUE
UNRESTRICTED True
THRESH  14
SCF_CONVERGENCE 7
SYMMETRY FALSE
SYM_IGNORE TRUE
max_scf_cycles 200
scf_algorithm gdm

XC_GRID 000099000590
NL_GRID 000075000302
BASIS def2-QZVPPD


$end




