$molecule
0 1
  H   -2.066717015   2.014776660   0.000000000
  H   -0.452642301   1.325455087   0.000000000
  H   -4.000747045   0.794247112   0.000000000
  H   -3.780948923  -0.733035461   0.877448542
  H   -3.780948923  -0.733035461  -0.877448542
  O   -1.269970702  -1.036578186   0.000000000
  C   -1.980336270  -0.026663092   0.000000000
  N   -1.468541231   1.210838117   0.000000000
  C   -3.483034696  -0.162187009   0.000000000
$end



$rem
N_FROZEN_CORE FC
MEM_TOTAL 3750
SCF_ALGORITHM GDM_QLS
MEM_STATIC 1500
AUX_BASIS_CORR rimp2-def2-QZVPPD
method DSD-PBEPBE-D3
GEN_SCFMAN TRUE
UNRESTRICTED True
THRESH  14
SCF_CONVERGENCE 7
SYMMETRY FALSE
SYM_IGNORE TRUE
max_scf_cycles 200

XC_GRID 000099000590
NL_GRID 000075000302
BASIS def2-QZVPPD


$end




