$molecule
0 1
  H    3.868481893  -1.709346482   0.529376962
  H    3.150460887  -0.760042573   1.846472031
  H    2.143735399  -1.863880839   0.906513556
  H    1.458913871  -1.267250798  -1.316205436
  H    3.139420210  -1.091027831  -1.866352194
  H    1.992880909   0.254916189  -2.024131617
  H    4.633956650   0.509981017  -0.512944214
  H    3.386821546   1.745350570  -0.762227805
  C    2.970659159  -1.158012947   0.849031865
  N    2.632771323  -0.074812842  -0.060699680
  C    2.294843252  -0.573982155  -1.385885181
  C    3.691484887   0.920704244  -0.118967419
  H    3.882289860   1.315225747   0.878013074
$end



$rem
N_FROZEN_CORE FC
MEM_TOTAL 3750
MEM_STATIC 1500
AUX_BASIS_CORR rimp2-def2-QZVPPD
method DSD-PBEPBE-D3
GEN_SCFMAN TRUE
UNRESTRICTED True
THRESH  14
SCF_CONVERGENCE 7
SYMMETRY FALSE
SYM_IGNORE TRUE
max_scf_cycles 200
scf_algorithm gdm

XC_GRID 000099000590
NL_GRID 000075000302
BASIS def2-QZVPPD


$end




