$molecule
0 1
  H    3.303210440   2.046632879   0.749803277
  H    4.766640395  -1.799880816  -0.478515488
  H    5.191006827   0.491295572   0.367567865
  H    0.564940914  -0.953753511  -0.572734045
  H   -0.058476609   1.138489619   0.192638173
  H    2.438898508  -2.509230899  -0.943411527
  C    3.944945303  -1.118955631  -0.311614404
  C    4.179587893   0.167995779   0.162937982
  C    3.129558610   1.046493199   0.379823061
  C    1.816942132   0.647126057   0.121930200
  C    1.577398724  -0.642919890  -0.358920478
  C    2.638724970  -1.514032103  -0.570112038
  O    0.827039265   1.538667019   0.351279564
$end



$rem
N_FROZEN_CORE FC
MEM_TOTAL 7500
MEM_STATIC 3000
AUX_BASIS_CORR rimp2-def2-QZVPPD
method DSD-PBEPBE-D3
GEN_SCFMAN TRUE
UNRESTRICTED True
THRESH  14
SCF_CONVERGENCE 7
SYMMETRY FALSE
SYM_IGNORE TRUE
max_scf_cycles 200
scf_algorithm gdm

XC_GRID 000099000590
NL_GRID 000075000302
BASIS def2-QZVPPD


$end




