$molecule
0 1
  H   -2.393348474  -2.084741909  -0.735610140
  H   -3.845185149   1.932323540  -0.288151546
  H   -4.170272657  -0.393864032  -1.078787456
  H    0.020061910   0.846956781   1.219385453
  H    0.705192264  -1.300742942   0.711898632
  H   -1.737426911   2.540804442   0.861997753
  C   -3.072276108   1.192778867  -0.138916173
  C   -3.252060860  -0.114152901  -0.581119529
  C   -2.263652961  -1.068202938  -0.393524237
  C   -1.074305876  -0.723123713   0.247958358
  C   -0.891560442   0.584486869   0.701662848
  C   -1.888238593   1.531848581   0.503257339
  O   -0.135770820  -1.688727101   0.405042951
$end



$rem
N_FROZEN_CORE FC
MEM_TOTAL 7500
MEM_STATIC 3000
AUX_BASIS_CORR rimp2-def2-QZVPPD
method DSD-PBEPBE-D3
GEN_SCFMAN TRUE
UNRESTRICTED True
THRESH  14
SCF_CONVERGENCE 7
SYMMETRY FALSE
SYM_IGNORE TRUE
max_scf_cycles 200
scf_algorithm gdm

XC_GRID 000099000590
NL_GRID 000075000302
BASIS def2-QZVPPD


$end




