$molecule
0 1
  N    0.782152108  -0.709179755   0.000000000
  H    1.059489442  -1.243541127   0.812943926
  H    1.059489442  -1.243541127  -0.812943926
  C    1.423862569   0.612034627   0.000000000
  H    1.094159054   1.165949844  -0.876570680
  H    2.517090772   0.579606101   0.000000000
  H    1.094159054   1.165949844   0.876570680
$end



$rem
N_FROZEN_CORE FC
MEM_TOTAL 3750
MEM_STATIC 1500
AUX_BASIS_CORR rimp2-def2-QZVPPD
method DSD-PBEPBE-D3
GEN_SCFMAN TRUE
UNRESTRICTED True
THRESH  14
SCF_CONVERGENCE 7
SYMMETRY FALSE
SYM_IGNORE TRUE
max_scf_cycles 200
scf_algorithm gdm

XC_GRID 000099000590
NL_GRID 000075000302
BASIS def2-QZVPPD


$end




