$molecule
0 1
  H    0.887891433  -0.754215427  -1.426328725
  H    2.539460580  -1.313457052  -1.132265384
  H    1.162294419  -2.126309830  -0.359277529
  H    2.086040239  -0.684028001   1.243305300
  H    2.213666256   1.653584026   1.060591080
  H    1.546581435   1.552820353  -0.566007005
  H    3.187896159   0.972943294  -0.259541995
  C    1.556471530  -1.159137382  -0.665894603
  N    1.588361006  -0.255409351   0.475406358
  C    2.175282405   1.039884307   0.162400623
$end



$rem
N_FROZEN_CORE FC
MEM_TOTAL 3750
MEM_STATIC 1500
AUX_BASIS_CORR rimp2-def2-QZVPPD
method DSD-PBEPBE-D3
GEN_SCFMAN TRUE
UNRESTRICTED True
THRESH  14
SCF_CONVERGENCE 7
SYMMETRY FALSE
SYM_IGNORE TRUE
max_scf_cycles 200
scf_algorithm gdm

XC_GRID 000099000590
NL_GRID 000075000302
BASIS def2-QZVPPD


$end




