$molecule
0 1
  N   -3.595113002  -0.074407035   0.000000000
  H   -2.719733327   0.443379929   0.000000000
  H   -4.122384425   0.215651098   0.813579457
  H   -4.122384425   0.215651098  -0.813579457
  H    1.084823162  -2.439443966   0.000000000
  H   -1.185671976  -1.412994446   0.000000000
  C    2.077453129  -0.526114331   0.000000000
  C    0.972549819  -1.365158587   0.000000000
  C   -0.295301613  -0.796886929   0.000000000
  N   -0.502123717   0.521360976   0.000000000
  C    0.565248108   1.319520413   0.000000000
  C    1.870947569   0.846347942   0.000000000
  H    0.367749601   2.384460772   0.000000000
  H    2.700225478   1.538497855   0.000000000
  H    3.079050123  -0.932583733   0.000000000
$end



$rem
N_FROZEN_CORE FC
MEM_TOTAL 7500
MEM_STATIC 3000
AUX_BASIS_CORR rimp2-def2-QZVPPD
method DSD-PBEPBE-D3
GEN_SCFMAN TRUE
UNRESTRICTED True
THRESH  14
SCF_CONVERGENCE 7
SYMMETRY FALSE
SYM_IGNORE TRUE
max_scf_cycles 200
scf_algorithm gdm

XC_GRID 000099000590
NL_GRID 000075000302
BASIS def2-QZVPPD


$end




