$molecule
0 1
  C   -1.767677914  -0.139527595  -0.024794604
  O   -0.958503235  -1.037022911  -0.069546283
  O   -1.449770761   1.149138368  -0.205387167
  H   -0.489669797   1.223328144  -0.369485660
  C   -3.235149438  -0.322046524   0.240087364
  H   -3.459969775  -1.376326773   0.355585508
  H   -3.513020727   0.219701861   1.143312798
  H   -3.814369555   0.098842568  -0.580416487
$end



$rem
N_FROZEN_CORE FC
MEM_TOTAL 3750
MEM_STATIC 1500
AUX_BASIS_CORR rimp2-def2-QZVPPD
method DSD-PBEPBE-D3
GEN_SCFMAN TRUE
UNRESTRICTED True
THRESH  14
SCF_CONVERGENCE 7
SYMMETRY FALSE
SYM_IGNORE TRUE
max_scf_cycles 200
scf_algorithm gdm

XC_GRID 000099000590
NL_GRID 000075000302
BASIS def2-QZVPPD


$end




