$molecule
0 1
  H    4.851710044   0.399920725  -0.289195998
  H    4.346881483   1.712216485   0.782026615
  H    3.804623773   1.665330449  -0.898657886
  H    1.966829978   1.547066189   1.850816652
  H    3.800029450  -1.231106727  -1.677127526
  H    2.784522526   0.062725752  -2.315227952
  H    2.154297209  -1.582155698  -2.211526007
  H    3.013231359   0.304278328   2.504929760
  H    1.383898346  -0.127491979   1.939110342
  C    2.810138747   0.247701725   0.377689750
  N    2.248282983  -0.608112040  -0.375208895
  C    2.776615074  -0.846750616  -1.708101602
  C    2.250608245   0.497378194   1.747329787
  C    4.022048511   1.055330364  -0.020197930
$end



$rem
N_FROZEN_CORE FC
MEM_TOTAL 3750
MEM_STATIC 1500
AUX_BASIS_CORR rimp2-def2-QZVPPD
method DSD-PBEPBE-D3
GEN_SCFMAN TRUE
UNRESTRICTED True
THRESH  14
SCF_CONVERGENCE 7
SYMMETRY FALSE
SYM_IGNORE TRUE
max_scf_cycles 200
scf_algorithm gdm

XC_GRID 000099000590
NL_GRID 000075000302
BASIS def2-QZVPPD


$end




