$molecule
0 1
  C    1.433125604   0.909838932  -1.758994366
  H    1.707543096   0.311683598  -2.625814298
  H    1.740429255   1.940040006  -1.916381938
  H    0.348803312   0.889349454  -1.651677109
  C    2.046036753   0.405185160  -0.473681594
  O    2.132917144   1.107526272   0.525977471
  N    2.478947976  -0.878371778  -0.493076824
  H    2.285951054  -1.428647099  -1.309974246
  C    2.964534510  -1.551363041   0.695258599
  H    3.453161240  -0.821564527   1.333245265
  H    2.152088176  -2.012444082   1.260482147
  H    3.679910794  -2.320225459   0.413064820
$end



$rem
N_FROZEN_CORE FC
MEM_TOTAL 3750
MEM_STATIC 1500
AUX_BASIS_CORR rimp2-def2-QZVPPD
method DSD-PBEPBE-D3
GEN_SCFMAN TRUE
UNRESTRICTED True
THRESH  14
SCF_CONVERGENCE 7
SYMMETRY FALSE
SYM_IGNORE TRUE
max_scf_cycles 200
scf_algorithm gdm

XC_GRID 000099000590
NL_GRID 000075000302
BASIS def2-QZVPPD


$end




