$molecule
0 1
  H    1.423857376  -1.697474131  -0.874267493
  H    1.423857376  -1.697474131   0.874267493
  H   -0.106407472  -1.378560425   0.000000000
  H    2.399777645   0.462330924   0.000000000
  C    0.969615633  -1.224612778   0.000000000
  C    1.315327088   0.231731203   0.000000000
  O    0.515953955   1.134839499   0.000000000
$end



$rem
N_FROZEN_CORE FC
MEM_TOTAL 3750
MEM_STATIC 1500
AUX_BASIS_CORR rimp2-def2-QZVPPD
method DSD-PBEPBE-D3
GEN_SCFMAN TRUE
UNRESTRICTED True
THRESH  14
SCF_CONVERGENCE 7
SYMMETRY FALSE
SYM_IGNORE TRUE
max_scf_cycles 200
scf_algorithm gdm

XC_GRID 000099000590
NL_GRID 000075000302
BASIS def2-QZVPPD


$end




