$molecule
0 1
  C   -3.461604396  -1.276640626   0.000000000
  H   -4.085405742  -1.436606373  -0.877682719
  H   -2.647973705  -1.999649389   0.000000000
  H   -4.085405742  -1.436606373   0.877682719
  C   -2.982023160   0.162273590   0.000000000
  O   -3.763788140   1.100466744   0.000000000
  N   -1.639018061   0.330560810   0.000000000
  H   -1.042640436  -0.481448654   0.000000000
  C   -1.044274073   1.652945702   0.000000000
  H   -1.353317942   2.217436334  -0.879430904
  H    0.036281592   1.551261780   0.000000000
  H   -1.353317942   2.217436334   0.879430904
$end



$rem
N_FROZEN_CORE FC
MEM_TOTAL 3750
MEM_STATIC 1500
AUX_BASIS_CORR rimp2-def2-QZVPPD
method DSD-PBEPBE-D3
GEN_SCFMAN TRUE
UNRESTRICTED True
THRESH  14
SCF_CONVERGENCE 7
SYMMETRY FALSE
SYM_IGNORE TRUE
max_scf_cycles 200
scf_algorithm gdm

XC_GRID 000099000590
NL_GRID 000075000302
BASIS def2-QZVPPD


$end




