$molecule
0 1
  O    1.943856003   0.020042468   0.695762285
  H    1.014176701   0.278639079   0.728559625
  C    2.381283054   0.110339895  -0.648868141
  H    3.406576357  -0.252587687  -0.683659435
  H    2.371762939   1.141818929  -1.016466769
  H    1.772170879  -0.501534601  -1.320500062
  H   -2.419995329   1.635357492  -0.355810567
  H   -1.175686708   2.453787058   0.629888462
  H   -0.786507567   1.916960087  -1.025846273
  H   -1.162460179  -2.530074404  -0.636622903
  H   -1.809220088  -1.866139565   0.888566774
  H   -0.041327967  -1.901905995   0.599258377
  C   -1.356178772   1.689483640  -0.123709655
  O   -0.909108685   0.485241126   0.468534758
  O   -1.110631368  -0.544902129  -0.550028756
  C   -1.022163198  -1.778460893   0.138319863
$end



$rem
N_FROZEN_CORE FC
MEM_TOTAL 7500
MEM_STATIC 3000
AUX_BASIS_CORR rimp2-def2-QZVPPD
method DSD-PBEPBE-D3
GEN_SCFMAN TRUE
UNRESTRICTED True
THRESH  14
SCF_CONVERGENCE 7
SYMMETRY FALSE
SYM_IGNORE TRUE
max_scf_cycles 200
scf_algorithm gdm

XC_GRID 000099000590
NL_GRID 000075000302
BASIS def2-QZVPPD


$end




