$molecule
0 1
  H   -2.003989596   1.280730330   1.170427093
  H   -3.689165560   1.255940491   0.632567977
  H   -2.451560407   2.087582262  -0.330819345
  H   -2.810711667   0.000000000  -1.335487592
  H   -2.451560407  -2.087582262  -0.330819345
  H   -2.003989596  -1.280730330   1.170427093
  H   -3.689165560  -1.255940491   0.632567977
  C   -2.646751447   1.216666639   0.292176745
  N   -2.327134246   0.000000000  -0.447822948
  C   -2.646751447  -1.216666639   0.292176745
$end



$rem
N_FROZEN_CORE FC
MEM_TOTAL 3750
MEM_STATIC 1500
AUX_BASIS_CORR rimp2-def2-QZVPPD
method DSD-PBEPBE-D3
GEN_SCFMAN TRUE
UNRESTRICTED True
THRESH  14
SCF_CONVERGENCE 7
SYMMETRY FALSE
SYM_IGNORE TRUE
max_scf_cycles 200
scf_algorithm gdm

XC_GRID 000099000590
NL_GRID 000075000302
BASIS def2-QZVPPD


$end




