$molecule
0 1
  C    2.645344034   0.092741541   0.000000000
  O    2.164740875   1.205565501   0.000000000
  O    1.924083836  -1.025563991   0.000000000
  H    0.943439493  -0.802865600   0.000000000
  C    4.126364856  -0.182849252   0.000000000
  H    4.677116166   0.751395124   0.000000000
  H    4.391159424  -0.772422422  -0.876841441
  H    4.391159424  -0.772422422   0.876841441
$end



$rem
N_FROZEN_CORE FC
MEM_TOTAL 3750
MEM_STATIC 1500
AUX_BASIS_CORR rimp2-def2-QZVPPD
method DSD-PBEPBE-D3
GEN_SCFMAN TRUE
UNRESTRICTED True
THRESH  14
SCF_CONVERGENCE 7
SYMMETRY FALSE
SYM_IGNORE TRUE
max_scf_cycles 200
scf_algorithm gdm

XC_GRID 000099000590
NL_GRID 000075000302
BASIS def2-QZVPPD


$end




