$molecule
0 1
  H   -2.479468939   2.146999384   0.149245623
  H   -0.018739313   2.052345875  -0.190758575
  C   -2.675660888   0.000000000   0.177382161
  C   -1.975581823   1.194345616   0.080819669
  C   -0.601343049   1.143788024  -0.108281371
  N    0.076852238   0.000000000  -0.200914078
  C   -0.601343049  -1.143788024  -0.108281371
  C   -1.975581823  -1.194345616   0.080819669
  H   -0.018739313  -2.052345875  -0.190758575
  H   -2.479468939  -2.146999384   0.149245623
  H   -3.746375272   0.000000000   0.324301814
$end



$rem
N_FROZEN_CORE FC
MEM_TOTAL 3750
MEM_STATIC 1500
AUX_BASIS_CORR rimp2-def2-QZVPPD
method DSD-PBEPBE-D3
GEN_SCFMAN TRUE
UNRESTRICTED True
THRESH  14
SCF_CONVERGENCE 7
SYMMETRY FALSE
SYM_IGNORE TRUE
max_scf_cycles 200
scf_algorithm gdm

XC_GRID 000099000590
NL_GRID 000075000302
BASIS def2-QZVPPD


$end




