$molecule
0 1
  O   -1.317540329   0.626300044  -0.148976454
  H   -1.708256751   1.037926177  -0.922944424
  C   -2.142131387  -0.460577513   0.275791009
  H   -1.645605290  -0.912170756   1.129826507
  H   -2.247542785  -1.215206206  -0.505414034
  H   -3.129559808  -0.112485278   0.583646232
$end



$rem
N_FROZEN_CORE FC
MEM_TOTAL 3750
MEM_STATIC 1500
AUX_BASIS_CORR rimp2-def2-QZVPPD
method DSD-PBEPBE-D3
GEN_SCFMAN TRUE
UNRESTRICTED True
THRESH  14
SCF_CONVERGENCE 7
SYMMETRY FALSE
SYM_IGNORE TRUE
max_scf_cycles 200
scf_algorithm gdm

XC_GRID 000099000590
NL_GRID 000075000302
BASIS def2-QZVPPD


$end




