$molecule
0 1
  O    2.818185101  -0.247435532   0.056821956
  H    1.976071503   0.189051577  -0.132132208
  C    3.827908763   0.736443657   0.184968213
  H    4.760728625   0.221949473   0.408679829
  H    3.618208013   1.437366735   0.998851321
  H    3.963948514   1.308008368  -0.738251908
$end



$rem
N_FROZEN_CORE FC
MEM_TOTAL 3750
MEM_STATIC 1500
AUX_BASIS_CORR rimp2-def2-QZVPPD
method DSD-PBEPBE-D3
GEN_SCFMAN TRUE
UNRESTRICTED True
THRESH  14
SCF_CONVERGENCE 7
SYMMETRY FALSE
SYM_IGNORE TRUE
max_scf_cycles 200
scf_algorithm gdm

XC_GRID 000099000590
NL_GRID 000075000302
BASIS def2-QZVPPD


$end




