$molecule
0 1
  H    4.084607323  -0.334849066  -0.068523115
  H    3.535931758   1.056511217   0.874375410
  H    3.333049880  -0.588819879   1.505124882
  H    1.257739141   0.063265974   0.619467569
  H    0.837659167   0.609201945  -1.605318439
  H    2.547632292   0.414426740  -1.982899241
  H    2.018044469   1.785500471  -0.999190996
  C    3.297130147   0.016997804   0.600876381
  N    2.002426960  -0.133528576  -0.038937117
  C    1.844909107   0.717630668  -1.204243715
$end



$rem
N_FROZEN_CORE FC
MEM_TOTAL 3750
MEM_STATIC 1500
AUX_BASIS_CORR rimp2-def2-QZVPPD
method DSD-PBEPBE-D3
GEN_SCFMAN TRUE
UNRESTRICTED True
THRESH  14
SCF_CONVERGENCE 7
SYMMETRY FALSE
SYM_IGNORE TRUE
max_scf_cycles 200
scf_algorithm gdm

XC_GRID 000099000590
NL_GRID 000075000302
BASIS def2-QZVPPD


$end




