$molecule
0 1
  H    0.175691292   1.274649206   1.591937165
  H    1.692902397   1.134603102   2.523839447
  H    0.255829122   0.192534983   3.001717918
  H    3.881047915   0.449558444  -1.239512037
  H    2.368528952   1.020738495  -1.970112101
  H    3.392410715   2.158207161  -1.051587575
  O    1.181657987  -0.529165488   1.366856050
  C    1.837015410  -0.351756258   0.230507304
  O    1.948609713  -1.232059621  -0.590300161
  O    2.350236640   0.875034125   0.104273161
  C    3.044768063   1.134051435  -1.126750631
  C    0.811391266   0.607871964   2.168944106
$end



$rem
N_FROZEN_CORE FC
MEM_TOTAL 3750
MEM_STATIC 1500
AUX_BASIS_CORR rimp2-def2-QZVPPD
method DSD-PBEPBE-D3
GEN_SCFMAN TRUE
UNRESTRICTED True
THRESH  14
SCF_CONVERGENCE 7
SYMMETRY FALSE
SYM_IGNORE TRUE
max_scf_cycles 200
scf_algorithm gdm

XC_GRID 000099000590
NL_GRID 000075000302
BASIS def2-QZVPPD


$end




