$molecule
0 1
  H    1.947293831  -1.826549460  -0.977154948
  H    0.517830727  -0.992438218  -0.471873804
  H    4.075847464  -1.086043882  -0.641982364
  H    4.206139565  -0.127522801   0.845865547
  H    4.143696450   0.685807904  -0.708189532
  O    1.766991064   0.946549297   0.528931161
  C    2.266620904  -0.029676180  -0.016202459
  N    1.523144833  -1.036894085  -0.529912588
  C    3.765775459  -0.167634482  -0.148448764
$end



$rem
N_FROZEN_CORE FC
MEM_TOTAL 3750
MEM_STATIC 1500
AUX_BASIS_CORR rimp2-def2-QZVPPD
method DSD-PBEPBE-D3
GEN_SCFMAN TRUE
UNRESTRICTED True
THRESH  14
SCF_CONVERGENCE 7
SYMMETRY FALSE
SYM_IGNORE TRUE
max_scf_cycles 200
scf_algorithm gdm

XC_GRID 000099000590
NL_GRID 000075000302
BASIS def2-QZVPPD


$end




