$molecule
0 1
  H    1.723540500   0.439220656  -2.100794984
  H    4.183896156  -0.425803792  -1.356244732
  H    4.183896156  -0.425803792   1.356244732
  H    1.723540500   0.439220656   2.100794984
  N    1.387995065   0.559671848   0.000000000
  C    2.129546398   0.291117564  -1.116441476
  C    3.370215255  -0.146393270  -0.710246035
  C    3.370215255  -0.146393270   0.710246035
  C    2.129546398   0.291117564   1.116441476
  H    0.408915015   0.824469584   0.000000000
$end



$rem
N_FROZEN_CORE FC
MEM_TOTAL 3750
MEM_STATIC 1500
AUX_BASIS_CORR rimp2-def2-QZVPPD
method DSD-PBEPBE-D3
GEN_SCFMAN TRUE
UNRESTRICTED True
THRESH  14
SCF_CONVERGENCE 7
SYMMETRY FALSE
SYM_IGNORE TRUE
max_scf_cycles 200
scf_algorithm gdm

XC_GRID 000099000590
NL_GRID 000075000302
BASIS def2-QZVPPD


$end




