$molecule
0 1
  H    3.712563747  -1.322184426  -1.284993250
  H    2.518971072  -0.278065522  -2.083731775
  H    1.983994562  -1.711254991  -1.205063990
  H    1.983994562  -1.711254991   1.205063990
  H    3.712563747  -1.322184426   1.284993250
  H    2.518971072  -0.278065522   2.083731775
  H    4.501370478   0.746385271   0.000000000
  H    3.263250583   1.665017175   0.882022298
  C    2.703502885  -0.894512478  -1.206059374
  N    2.541371213  -0.090643603   0.000000000
  C    2.703502885  -0.894512478   1.206059374
  C    3.446874603   1.054710073   0.000000000
  H    3.263250583   1.665017175  -0.882022298
$end



$rem
N_FROZEN_CORE FC
MEM_TOTAL 3750
MEM_STATIC 1500
AUX_BASIS_CORR rimp2-def2-QZVPPD
method DSD-PBEPBE-D3
GEN_SCFMAN TRUE
UNRESTRICTED True
THRESH  14
SCF_CONVERGENCE 7
SYMMETRY FALSE
SYM_IGNORE TRUE
max_scf_cycles 200
scf_algorithm gdm

XC_GRID 000099000590
NL_GRID 000075000302
BASIS def2-QZVPPD


$end




