$molecule
0 1
  H    1.002189745  -0.820941804  -1.740140545
  H    2.668892343  -1.420491591  -2.032054117
  H    2.155382405   0.209840918  -2.574434790
  H    4.771184004   0.381296387   1.276422290
  H    3.099027934   0.959995164   1.566950772
  H    3.628470540  -0.668544880   2.096348371
  C    2.056432503  -0.550210767  -1.799294359
  N    2.431907118   0.055843403  -0.525775151
  N    3.360356741  -0.509888415   0.048548906
  C    3.720120203   0.096878082   1.325733297
$end



$rem
N_FROZEN_CORE FC
MEM_TOTAL 3750
MEM_STATIC 1500
AUX_BASIS_CORR rimp2-def2-QZVPPD
method DSD-PBEPBE-D3
GEN_SCFMAN TRUE
UNRESTRICTED True
THRESH  14
SCF_CONVERGENCE 7
SYMMETRY FALSE
SYM_IGNORE TRUE
max_scf_cycles 200
scf_algorithm gdm

XC_GRID 000099000590
NL_GRID 000075000302
BASIS def2-QZVPPD


$end




