$molecule
0 1
  C    1.925808736   0.000000108   0.202289965
  H    0.896204749   0.000000070   0.510081042
  C    3.070106465   0.000000064  -0.151294570
  H    4.084994754   0.000000021  -0.461066359
  H   -0.790217559   1.283367810  -1.078466087
  H   -2.516239218   1.257297766  -0.693820250
  H   -1.367954230   2.085891627   0.378392045
  H   -1.803438429  -0.000000263   1.349534431
  H   -1.367953419  -2.085891472   0.378392285
  H   -0.790217264  -1.283367853  -1.078466252
  H   -2.516238850  -1.257298159  -0.693820105
  C   -1.507862984   1.215186732  -0.259763348
  N   -1.253925336  -0.000000018   0.501734076
  C   -1.507862566  -1.215186845  -0.259763352
$end



$rem
N_FROZEN_CORE FC
MEM_TOTAL 3750
MEM_STATIC 1500
AUX_BASIS_CORR rimp2-def2-QZVPPD
method DSD-PBEPBE-D3
GEN_SCFMAN TRUE
UNRESTRICTED True
THRESH  14
SCF_CONVERGENCE 7
SYMMETRY FALSE
SYM_IGNORE TRUE
max_scf_cycles 200
scf_algorithm gdm

XC_GRID 000099000590
NL_GRID 000075000302
BASIS def2-QZVPPD


$end




