$molecule
0 1
  H    2.597839510   0.162376207  -0.875923060
  H    2.660626268  -1.370901480   0.000000000
  H    2.597839510   0.162376207   0.875923060
  H    0.413500031  -2.346877855   0.875345550
  H    1.214019174   2.089741867  -0.881813544
  H    1.214019174   2.089741867   0.881813544
  H   -0.194861778   2.684022477   0.000000000
  H    0.413500031  -2.346877855  -0.875345550
  H   -0.998327742  -1.710391673   0.000000000
  C    0.718265625  -0.420596694   0.000000000
  N   -0.024484004   0.610035495   0.000000000
  C    0.586773708   1.928277523   0.000000000
  C    0.085196231  -1.781327893   0.000000000
  C    2.228767470  -0.373719750   0.000000000
$end



$rem
N_FROZEN_CORE FC
MEM_TOTAL 3750
MEM_STATIC 1500
AUX_BASIS_CORR rimp2-def2-QZVPPD
method DSD-PBEPBE-D3
GEN_SCFMAN TRUE
UNRESTRICTED True
THRESH  14
SCF_CONVERGENCE 7
SYMMETRY FALSE
SYM_IGNORE TRUE
max_scf_cycles 200
scf_algorithm gdm

XC_GRID 000099000590
NL_GRID 000075000302
BASIS def2-QZVPPD


$end




