$molecule
0 1
  H    1.218547048  -2.092925983   1.280200895
  H    2.397342126  -2.265920262  -0.059669445
  H    0.620497761  -2.153978805  -0.364962670
  H    2.904902163   1.835045826  -1.246104501
  H    1.652030604   2.017220594   0.021330598
  H    3.391482042   1.914809777   0.437830287
  C    1.453973977  -1.820673886   0.250774478
  N    1.498815067  -0.365330873   0.176050584
  N    2.584255148   0.105135764  -0.157309505
  C    2.608951452   1.561521189  -0.233475696
$end



$rem
N_FROZEN_CORE FC
MEM_TOTAL 3750
MEM_STATIC 1500
AUX_BASIS_CORR rimp2-def2-QZVPPD
method DSD-PBEPBE-D3
GEN_SCFMAN TRUE
UNRESTRICTED True
THRESH  14
SCF_CONVERGENCE 7
SYMMETRY FALSE
SYM_IGNORE TRUE
max_scf_cycles 200
scf_algorithm gdm

XC_GRID 000099000590
NL_GRID 000075000302
BASIS def2-QZVPPD


$end




