$molecule
0 1
  C   -1.597952042   0.186011894   0.000000000
  H   -0.571514692   0.500643864   0.000000000
  C   -2.740858305  -0.171969589   0.000000000
  H   -3.754198053  -0.486617119   0.000000000
  N    1.616743136   0.690093678   0.000000000
  H    1.997761137   1.156502917  -0.812477095
  H    1.997761137   1.156502917   0.812477095
  C    1.968525879  -0.732595362   0.000000000
  H    1.531924955  -1.208655425   0.876689260
  H    3.043941315  -0.937201051   0.000000000
  H    1.531924955  -1.208655425  -0.876689260
$end



$rem
N_FROZEN_CORE FC
MEM_TOTAL 3750
MEM_STATIC 1500
AUX_BASIS_CORR rimp2-def2-QZVPPD
method DSD-PBEPBE-D3
GEN_SCFMAN TRUE
UNRESTRICTED True
THRESH  14
SCF_CONVERGENCE 7
SYMMETRY FALSE
SYM_IGNORE TRUE
max_scf_cycles 200
scf_algorithm gdm

XC_GRID 000099000590
NL_GRID 000075000302
BASIS def2-QZVPPD


$end




