$molecule
0 1
  N    1.686345260   0.233548288  -0.683335909
  H    1.176516262  -0.495335883  -1.165659920
  H    2.480244675   0.471366335  -1.262618674
  C    2.125624638  -0.240605745   0.631280030
  H    2.645345413   0.564082980   1.150231699
  H    2.788584665  -1.111793799   0.605287052
  H    1.252150246  -0.507136514   1.224012187
$end



$rem
N_FROZEN_CORE FC
MEM_TOTAL 3750
MEM_STATIC 1500
AUX_BASIS_CORR rimp2-def2-QZVPPD
method DSD-PBEPBE-D3
GEN_SCFMAN TRUE
UNRESTRICTED True
THRESH  14
SCF_CONVERGENCE 7
SYMMETRY FALSE
SYM_IGNORE TRUE
max_scf_cycles 200
scf_algorithm gdm

XC_GRID 000099000590
NL_GRID 000075000302
BASIS def2-QZVPPD


$end




