$molecule
0 1
  C    1.850159862  -1.629702119   0.788542647
  H    1.897945069  -2.410359520   0.030210277
  H    0.820900829  -1.500494504   1.116008491
  H    2.457417862  -1.958092147   1.629865238
  C    2.457001988  -0.360816341   0.220315375
  O    3.623612157  -0.313154093  -0.143284413
  N    1.622715606   0.699629688   0.143313426
  H    0.654945809   0.600221651   0.425239655
  C    2.077143215   1.971124773  -0.378753413
  H    2.894741695   2.372379723   0.220038746
  H    2.440111219   1.871232828  -1.402210109
  H    1.245755718   2.671171714  -0.359535507
$end



$rem
N_FROZEN_CORE FC
MEM_TOTAL 3750
MEM_STATIC 1500
AUX_BASIS_CORR rimp2-def2-QZVPPD
method DSD-PBEPBE-D3
GEN_SCFMAN TRUE
UNRESTRICTED True
THRESH  14
SCF_CONVERGENCE 7
SYMMETRY FALSE
SYM_IGNORE TRUE
max_scf_cycles 200
scf_algorithm gdm

XC_GRID 000099000590
NL_GRID 000075000302
BASIS def2-QZVPPD


$end




