$molecule
0 1
  C    2.346478650  -0.769930632   0.000000000
  H    2.490325751  -1.397005705   0.877815376
  H    2.490325751  -1.397005705  -0.877815376
  H    3.093427552   0.021359740   0.000000000
  C    0.924267814  -0.257826367   0.000000000
  O   -0.027060157  -1.031063165   0.000000000
  N    0.768183524   1.082591819   0.000000000
  H    1.587252882   1.660889420   0.000000000
  C   -0.541613951   1.716199855   0.000000000
  H   -1.114964661   1.426543556   0.878089944
  H   -1.114964661   1.426543556  -0.878089944
  H   -0.404839507   2.793639239   0.000000000
$end



$rem
N_FROZEN_CORE FC
MEM_TOTAL 3750
MEM_STATIC 1500
AUX_BASIS_CORR rimp2-def2-QZVPPD
method DSD-PBEPBE-D3
GEN_SCFMAN TRUE
UNRESTRICTED True
THRESH  14
SCF_CONVERGENCE 7
SYMMETRY FALSE
SYM_IGNORE TRUE
max_scf_cycles 200
scf_algorithm gdm

XC_GRID 000099000590
NL_GRID 000075000302
BASIS def2-QZVPPD


$end




