$molecule
0 1
  H   -0.144032927  -2.110062044   0.000000000
  H   -2.741193101  -1.335199737   0.000000000
  H   -2.711815606   1.376849172   0.000000000
  H   -0.099034831   2.095225891   0.000000000
  N    0.236244638  -0.011623017   0.000000000
  C   -0.564861312  -1.121070844   0.000000000
  C   -1.873768468  -0.698982201   0.000000000
  C   -1.858424856   0.721903880   0.000000000
  C   -0.540603073   1.115225009   0.000000000
  H    1.245325223  -0.021502797   0.000000000
  O    3.231121792  -0.028238242   0.000000000
  H    3.762485081   0.200483174  -0.766541020
  H    3.762485081   0.200483174   0.766541020
$end



$rem
N_FROZEN_CORE FC
MEM_TOTAL 3750
MEM_STATIC 1500
AUX_BASIS_CORR rimp2-def2-QZVPPD
method DSD-PBEPBE-D3
GEN_SCFMAN TRUE
UNRESTRICTED True
THRESH  14
SCF_CONVERGENCE 7
SYMMETRY FALSE
SYM_IGNORE TRUE
max_scf_cycles 200
scf_algorithm gdm

XC_GRID 000099000590
NL_GRID 000075000302
BASIS def2-QZVPPD


$end




