$molecule
0 1
  H    3.606768178   0.470190620   1.336345672
  H    2.208216271   1.560173522   1.397984368
  H    2.089965899  -0.058158780   2.091658623
  H    1.914242448  -1.972220866   0.652738767
  H    3.410566735  -1.576502414  -0.213876789
  H    1.884561563  -1.759136355  -1.100475683
  H    3.570774235   0.780743554  -1.227146219
  H    2.030657930   0.446563304  -2.043753515
  C    2.509770535   0.521693669   1.271416137
  N    2.006216279   0.014279041   0.002789268
  C    2.326259962  -1.395516518  -0.173980781
  C    2.476319230   0.812939681  -1.120469342
  H    2.176923180   1.850935961  -0.984710593
$end



$rem
N_FROZEN_CORE FC
MEM_TOTAL 3750
MEM_STATIC 1500
AUX_BASIS_CORR rimp2-def2-QZVPPD
method DSD-PBEPBE-D3
GEN_SCFMAN TRUE
UNRESTRICTED True
THRESH  14
SCF_CONVERGENCE 7
SYMMETRY FALSE
SYM_IGNORE TRUE
max_scf_cycles 200
scf_algorithm gdm

XC_GRID 000099000590
NL_GRID 000075000302
BASIS def2-QZVPPD


$end




