$molecule
0 1
  H    3.705623306   0.283213326   1.158151282
  H    3.343094878   1.507343383  -0.064450512
  H    2.448539574   1.478863209   1.467131194
  H    1.074297083   0.451166923  -0.131733280
  H    1.582444099  -1.478339629  -1.333638631
  H    3.170921301  -1.545414665  -0.571433210
  H    2.819642347  -0.281702278  -1.757279609
  C    2.894796828   0.850740158   0.697315987
  N    1.896233286  -0.059987929   0.166966683
  C    2.391890574  -0.870337530  -0.931052422
$end



$rem
N_FROZEN_CORE FC
MEM_TOTAL 3750
MEM_STATIC 1500
AUX_BASIS_CORR rimp2-def2-QZVPPD
method DSD-PBEPBE-D3
GEN_SCFMAN TRUE
UNRESTRICTED True
THRESH  14
SCF_CONVERGENCE 7
SYMMETRY FALSE
SYM_IGNORE TRUE
max_scf_cycles 200
scf_algorithm gdm

XC_GRID 000099000590
NL_GRID 000075000302
BASIS def2-QZVPPD


$end




