$molecule
0 1
  H   -2.310913815   2.058515838  -0.889695502
  H   -3.828871329  -1.921471529  -0.342364747
  H   -4.065894461   0.355856086  -1.288426338
  H   -0.100688008  -0.766029094   1.433226400
  H    0.641175142   1.336505452   0.848147754
  H   -1.834340597  -2.472020391   1.019126498
  C   -3.065565013  -1.177557619  -0.168587682
  C   -3.196329213   0.102352395  -0.698395623
  C   -2.219841738   1.062683591  -0.481053051
  C   -1.096109736   0.747535166   0.279956062
  C   -0.961688547  -0.530439867   0.822729956
  C   -1.945393198  -1.485059650   0.592269402
  O   -0.159596496   1.717818673   0.458758190
$end



$rem
N_FROZEN_CORE FC
MEM_TOTAL 7500
MEM_STATIC 3000
AUX_BASIS_CORR rimp2-def2-QZVPPD
method DSD-PBEPBE-D3
GEN_SCFMAN TRUE
UNRESTRICTED True
THRESH  14
SCF_CONVERGENCE 7
SYMMETRY FALSE
SYM_IGNORE TRUE
max_scf_cycles 200
scf_algorithm gdm

XC_GRID 000099000590
NL_GRID 000075000302
BASIS def2-QZVPPD


$end




