$molecule
0 1
  H    3.677184311  -0.102021376   1.664643246
  H    2.979585551  -1.552680815   0.907918367
  H    4.495937918  -0.865082047   0.282512868
  H    1.915870722   0.388043800  -1.943612762
  H    1.930899701  -1.256108737  -1.279477264
  H    3.431255397  -0.546020443  -1.930196909
  C    3.523552283  -0.620402532   0.721839393
  O    2.786730207   0.241551584  -0.120950898
  C    2.506940549  -0.332208392  -1.384602474
$end



$rem
N_FROZEN_CORE FC
MEM_TOTAL 3750
MEM_STATIC 1500
AUX_BASIS_CORR rimp2-def2-QZVPPD
method DSD-PBEPBE-D3
GEN_SCFMAN TRUE
UNRESTRICTED True
THRESH  14
SCF_CONVERGENCE 7
SYMMETRY FALSE
SYM_IGNORE TRUE
max_scf_cycles 200
scf_algorithm gdm

XC_GRID 000099000590
NL_GRID 000075000302
BASIS def2-QZVPPD


$end




