$molecule
0 1
  H   -1.685954204  -1.501006433   0.886042719
  H   -1.685954204  -1.501006433  -0.886042719
  H   -0.159810374  -1.700655701   0.000000000
  C   -1.128395507  -1.203580878   0.000000000
  C   -0.913622730   0.232639408   0.000000000
  N   -0.699179442   1.361405723   0.000000000
$end



$rem
N_FROZEN_CORE FC
MEM_TOTAL 3750
MEM_STATIC 1500
AUX_BASIS_CORR rimp2-def2-QZVPPD
method DSD-PBEPBE-D3
GEN_SCFMAN TRUE
UNRESTRICTED True
THRESH  14
SCF_CONVERGENCE 7
SYMMETRY FALSE
SYM_IGNORE TRUE
max_scf_cycles 200
scf_algorithm gdm

XC_GRID 000099000590
NL_GRID 000075000302
BASIS def2-QZVPPD


$end




