$molecule
0 1
  H    0.665218958   1.520844924  -0.144810737
  H    2.307020708   2.064553999   0.324596867
  H    1.981573990   1.607780013  -1.335490631
  H    3.769882124  -1.399589115   0.219657797
  H    4.190928890   0.144667253  -0.575210251
  C    1.731520031   1.378351477  -0.296165048
  C    2.123815769  -0.047156965  -0.026006922
  O    1.308486032  -0.949899924   0.004614746
  C    3.586105247  -0.329935718   0.198089230
  H    3.890511813   0.110262785   1.149932840
$end



$rem
N_FROZEN_CORE FC
MEM_TOTAL 3750
SCF_ALGORITHM GDM_QLS
MEM_STATIC 1500
AUX_BASIS_CORR rimp2-def2-QZVPPD
method DSD-PBEPBE-D3
GEN_SCFMAN TRUE
UNRESTRICTED True
THRESH  14
SCF_CONVERGENCE 7
SYMMETRY FALSE
SYM_IGNORE TRUE
max_scf_cycles 200

XC_GRID 000099000590
NL_GRID 000075000302
BASIS def2-QZVPPD


$end




