$molecule
0 1
  H    1.811725800  -0.959621864  -1.824816914
  H    1.620174648  -2.103856651  -0.441177293
  H    0.216213655  -1.155077192  -1.011486025
  C    1.299838981  -1.173571096  -0.895509035
  N    1.593030603  -0.070001464   0.065466226
  O    1.390238388  -0.294584154   1.247298307
  O    1.970597181   0.994082981  -0.390545373
$end



$rem
N_FROZEN_CORE FC
MEM_TOTAL 3750
MEM_STATIC 1500
AUX_BASIS_CORR rimp2-def2-QZVPPD
method DSD-PBEPBE-D3
GEN_SCFMAN TRUE
UNRESTRICTED True
THRESH  14
SCF_CONVERGENCE 7
SYMMETRY FALSE
SYM_IGNORE TRUE
max_scf_cycles 200
scf_algorithm gdm

XC_GRID 000099000590
NL_GRID 000075000302
BASIS def2-QZVPPD


$end




