$molecule
0 1
  H    3.599316195  -1.696269673   0.855904281
  H    5.183045160   0.410665519   0.228065770
  H    3.561389076   2.244517552  -0.939007943
  H    1.080409137   1.148117417  -0.949790847
  N    2.062752598  -0.493712651  -0.008643621
  C    3.346846845  -0.765940719   0.380551103
  C    4.126205207   0.317526558   0.050513890
  C    3.276154987   1.278558359  -0.561211552
  C    2.007952240   0.748177730  -0.583216275
  H    1.272007734  -1.107262198   0.105631486
  H   -0.430894121   0.294146501   1.585975304
  H   -3.949377891   2.148720654  -0.026712098
  H   -1.986729455   2.215306924   1.482458163
  H   -2.788392630  -1.766162816  -1.328054428
  H   -0.890879838  -2.596320376  -0.352072176
  H   -4.343183171   0.146531395  -1.429627593
  C   -3.270694499   1.310092802   0.019996318
  C   -2.168661177   1.345774263   0.867294480
  C   -1.291402020   0.273170414   0.934236351
  C   -1.521749786  -0.843653487   0.140324138
  C   -2.618264754  -0.892561956  -0.711442849
  C   -3.490977952   0.187108609  -0.766490682
  O   -0.620606070  -1.879371711   0.228145233
$end



$rem
N_FROZEN_CORE FC
MEM_TOTAL 30000
MEM_STATIC 8000
AUX_BASIS_CORR rimp2-def2-QZVPPD
method DSD-PBEPBE-D3
GEN_SCFMAN TRUE
UNRESTRICTED True
THRESH  14
SCF_CONVERGENCE 7
SYMMETRY FALSE
SYM_IGNORE TRUE
max_scf_cycles 200
scf_algorithm gdm

XC_GRID 000099000590
NL_GRID 000075000302
BASIS def2-QZVPPD


$end




