$molecule
0 1
  H    2.814245690   0.342845203  -1.187056992
  H    3.165833348  -1.187037089  -0.374330509
  H    3.144270349   0.328518862   0.533521350
  H    1.221907289  -2.339443872   0.915185367
  H    1.275754493   2.140031533  -0.940364341
  H    1.628862378   2.153930962   0.788523595
  H    0.024051135   2.612015148   0.212695349
  H    0.866324789  -2.353107976  -0.799535048
  H   -0.382160377  -1.822246854   0.352632224
  C    1.190512163  -0.403008121   0.012253958
  N    0.378586923   0.563911141   0.154970399
  C    0.855862743   1.932510349   0.047734219
  C    0.680453378  -1.808799238   0.129077772
  C    2.662493921  -0.229747040  -0.270876599
$end



$rem
N_FROZEN_CORE FC
MEM_TOTAL 3750
MEM_STATIC 1500
AUX_BASIS_CORR rimp2-def2-QZVPPD
method DSD-PBEPBE-D3
GEN_SCFMAN TRUE
UNRESTRICTED True
THRESH  14
SCF_CONVERGENCE 7
SYMMETRY FALSE
SYM_IGNORE TRUE
max_scf_cycles 200
scf_algorithm gdm

XC_GRID 000099000590
NL_GRID 000075000302
BASIS def2-QZVPPD


$end




