$molecule
0 1
  H    1.986689127   2.146980222  -0.026162115
  H   -0.496468268   2.052302040   0.037791171
  C    2.185067759   0.000000007  -0.029310792
  C    1.478484068   1.194262643  -0.010996002
  C    0.091716418   1.143668238   0.025824530
  N   -0.592818099  -0.000000010   0.045272845
  C    0.091716396  -1.143668253   0.025824563
  C    1.478484064  -1.194262631  -0.010995977
  H   -0.496468255  -2.052302047   0.037791228
  H    1.986689149  -2.146980202  -0.026162074
  H    3.265429842  -0.000000006  -0.058657649
$end



$rem
N_FROZEN_CORE FC
MEM_TOTAL 3750
MEM_STATIC 1500
AUX_BASIS_CORR rimp2-def2-QZVPPD
method DSD-PBEPBE-D3
GEN_SCFMAN TRUE
UNRESTRICTED True
THRESH  14
SCF_CONVERGENCE 7
SYMMETRY FALSE
SYM_IGNORE TRUE
max_scf_cycles 200
scf_algorithm gdm

XC_GRID 000099000590
NL_GRID 000075000302
BASIS def2-QZVPPD


$end




