$molecule
0 1
  H   -2.753768377  -2.210475067  -0.047292647
  H   -4.341939541   1.737606688  -0.626686279
  H   -4.615822952  -0.723358096  -0.723101673
  H   -0.350928670   1.204086960   0.851929772
  H    0.377494959  -0.975478730   0.942801985
  H   -2.197310859   2.691580289   0.164466408
  C   -3.531700236   1.087158381  -0.331757228
  C   -3.682599443  -0.295059366  -0.384511874
  C   -2.646450029  -1.136153472  -0.008513884
  C   -1.437795951  -0.597477822   0.431274086
  C   -1.282003947   0.788302761   0.493396793
  C   -2.327372435   1.619483402   0.110268240
  O   -0.451357053  -1.457971519   0.784920069
$end



$rem
N_FROZEN_CORE FC
MEM_TOTAL 7500
MEM_STATIC 3000
AUX_BASIS_CORR rimp2-def2-QZVPPD
method DSD-PBEPBE-D3
GEN_SCFMAN TRUE
UNRESTRICTED True
THRESH  14
SCF_CONVERGENCE 7
SYMMETRY FALSE
SYM_IGNORE TRUE
max_scf_cycles 200
scf_algorithm gdm

XC_GRID 000099000590
NL_GRID 000075000302
BASIS def2-QZVPPD


$end




