$molecule
0 1
  H   -1.831955075  -2.194313324   0.716880308
  H   -3.597478641   1.702714459   0.343399267
  H   -3.727599332  -0.648917168   1.112518232
  H    0.307741403   0.938782517  -1.249185917
  H    1.156513652  -1.159236087  -0.783698350
  H   -1.565810272   2.485909083  -0.837184484
  C   -2.772979138   1.026861042   0.170844983
  C   -2.843613609  -0.294296959   0.601241969
  C   -1.788474058  -1.167444757   0.384422931
  C   -0.645326297  -0.721580004  -0.275140156
  C   -0.569786235   0.598452510  -0.716975489
  C   -1.632158142   1.464677480  -0.488775996
  O    0.365862254  -1.614436216  -0.460493769
$end



$rem
N_FROZEN_CORE FC
MEM_TOTAL 7500
MEM_STATIC 3000
AUX_BASIS_CORR rimp2-def2-QZVPPD
method DSD-PBEPBE-D3
GEN_SCFMAN TRUE
UNRESTRICTED True
THRESH  14
SCF_CONVERGENCE 7
SYMMETRY FALSE
SYM_IGNORE TRUE
max_scf_cycles 200
scf_algorithm gdm

XC_GRID 000099000590
NL_GRID 000075000302
BASIS def2-QZVPPD


$end




