$molecule
0 1
  H   -2.419995329   1.635357492  -0.355810567
  H   -1.175686708   2.453787058   0.629888462
  H   -0.786507567   1.916960087  -1.025846273
  H   -1.162460179  -2.530074404  -0.636622903
  H   -1.809220088  -1.866139565   0.888566774
  H   -0.041327967  -1.901905995   0.599258377
  C   -1.356178772   1.689483640  -0.123709655
  O   -0.909108685   0.485241126   0.468534758
  O   -1.110631368  -0.544902129  -0.550028756
  C   -1.022163198  -1.778460893   0.138319863
$end



$rem
N_FROZEN_CORE FC
MEM_TOTAL 3750
MEM_STATIC 1500
AUX_BASIS_CORR rimp2-def2-QZVPPD
method DSD-PBEPBE-D3
GEN_SCFMAN TRUE
UNRESTRICTED True
THRESH  14
SCF_CONVERGENCE 7
SYMMETRY FALSE
SYM_IGNORE TRUE
max_scf_cycles 200
scf_algorithm gdm

XC_GRID 000099000590
NL_GRID 000075000302
BASIS def2-QZVPPD


$end




