$molecule
0 1
  H   -3.104228385  -1.023256450   0.982023732
  H   -2.952075429   0.710914775   1.318782870
  H   -1.543737786  -0.361101353   1.533433532
  C   -1.672033873   0.242078546  -1.494032179
  N   -2.039485439   0.059868720  -0.406890303
  C   -2.434153021  -0.167365148   0.939332834
$end



$rem
N_FROZEN_CORE FC
MEM_TOTAL 3750
MEM_STATIC 1500
AUX_BASIS_CORR rimp2-def2-QZVPPD
method DSD-PBEPBE-D3
GEN_SCFMAN TRUE
UNRESTRICTED True
THRESH  14
SCF_CONVERGENCE 7
SYMMETRY FALSE
SYM_IGNORE TRUE
max_scf_cycles 200
scf_algorithm gdm

XC_GRID 000099000590
NL_GRID 000075000302
BASIS def2-QZVPPD


$end




