$molecule
0 1
  O   -3.050330311   0.171066475  -0.458427099
  H   -3.856865980  -0.159954921  -0.859737850
  C   -3.315972522   0.579166220   0.887621548
  H   -2.370965221   0.922211696   1.299126329
  H   -3.682390767  -0.251276575   1.492393722
  H   -4.033984337   1.399519330   0.914886276
$end



$rem
N_FROZEN_CORE FC
MEM_TOTAL 3750
MEM_STATIC 1500
AUX_BASIS_CORR rimp2-def2-QZVPPD
method DSD-PBEPBE-D3
GEN_SCFMAN TRUE
UNRESTRICTED True
THRESH  14
SCF_CONVERGENCE 7
SYMMETRY FALSE
SYM_IGNORE TRUE
max_scf_cycles 200
scf_algorithm gdm

XC_GRID 000099000590
NL_GRID 000075000302
BASIS def2-QZVPPD


$end




