$molecule
0 1
  H   -0.718810902   1.644865477  -1.222594505
  H   -1.861135815   2.713198083  -0.358985586
  H   -2.456273632   1.510605486  -1.536671765
  H   -0.774435455  -1.435173593   1.674210342
  C   -1.664375147  -0.492027940   0.024339196
  O   -1.833684019   0.814037428   0.322930056
  C   -1.707672625   1.723940281  -0.776952443
  C   -1.772482709  -1.359142143   1.241090656
  O   -1.427246749  -0.877634011  -1.093603962
  H   -2.445209083  -0.929148866   1.977685288
  H   -2.101908012  -2.351285493   0.948151523
$end



$rem
N_FROZEN_CORE FC
MEM_TOTAL 3750
MEM_STATIC 1500
AUX_BASIS_CORR rimp2-def2-QZVPPD
method DSD-PBEPBE-D3
GEN_SCFMAN TRUE
UNRESTRICTED True
THRESH  14
SCF_CONVERGENCE 7
SYMMETRY FALSE
SYM_IGNORE TRUE
max_scf_cycles 200
scf_algorithm gdm

XC_GRID 000099000590
NL_GRID 000075000302
BASIS def2-QZVPPD


$end




