$molecule
0 1
  H   -3.347402011   0.069562310  -2.199564713
  H   -2.228896195   1.361289586  -1.819256054
  H   -1.754131090  -0.324447383  -1.486618489
  H   -4.084409047   1.173221967  -0.077314519
  C   -2.579488603   0.380494982  -1.488417970
  C   -3.191365633   0.523959525  -0.133782543
  O   -2.781314047  -0.001182521   0.875360226
$end



$rem
N_FROZEN_CORE FC
MEM_TOTAL 3750
MEM_STATIC 1500
AUX_BASIS_CORR rimp2-def2-QZVPPD
method DSD-PBEPBE-D3
GEN_SCFMAN TRUE
UNRESTRICTED True
THRESH  14
SCF_CONVERGENCE 7
SYMMETRY FALSE
SYM_IGNORE TRUE
max_scf_cycles 200
scf_algorithm gdm

XC_GRID 000099000590
NL_GRID 000075000302
BASIS def2-QZVPPD


$end




