$molecule
0 1
  H   -3.751078364   1.470748928  -0.792569054
  H   -5.045332941   0.524856184  -0.004802837
  H   -3.783580560   1.325902470   0.973422102
  H   -0.174988488  -1.511361001  -0.171804755
  C   -1.922773909  -0.296757138  -0.013651458
  O   -3.256316932  -0.410531318  -0.048708839
  C   -4.001965018   0.816014708   0.038321667
  C   -1.249256242  -1.635994014  -0.093457823
  O   -1.360501443   0.771428362   0.079984487
  H   -1.629476350  -2.194053856  -0.946793367
  H   -1.485778146  -2.210529369   0.801685085
$end



$rem
N_FROZEN_CORE FC
MEM_TOTAL 3750
MEM_STATIC 1500
AUX_BASIS_CORR rimp2-def2-QZVPPD
method DSD-PBEPBE-D3
GEN_SCFMAN TRUE
UNRESTRICTED True
THRESH  14
SCF_CONVERGENCE 7
SYMMETRY FALSE
SYM_IGNORE TRUE
max_scf_cycles 200
scf_algorithm gdm

XC_GRID 000099000590
NL_GRID 000075000302
BASIS def2-QZVPPD


$end




