$molecule
0 1
  H   -1.619552596  -2.028828754   0.309261518
  H   -0.270425633  -1.075392334   0.973651677
  H   -1.866741021  -1.112713141   1.780088431
  H   -3.501011615   1.070696651  -0.851873419
  H   -3.769588195  -0.653509338  -0.479045421
  C   -1.346248177  -1.103482322   0.821503060
  C   -1.798653615   0.070947726  -0.011782751
  O   -1.012465199   0.820858298  -0.548952087
  C   -3.289890492   0.269346402  -0.150447324
  H   -3.715917658   0.516189632   0.823920597
$end



$rem
N_FROZEN_CORE FC
MEM_TOTAL 3750
MEM_STATIC 1500
AUX_BASIS_CORR rimp2-def2-QZVPPD
method DSD-PBEPBE-D3
GEN_SCFMAN TRUE
UNRESTRICTED True
THRESH  14
SCF_CONVERGENCE 7
SYMMETRY FALSE
SYM_IGNORE TRUE
max_scf_cycles 200
scf_algorithm gdm

XC_GRID 000099000590
NL_GRID 000075000302
BASIS def2-QZVPPD


$end




