$molecule
0 1
  C    1.427762508  -1.792157545  -0.534972825
  H    0.460483563  -2.154135743  -0.882843341
  H    1.832718285  -2.526207602   0.156707137
  H    2.091997470  -1.694122061  -1.391627863
  C    1.208191255  -0.491269134   0.204070271
  O    0.719470917  -0.458884414   1.324573131
  N    1.568912270   0.635108010  -0.457454834
  H    1.847034349   0.554057244  -1.418052927
  C    1.281122363   1.955716953   0.071742825
  H    1.566140490   1.994416802   1.119750355
  H    1.856535890   2.692251788  -0.482966264
  H    0.219309178   2.194131380  -0.004588050
$end



$rem
N_FROZEN_CORE FC
MEM_TOTAL 3750
MEM_STATIC 1500
AUX_BASIS_CORR rimp2-def2-QZVPPD
method DSD-PBEPBE-D3
GEN_SCFMAN TRUE
UNRESTRICTED True
THRESH  14
SCF_CONVERGENCE 7
SYMMETRY FALSE
SYM_IGNORE TRUE
max_scf_cycles 200
scf_algorithm gdm

XC_GRID 000099000590
NL_GRID 000075000302
BASIS def2-QZVPPD


$end




