$molecule
0 1
  H    1.030802562  -1.372402870  -0.061521204
  H   -3.264218871  -1.337050468   0.026502579
  H   -1.128718833  -2.589374771  -0.029257978
  H   -1.076686580   2.348274555   0.026823427
  H    1.203011730   2.133068307  -0.058923078
  H   -3.227087213   1.138958464   0.051774709
  C   -2.323284643  -0.807179842   0.015137698
  C   -1.122682951  -1.508777146  -0.015422075
  C    0.091977166  -0.838701534  -0.031641023
  C    0.098158595   0.551035793  -0.015348528
  C   -1.092873054   1.265638078   0.014547673
  C   -2.301935337   0.580930939   0.029138764
  O    1.320760162   1.180268272  -0.027824617
$end



$rem
N_FROZEN_CORE FC
MEM_TOTAL 7500
MEM_STATIC 3000
AUX_BASIS_CORR rimp2-def2-QZVPPD
method DSD-PBEPBE-D3
GEN_SCFMAN TRUE
UNRESTRICTED True
THRESH  14
SCF_CONVERGENCE 7
SYMMETRY FALSE
SYM_IGNORE TRUE
max_scf_cycles 200
scf_algorithm gdm

XC_GRID 000099000590
NL_GRID 000075000302
BASIS def2-QZVPPD


$end




