$molecule
0 1
  O    2.388680733   0.327663734   0.000000000
  H    1.537962776  -0.132351328   0.000000000
  C    3.428661986  -0.632073870   0.000000000
  H    4.373781030  -0.091970573   0.000000000
  H    3.399035303  -1.271319579  -0.888004961
  H    3.399035303  -1.271319579   0.888004961
  H    0.118631371   1.656622992   0.884415489
  H   -0.921783612   2.807060082   0.000000000
  H    0.118631371   1.656622992  -0.884415489
  H   -3.197040599  -0.986744250  -0.877420088
  C   -1.343973709  -0.396991827   0.000000000
  O   -1.618765392   0.910707747   0.000000000
  C   -0.493224942   1.811468897   0.000000000
  C   -2.597558108  -1.224445774   0.000000000
  O   -0.222021374  -0.849983141   0.000000000
  H   -2.339421423  -2.277469114   0.000000000
  H   -3.197040599  -0.986744250   0.877420088
$end



$rem
N_FROZEN_CORE FC
MEM_TOTAL 7500
MEM_STATIC 3000
AUX_BASIS_CORR rimp2-def2-QZVPPD
method DSD-PBEPBE-D3
GEN_SCFMAN TRUE
UNRESTRICTED True
THRESH  14
SCF_CONVERGENCE 7
SYMMETRY FALSE
SYM_IGNORE TRUE
max_scf_cycles 200
scf_algorithm gdm

XC_GRID 000099000590
NL_GRID 000075000302
BASIS def2-QZVPPD


$end




