$molecule
0 1
  H    0.475922860   1.375725254   0.885285969
  H   -0.289696277   2.723261578   0.000000000
  H    0.475922860   1.375725254  -0.885285969
  H   -3.313028472  -0.512728048  -0.877454038
  C   -1.376848893  -0.320674852   0.000000000
  O   -1.377745540   1.021268335   0.000000000
  C   -0.088316386   1.657933624   0.000000000
  C   -2.775617261  -0.869193902   0.000000000
  O   -0.369845559  -0.985832774   0.000000000
  H   -2.741202755  -1.952892288   0.000000000
  H   -3.313028472  -0.512728048   0.877454038
$end



$rem
N_FROZEN_CORE FC
MEM_TOTAL 3750
MEM_STATIC 1500
AUX_BASIS_CORR rimp2-def2-QZVPPD
method DSD-PBEPBE-D3
GEN_SCFMAN TRUE
UNRESTRICTED True
THRESH  14
SCF_CONVERGENCE 7
SYMMETRY FALSE
SYM_IGNORE TRUE
max_scf_cycles 200
scf_algorithm gdm

XC_GRID 000099000590
NL_GRID 000075000302
BASIS def2-QZVPPD


$end




