$molecule
0 1
  H    3.495970934  -0.319556165   0.875913925
  H    3.669861405   1.205199624   0.000000000
  H    3.495970934  -0.319556165  -0.875913925
  H    1.497365330   2.341184522  -0.875313292
  H    1.974266730  -2.143158448   0.881909736
  H    1.974266730  -2.143158448  -0.881909736
  H    0.525487044  -2.631863499   0.000000000
  H    1.497365330   2.341184522   0.875313292
  H    0.043328432   1.806403519   0.000000000
  C    1.664085130   0.397976829   0.000000000
  N    0.848894204  -0.576364977   0.000000000
  C    1.360869527  -1.936118074   0.000000000
  C    1.129647416   1.800463358   0.000000000
  C    3.166886061   0.241956031   0.000000000
$end



$rem
N_FROZEN_CORE FC
MEM_TOTAL 3750
MEM_STATIC 1500
AUX_BASIS_CORR rimp2-def2-QZVPPD
method DSD-PBEPBE-D3
GEN_SCFMAN TRUE
UNRESTRICTED True
THRESH  14
SCF_CONVERGENCE 7
SYMMETRY FALSE
SYM_IGNORE TRUE
max_scf_cycles 200
scf_algorithm gdm

XC_GRID 000099000590
NL_GRID 000075000302
BASIS def2-QZVPPD


$end




