$molecule
0 1
  H   -0.487047745  -1.330451406   1.174699964
  H   -1.567767336  -1.792998672  -0.145265011
  H    0.197056733  -1.844110097  -0.364169501
  H   -0.578423731   0.138144874  -1.354322212
  H   -1.603659426   1.915443725  -0.215200240
  H   -1.558448030   0.975745298   1.273691395
  H   -2.657963919   0.499617817  -0.025782612
  C   -0.620224176  -1.289785297   0.092812828
  N   -0.573137642   0.099058036  -0.344154454
  C   -1.659633637   0.906418573   0.189938429
$end



$rem
N_FROZEN_CORE FC
MEM_TOTAL 3750
MEM_STATIC 1500
AUX_BASIS_CORR rimp2-def2-QZVPPD
method DSD-PBEPBE-D3
GEN_SCFMAN TRUE
UNRESTRICTED True
THRESH  14
SCF_CONVERGENCE 7
SYMMETRY FALSE
SYM_IGNORE TRUE
max_scf_cycles 200
scf_algorithm gdm

XC_GRID 000099000590
NL_GRID 000075000302
BASIS def2-QZVPPD


$end




