$molecule
0 1
  H    2.152137033  -0.766005846   2.140072505
  H    3.622190921   2.640902643   0.000000000
  H    3.130742351   1.491102915   2.138917637
  H    2.152137033  -0.766005846  -2.140072505
  H    1.639439219  -2.727206007   0.827414162
  H    3.130742351   1.491102915  -2.138917637
  H    1.639439219  -2.727206007  -0.827414162
  C    3.200294497   1.646903505   0.000000000
  C    2.924602164   1.000130905   1.198537718
  C    2.379056306  -0.275358695   1.202959388
  C    2.102550392  -0.923248028   0.000000000
  C    2.379056306  -0.275358695  -1.202959388
  C    2.924602164   1.000130905  -1.198537718
  N    1.459261261  -2.178197355   0.000000000
$end



$rem
N_FROZEN_CORE FC
MEM_TOTAL 7500
MEM_STATIC 3000
AUX_BASIS_CORR rimp2-def2-QZVPPD
method DSD-PBEPBE-D3
GEN_SCFMAN TRUE
UNRESTRICTED True
THRESH  14
SCF_CONVERGENCE 7
SYMMETRY FALSE
SYM_IGNORE TRUE
max_scf_cycles 200
scf_algorithm gdm

XC_GRID 000099000590
NL_GRID 000075000302
BASIS def2-QZVPPD


$end




