$molecule
0 1
  H   -1.973579827  -1.966208151  -0.895853265
  H   -1.973579827  -1.966208151   0.895853265
  H   -0.416998643  -1.910380642   0.000000000
  C   -1.462008011  -1.627033881   0.000000000
  O   -1.441749232  -0.156735294   0.000000000
  C   -2.591731336   0.420428077   0.000000000
  N   -3.606203495   0.970139094   0.000000000
$end



$rem
N_FROZEN_CORE FC
MEM_TOTAL 3750
MEM_STATIC 1500
AUX_BASIS_CORR rimp2-def2-QZVPPD
method DSD-PBEPBE-D3
GEN_SCFMAN TRUE
UNRESTRICTED True
THRESH  14
SCF_CONVERGENCE 7
SYMMETRY FALSE
SYM_IGNORE TRUE
max_scf_cycles 200
scf_algorithm gdm

XC_GRID 000099000590
NL_GRID 000075000302
BASIS def2-QZVPPD


$end




