$molecule
0 1
  H    2.107025287  -1.701374970  -0.763163279
  H    1.523541706  -1.794253063   0.882273182
  H    0.391951824  -1.313685574  -0.421497865
  H    2.852055952   0.330111694   0.536162192
  C    1.413170979  -1.242481901  -0.054630670
  C    1.816293618   0.181708015   0.169415126
  O    1.108522412   1.140098040  -0.017009849
$end



$rem
N_FROZEN_CORE FC
MEM_TOTAL 3750
MEM_STATIC 1500
AUX_BASIS_CORR rimp2-def2-QZVPPD
method DSD-PBEPBE-D3
GEN_SCFMAN TRUE
UNRESTRICTED True
THRESH  14
SCF_CONVERGENCE 7
SYMMETRY FALSE
SYM_IGNORE TRUE
max_scf_cycles 200
scf_algorithm gdm

XC_GRID 000099000590
NL_GRID 000075000302
BASIS def2-QZVPPD


$end




