$molecule
0 1
  H    3.355429018  -0.934717772  -1.290790701
  H    1.931841112  -0.230862194  -2.083218779
  H    1.783851700  -1.751232113  -1.200108665
  H    1.783851700  -1.751232113   1.200108665
  H    3.355429018  -0.934717772   1.290790701
  H    1.931841112  -0.230862194   2.083218779
  H    3.598258189   1.265174519   0.000000000
  H    2.171375758   1.838212991   0.883484819
  C    2.269962581  -0.777099441  -1.204157517
  N    1.911752804  -0.041127084   0.000000000
  C    2.269962581  -0.777099441   1.204157517
  C    2.498307746   1.291920701   0.000000000
  H    2.171375758   1.838212991  -0.883484819
$end



$rem
N_FROZEN_CORE FC
MEM_TOTAL 3750
MEM_STATIC 1500
AUX_BASIS_CORR rimp2-def2-QZVPPD
method DSD-PBEPBE-D3
GEN_SCFMAN TRUE
UNRESTRICTED True
THRESH  14
SCF_CONVERGENCE 7
SYMMETRY FALSE
SYM_IGNORE TRUE
max_scf_cycles 200
scf_algorithm gdm

XC_GRID 000099000590
NL_GRID 000075000302
BASIS def2-QZVPPD


$end




