$molecule
0 1
  H   -0.430894121   0.294146501   1.585975304
  H   -3.949377891   2.148720654  -0.026712098
  H   -1.986729455   2.215306924   1.482458163
  H   -2.788392630  -1.766162816  -1.328054428
  H   -0.890879838  -2.596320376  -0.352072176
  H   -4.343183171   0.146531395  -1.429627593
  C   -3.270694499   1.310092802   0.019996318
  C   -2.168661177   1.345774263   0.867294480
  C   -1.291402020   0.273170414   0.934236351
  C   -1.521749786  -0.843653487   0.140324138
  C   -2.618264754  -0.892561956  -0.711442849
  C   -3.490977952   0.187108609  -0.766490682
  O   -0.620606070  -1.879371711   0.228145233
$end



$rem
N_FROZEN_CORE FC
MEM_TOTAL 7500
MEM_STATIC 3000
AUX_BASIS_CORR rimp2-def2-QZVPPD
method DSD-PBEPBE-D3
GEN_SCFMAN TRUE
UNRESTRICTED True
THRESH  14
SCF_CONVERGENCE 7
SYMMETRY FALSE
SYM_IGNORE TRUE
max_scf_cycles 200
scf_algorithm gdm

XC_GRID 000099000590
NL_GRID 000075000302
BASIS def2-QZVPPD


$end




