$molecule
0 1
  H    1.921751394   0.214616430   2.129529710
  H    4.372392430  -0.582303727   1.287127090
  H    4.351658464  -0.331648876  -1.413101366
  H    1.889702286   0.603730878  -2.056960005
  N    1.570058416   0.530103652   0.050126276
  C    2.320209368   0.159320574   1.132735865
  C    3.555098398  -0.240570452   0.676802304
  C    3.544223272  -0.109285592  -0.737935896
  C    2.303118140   0.365992052  -1.093633593
  H    0.598858289   0.811229561   0.083448956
$end



$rem
N_FROZEN_CORE FC
MEM_TOTAL 3750
MEM_STATIC 1500
AUX_BASIS_CORR rimp2-def2-QZVPPD
method DSD-PBEPBE-D3
GEN_SCFMAN TRUE
UNRESTRICTED True
THRESH  14
SCF_CONVERGENCE 7
SYMMETRY FALSE
SYM_IGNORE TRUE
max_scf_cycles 200
scf_algorithm gdm

XC_GRID 000099000590
NL_GRID 000075000302
BASIS def2-QZVPPD


$end




