$molecule
0 1
  C   -2.498540088   0.314138598   0.003107715
  H   -1.507984959   0.715844514   0.067477482
  C   -3.597164489  -0.156447883  -0.071492992
  H   -4.574158592  -0.565069501  -0.136620036
$end



$rem
N_FROZEN_CORE FC
MEM_TOTAL 3750
MEM_STATIC 1500
AUX_BASIS_CORR rimp2-def2-QZVPPD
method DSD-PBEPBE-D3
GEN_SCFMAN TRUE
UNRESTRICTED True
THRESH  14
SCF_CONVERGENCE 7
SYMMETRY FALSE
SYM_IGNORE TRUE
max_scf_cycles 200
scf_algorithm gdm

XC_GRID 000099000590
NL_GRID 000075000302
BASIS def2-QZVPPD


$end




