$molecule
0 1
  O    1.499998666   0.638146390   0.024254433
  H    2.181728485   1.265666975  -0.223020658
  C    2.036408414  -0.681460402  -0.005591660
  H    1.222008019  -1.355722254   0.247078832
  H    2.411034965  -0.945086194  -0.997114918
  H    2.835606360  -0.809185391   0.727865032
$end



$rem
N_FROZEN_CORE FC
MEM_TOTAL 3750
MEM_STATIC 1500
AUX_BASIS_CORR rimp2-def2-QZVPPD
method DSD-PBEPBE-D3
GEN_SCFMAN TRUE
UNRESTRICTED True
THRESH  14
SCF_CONVERGENCE 7
SYMMETRY FALSE
SYM_IGNORE TRUE
max_scf_cycles 200
scf_algorithm gdm

XC_GRID 000099000590
NL_GRID 000075000302
BASIS def2-QZVPPD


$end




