$molecule
0 1
  N   -3.312799791   0.000000000  -0.000510853
  H   -3.686752887   0.814714097   0.470363775
  H   -3.684166775   0.000000003  -0.942499068
  H   -3.686752905  -0.814714087   0.470363779
$end



$rem
N_FROZEN_CORE FC
MEM_TOTAL 3750
MEM_STATIC 1500
AUX_BASIS_CORR rimp2-def2-QZVPPD
method DSD-PBEPBE-D3
GEN_SCFMAN TRUE
UNRESTRICTED True
THRESH  14
SCF_CONVERGENCE 7
SYMMETRY FALSE
SYM_IGNORE TRUE
max_scf_cycles 200
scf_algorithm gdm

XC_GRID 000099000590
NL_GRID 000075000302
BASIS def2-QZVPPD


$end




