$molecule
0 1
  C   -1.444764264  -0.138392197   0.000000000
  O   -0.619758351  -1.022825600   0.000000000
  O   -1.137714723   1.164096064   0.000000000
  H   -0.165595132   1.277343658   0.000000000
  C   -2.932098307  -0.359440656   0.000000000
  H   -3.146633163  -1.422252968   0.000000000
  H   -3.374053135   0.111866563  -0.876819295
  H   -3.374053135   0.111866563   0.876819295
$end



$rem
N_FROZEN_CORE FC
MEM_TOTAL 3750
MEM_STATIC 1500
AUX_BASIS_CORR rimp2-def2-QZVPPD
method DSD-PBEPBE-D3
GEN_SCFMAN TRUE
UNRESTRICTED True
THRESH  14
SCF_CONVERGENCE 7
SYMMETRY FALSE
SYM_IGNORE TRUE
max_scf_cycles 200
scf_algorithm gdm

XC_GRID 000099000590
NL_GRID 000075000302
BASIS def2-QZVPPD


$end




