$molecule
0 1
  H   -1.749137853  -2.321378372  -0.507903990
  H   -4.156128557   1.195838864   0.022547296
  H   -3.963129635  -1.214484474  -0.523274027
  H    0.084738982   1.370590325   0.613566285
  H    1.245908210  -0.587960312   0.211225926
  H   -2.113820917   2.478206375   0.589500289
  C   -3.191350583   0.710338754   0.029440534
  C   -3.079231238  -0.642642774  -0.276259519
  C   -1.844178713  -1.271742120  -0.270160033
  C   -0.691065478  -0.550678404   0.045825781
  C   -0.801351847   0.807186950   0.357304449
  C   -2.044488758   1.426831394   0.345826106
  O    0.490203787  -1.205236905   0.039072874
$end



$rem
N_FROZEN_CORE FC
MEM_TOTAL 7500
MEM_STATIC 3000
AUX_BASIS_CORR rimp2-def2-QZVPPD
method DSD-PBEPBE-D3
GEN_SCFMAN TRUE
UNRESTRICTED True
THRESH  14
SCF_CONVERGENCE 7
SYMMETRY FALSE
SYM_IGNORE TRUE
max_scf_cycles 200
scf_algorithm gdm

XC_GRID 000099000590
NL_GRID 000075000302
BASIS def2-QZVPPD


$end




