$molecule
0 1
  H    0.978274764   2.101781861  -0.204061062
  H    3.519600476   1.356075081   0.370580363
  H    3.519600476  -1.356075081   0.370580363
  H    0.978274764  -2.101781861  -0.204061062
  N    0.627113075  -0.000000000  -0.284360306
  C    1.397549985   1.116435183  -0.108070033
  C    2.680108539   0.710261470   0.181864603
  C    2.680108539  -0.710261470   0.181864603
  C    1.397549985  -1.116435183  -0.108070033
  H   -0.373053477  -0.000000000  -0.489080736
$end



$rem
N_FROZEN_CORE FC
MEM_TOTAL 3750
MEM_STATIC 1500
AUX_BASIS_CORR rimp2-def2-QZVPPD
method DSD-PBEPBE-D3
GEN_SCFMAN TRUE
UNRESTRICTED True
THRESH  14
SCF_CONVERGENCE 7
SYMMETRY FALSE
SYM_IGNORE TRUE
max_scf_cycles 200
scf_algorithm gdm

XC_GRID 000099000590
NL_GRID 000075000302
BASIS def2-QZVPPD


$end




