$molecule
0 1
  C    0.625405809   1.795438616  -0.275935061
  H    1.207342635   2.335590843  -1.020263888
  H   -0.403039260   1.703394652  -0.618280931
  H    0.649710536   2.379440668   0.642907965
  C    1.291015338   0.457626562  -0.018002750
  O    2.459257807   0.375872492   0.329032499
  N    0.505374112  -0.631442090  -0.191101509
  H   -0.454909074  -0.515442922  -0.475703048
  C    1.019876175  -1.967885882   0.027683957
  H    1.824443122  -2.200742458  -0.670135581
  H    0.210432257  -2.679739893  -0.111406553
  H    1.419351159  -2.070493672   1.036152222
$end



$rem
N_FROZEN_CORE FC
MEM_TOTAL 3750
MEM_STATIC 1500
AUX_BASIS_CORR rimp2-def2-QZVPPD
method DSD-PBEPBE-D3
GEN_SCFMAN TRUE
UNRESTRICTED True
THRESH  14
SCF_CONVERGENCE 7
SYMMETRY FALSE
SYM_IGNORE TRUE
max_scf_cycles 200
scf_algorithm gdm

XC_GRID 000099000590
NL_GRID 000075000302
BASIS def2-QZVPPD


$end




