$molecule
0 1
  H   -0.885655721   1.955570749   0.766038729
  H    0.727977311   1.490228749   0.155195956
  H   -0.607312122   1.845978568  -0.959664525
  H   -2.445682306  -1.378293829  -0.117941530
  H   -2.675362892   0.017717260   0.958783387
  C   -0.342652301   1.399366103   0.001306739
  C   -0.769884685  -0.046299884  -0.000854706
  O    0.032158207  -0.957657332  -0.014023604
  C   -2.253492851  -0.317488886   0.009270476
  H   -2.751878663   0.252600483  -0.775546459
$end



$rem
N_FROZEN_CORE FC
MEM_TOTAL 3750
MEM_STATIC 1500
AUX_BASIS_CORR rimp2-def2-QZVPPD
method DSD-PBEPBE-D3
GEN_SCFMAN TRUE
UNRESTRICTED True
THRESH  14
SCF_CONVERGENCE 7
SYMMETRY FALSE
SYM_IGNORE TRUE
max_scf_cycles 200
scf_algorithm gdm

XC_GRID 000099000590
NL_GRID 000075000302
BASIS def2-QZVPPD


$end




