$molecule
0 1
  H   -2.820693880   1.479045762  -0.049386319
  H   -1.146576503   2.060258743  -0.136557163
  H   -1.798765712   1.491330523   1.401875389
  H   -2.093932928  -0.860949367   1.781351543
  H   -3.138378445  -1.053236032   0.359168318
  H   -1.658371875  -2.018283845   0.521868515
  H   -2.177546908  -0.213605286  -1.893246487
  H   -0.768647593  -1.241817602  -1.564397201
  C   -1.797198948   1.319742229   0.326538557
  N   -1.301052623  -0.015960316   0.042534265
  C   -2.092736692  -1.036822032   0.706735784
  C   -1.200159543  -0.257886738  -1.386790529
  H   -0.547291142   0.486181385  -1.840817437
$end



$rem
N_FROZEN_CORE FC
MEM_TOTAL 3750
MEM_STATIC 1500
AUX_BASIS_CORR rimp2-def2-QZVPPD
method DSD-PBEPBE-D3
GEN_SCFMAN TRUE
UNRESTRICTED True
THRESH  14
SCF_CONVERGENCE 7
SYMMETRY FALSE
SYM_IGNORE TRUE
max_scf_cycles 200
scf_algorithm gdm

XC_GRID 000099000590
NL_GRID 000075000302
BASIS def2-QZVPPD


$end




