$molecule
0 1
  H    1.891024826  -1.401675558  -1.349506199
  H    1.279632610  -1.726254594   0.254785640
  H    3.070851303  -1.482461903   0.017175034
  C    2.065843994  -1.203390690  -0.290106405
  N    1.822785771   0.229261798  -0.089896631
  O    2.751473795   0.860931431   0.325862175
$end



$rem
N_FROZEN_CORE FC
MEM_TOTAL 3750
MEM_STATIC 1500
AUX_BASIS_CORR rimp2-def2-QZVPPD
method DSD-PBEPBE-D3
GEN_SCFMAN TRUE
UNRESTRICTED True
THRESH  14
SCF_CONVERGENCE 7
SYMMETRY FALSE
SYM_IGNORE TRUE
max_scf_cycles 200
scf_algorithm gdm

XC_GRID 000099000590
NL_GRID 000075000302
BASIS def2-QZVPPD


$end




