$molecule
0 1
  C    1.176313769   0.088121290   0.030200439
  O    0.672948322   1.176240815   0.217487640
  O    0.496647972  -1.055816157   0.081086722
  H   -0.467538763  -0.848189572   0.298263018
  C    2.633769353  -0.121133504  -0.285316637
  H    3.145986270   0.834074498  -0.322519011
  H    3.086159370  -0.758159649   0.473739971
  H    2.733750015  -0.636676755  -1.239644515
  N   -2.014481416  -0.177615640   0.588706996
  H   -1.648368283   0.667216801   1.012376873
  H   -2.665906389  -0.600022500   1.236860895
  C   -2.661561110   0.138854465  -0.690995371
  H   -2.998585046  -0.781874496  -1.163535630
  H   -3.515714503   0.813777961  -0.597838323
  H   -1.927054772   0.605302163  -1.344045575
$end



$rem
N_FROZEN_CORE FC
MEM_TOTAL 7500
MEM_STATIC 3000
AUX_BASIS_CORR rimp2-def2-QZVPPD
method DSD-PBEPBE-D3
GEN_SCFMAN TRUE
UNRESTRICTED True
THRESH  14
SCF_CONVERGENCE 7
SYMMETRY FALSE
SYM_IGNORE TRUE
max_scf_cycles 200
scf_algorithm gdm

XC_GRID 000099000590
NL_GRID 000075000302
BASIS def2-QZVPPD


$end




