$molecule
0 1
  H   -1.716658354  -1.455861151   1.290887204
  H   -0.319734953  -1.596203259   0.176224965
  H   -1.914885897  -2.295295061  -0.274607758
  C   -1.399045366  -1.502617531   0.252772128
  O   -1.819731622  -0.268632557  -0.423099712
  C   -1.192599606   0.787928283  -0.073983584
  N   -0.628491744   1.753563666   0.219285804
$end



$rem
N_FROZEN_CORE FC
MEM_TOTAL 3750
MEM_STATIC 1500
AUX_BASIS_CORR rimp2-def2-QZVPPD
method DSD-PBEPBE-D3
GEN_SCFMAN TRUE
UNRESTRICTED True
THRESH  14
SCF_CONVERGENCE 7
SYMMETRY FALSE
SYM_IGNORE TRUE
max_scf_cycles 200
scf_algorithm gdm

XC_GRID 000099000590
NL_GRID 000075000302
BASIS def2-QZVPPD


$end




