$molecule
0 1
  C   -1.406794039  -1.762606241  -0.415104483
  H   -0.329963292  -1.685191078  -0.550470991
  H   -1.619968542  -2.415390217   0.429840405
  H   -1.846968955  -2.220642788  -1.298852990
  C   -2.079503286  -0.424994223  -0.177253533
  O   -3.285535920  -0.328968972  -0.017161003
  N   -1.255383783   0.650870250  -0.147915340
  H   -0.265688787   0.524185901  -0.287144604
  C   -1.771959306   1.988460300   0.061886409
  H   -2.361215531   2.034930410   0.976598222
  H   -2.415325716   2.298821931  -0.761694941
  H   -0.935067942   2.677804861   0.138362011
$end



$rem
N_FROZEN_CORE FC
MEM_TOTAL 3750
MEM_STATIC 1500
AUX_BASIS_CORR rimp2-def2-QZVPPD
method DSD-PBEPBE-D3
GEN_SCFMAN TRUE
UNRESTRICTED True
THRESH  14
SCF_CONVERGENCE 7
SYMMETRY FALSE
SYM_IGNORE TRUE
max_scf_cycles 200
scf_algorithm gdm

XC_GRID 000099000590
NL_GRID 000075000302
BASIS def2-QZVPPD


$end




