$molecule
0 1
  H   -2.036071347   1.715914880  -0.886107363
  H   -0.519933077   1.396871626   0.000000000
  H   -2.036071347   1.715914880   0.886107363
  C   -2.076121961  -1.281782126   0.000000000
  N   -1.882124042  -0.135412826   0.000000000
  C   -1.601799289   1.257398213   0.000000000
$end



$rem
N_FROZEN_CORE FC
MEM_TOTAL 3750
MEM_STATIC 1500
AUX_BASIS_CORR rimp2-def2-QZVPPD
method DSD-PBEPBE-D3
GEN_SCFMAN TRUE
UNRESTRICTED True
THRESH  14
SCF_CONVERGENCE 7
SYMMETRY FALSE
SYM_IGNORE TRUE
max_scf_cycles 200
scf_algorithm gdm

XC_GRID 000099000590
NL_GRID 000075000302
BASIS def2-QZVPPD


$end




