$molecule
0 1
  H   -3.168306746  -2.207251584   0.481394929
  H   -3.129315888  -1.894756570  -1.269493474
  H   -2.021864105  -3.093869323  -0.555270821
  H   -3.073775963   2.334894309  -0.506432101
  H   -3.103827044   2.022492803   1.240359803
  H   -4.558576759   1.696915127   0.255332732
  O   -1.482003972  -1.186391719  -0.202962409
  C   -1.778219896   0.090738297   0.019697686
  O   -0.925326186   0.924451153   0.187069011
  O   -3.093637329   0.325582925   0.035394605
  C   -3.474707406   1.693329375   0.273537484
  C   -2.532296890  -2.150337201  -0.398059955
$end



$rem
N_FROZEN_CORE FC
MEM_TOTAL 3750
MEM_STATIC 1500
AUX_BASIS_CORR rimp2-def2-QZVPPD
method DSD-PBEPBE-D3
GEN_SCFMAN TRUE
UNRESTRICTED True
THRESH  14
SCF_CONVERGENCE 7
SYMMETRY FALSE
SYM_IGNORE TRUE
max_scf_cycles 200
scf_algorithm gdm

XC_GRID 000099000590
NL_GRID 000075000302
BASIS def2-QZVPPD


$end




