$molecule
0 1
  H    1.872910612   1.615760631   1.577599301
  H    4.156630815   0.468183392   0.677824300
  H    3.406838421  -1.265292306  -1.268258158
  H    0.703316179  -1.069977399  -1.438352927
  N    0.949382559   0.363842415   0.116751746
  C    2.012608781   0.876124892   0.810299102
  C    3.155238336   0.276999621   0.334564423
  C    2.761946429  -0.631923260  -0.684994544
  C    1.393420547  -0.555460715  -0.795397508
  H   -0.018860715   0.608848340   0.257161109
$end



$rem
N_FROZEN_CORE FC
MEM_TOTAL 3750
MEM_STATIC 1500
AUX_BASIS_CORR rimp2-def2-QZVPPD
method DSD-PBEPBE-D3
GEN_SCFMAN TRUE
UNRESTRICTED True
THRESH  14
SCF_CONVERGENCE 7
SYMMETRY FALSE
SYM_IGNORE TRUE
max_scf_cycles 200
scf_algorithm gdm

XC_GRID 000099000590
NL_GRID 000075000302
BASIS def2-QZVPPD


$end




