$molecule
0 1
  H   -2.779877396   1.059789022   0.836291859
  H   -1.409548585   1.757792631  -0.041995029
  H   -2.747394347   1.014310650  -0.933511715
  C   -2.136951698   0.948183870  -0.034826149
  C   -1.449272567  -0.330918656   0.010463961
  N   -0.897531723  -1.337234772   0.044873032
$end



$rem
N_FROZEN_CORE FC
MEM_TOTAL 3750
MEM_STATIC 1500
AUX_BASIS_CORR rimp2-def2-QZVPPD
method DSD-PBEPBE-D3
GEN_SCFMAN TRUE
UNRESTRICTED True
THRESH  14
SCF_CONVERGENCE 7
SYMMETRY FALSE
SYM_IGNORE TRUE
max_scf_cycles 200
scf_algorithm gdm

XC_GRID 000099000590
NL_GRID 000075000302
BASIS def2-QZVPPD


$end




