$molecule
0 1
  O    2.999701175  -0.319943641  -0.172917795
  H    2.388078688   0.421818579  -0.058881323
  C    2.344260718  -1.507591036   0.236535675
  H    3.035896244  -2.333120631   0.078302825
  H    1.436678961  -1.698677142  -0.343226163
  H    2.074335753  -1.485180888   1.297253087
$end



$rem
N_FROZEN_CORE FC
MEM_TOTAL 3750
MEM_STATIC 1500
AUX_BASIS_CORR rimp2-def2-QZVPPD
method DSD-PBEPBE-D3
GEN_SCFMAN TRUE
UNRESTRICTED True
THRESH  14
SCF_CONVERGENCE 7
SYMMETRY FALSE
SYM_IGNORE TRUE
max_scf_cycles 200
scf_algorithm gdm

XC_GRID 000099000590
NL_GRID 000075000302
BASIS def2-QZVPPD


$end




