$molecule
0 1
  H   -2.622042850   0.631960921   2.279775212
  H   -4.196768401   0.121069375   1.588671290
  H   -3.524960788   1.754654160   1.275530073
  H   -3.040976503  -1.134038334  -2.364398759
  H   -1.462133737  -0.583897067  -1.720478996
  H   -2.100877122  -2.215464043  -1.352162734
  C   -3.290188760   0.700420482   1.421249857
  N   -2.561816800   0.235521829   0.245522592
  N   -3.090566511  -0.705894498  -0.342847765
  C   -2.357765690  -1.168933721  -1.516313816
$end



$rem
N_FROZEN_CORE FC
MEM_TOTAL 3750
MEM_STATIC 1500
AUX_BASIS_CORR rimp2-def2-QZVPPD
method DSD-PBEPBE-D3
GEN_SCFMAN TRUE
UNRESTRICTED True
THRESH  14
SCF_CONVERGENCE 7
SYMMETRY FALSE
SYM_IGNORE TRUE
max_scf_cycles 200
scf_algorithm gdm

XC_GRID 000099000590
NL_GRID 000075000302
BASIS def2-QZVPPD


$end




