$molecule
0 1
  H    2.645622862  -0.990790190  -1.485319919
  H    2.891681970  -1.644972483   0.181561483
  H    1.282968362  -1.738776472  -0.606509615
  C    2.207071011  -1.173478310  -0.511736327
  N    1.792863747   0.137025767   0.060102605
  O    1.342685808   0.966087780  -0.726752840
  O    1.875553415   0.294426530   1.257366727
$end



$rem
N_FROZEN_CORE FC
MEM_TOTAL 3750
MEM_STATIC 1500
AUX_BASIS_CORR rimp2-def2-QZVPPD
method DSD-PBEPBE-D3
GEN_SCFMAN TRUE
UNRESTRICTED True
THRESH  14
SCF_CONVERGENCE 7
SYMMETRY FALSE
SYM_IGNORE TRUE
max_scf_cycles 200
scf_algorithm gdm

XC_GRID 000099000590
NL_GRID 000075000302
BASIS def2-QZVPPD


$end




