$molecule
0 1
  N   -1.738257590  -0.036342273  -0.699663151
  H   -0.969151528   0.623244535  -0.709253901
  H   -2.412123860   0.266661278  -1.389648823
  C   -2.343321657  -0.084029552   0.630262989
  H   -3.147801398  -0.819221818   0.641315593
  H   -2.750634222   0.869215527   0.986797531
  H   -1.594673646  -0.411287084   1.351770086
$end



$rem
N_FROZEN_CORE FC
MEM_TOTAL 3750
MEM_STATIC 1500
AUX_BASIS_CORR rimp2-def2-QZVPPD
method DSD-PBEPBE-D3
GEN_SCFMAN TRUE
UNRESTRICTED True
THRESH  14
SCF_CONVERGENCE 7
SYMMETRY FALSE
SYM_IGNORE TRUE
max_scf_cycles 200
scf_algorithm gdm

XC_GRID 000099000590
NL_GRID 000075000302
BASIS def2-QZVPPD


$end




