$molecule
0 1
  N   -2.686823654  -0.709667888   0.000000000
  H   -3.029865796  -1.205470879  -0.812432369
  H   -3.029865796  -1.205470879   0.812432369
  C   -3.159971402   0.680082376   0.000000000
  H   -2.767652967   1.189992825   0.878229590
  H   -4.248379384   0.786266140   0.000000000
  H   -2.767652967   1.189992825  -0.878229590
$end



$rem
N_FROZEN_CORE FC
MEM_TOTAL 3750
MEM_STATIC 1500
AUX_BASIS_CORR rimp2-def2-QZVPPD
method DSD-PBEPBE-D3
GEN_SCFMAN TRUE
UNRESTRICTED True
THRESH  14
SCF_CONVERGENCE 7
SYMMETRY FALSE
SYM_IGNORE TRUE
max_scf_cycles 200
scf_algorithm gdm

XC_GRID 000099000590
NL_GRID 000075000302
BASIS def2-QZVPPD


$end




