$molecule
0 1
  H    0.406471079  -0.906440076   0.922867363
  H   -3.590494581  -1.862085663  -0.297159934
  H   -1.369925019  -2.566801478   0.553005047
  H   -2.217179063   2.195257682  -0.422195912
  H    1.172906698   1.346792869   0.451122760
  H   -3.994294824   0.537521158  -0.775857137
  H    0.102895572   2.588683218   0.064238610
  C   -2.808412364  -1.133976801  -0.140763714
  C   -1.561292315  -1.524981679   0.334423534
  C   -0.554661051  -0.594495182   0.539239486
  C   -0.771178774   0.762567869   0.265614711
  C   -2.029587498   1.150553966  -0.209866718
  C   -3.031073151   0.212205604  -0.407362691
  N    0.225676766   1.695471081   0.509211734
$end



$rem
N_FROZEN_CORE FC
MEM_TOTAL 7500
MEM_STATIC 3000
AUX_BASIS_CORR rimp2-def2-QZVPPD
method DSD-PBEPBE-D3
GEN_SCFMAN TRUE
UNRESTRICTED True
THRESH  14
SCF_CONVERGENCE 7
SYMMETRY FALSE
SYM_IGNORE TRUE
max_scf_cycles 200
scf_algorithm gdm

XC_GRID 000099000590
NL_GRID 000075000302
BASIS def2-QZVPPD


$end




