$molecule
0 1
  N    2.089797222  -0.114383308  -0.691561125
  H    1.203225172   0.251170644  -1.014369894
  H    2.813189158   0.249569404  -1.296575623
  C    2.320399586   0.276944512   0.698485013
  H    3.246507355  -0.172481754   1.056303175
  H    2.385037144   1.359011715   0.868650288
  H    1.507976249  -0.107421659   1.312766089
$end



$rem
N_FROZEN_CORE FC
MEM_TOTAL 3750
MEM_STATIC 1500
AUX_BASIS_CORR rimp2-def2-QZVPPD
method DSD-PBEPBE-D3
GEN_SCFMAN TRUE
UNRESTRICTED True
THRESH  14
SCF_CONVERGENCE 7
SYMMETRY FALSE
SYM_IGNORE TRUE
max_scf_cycles 200
scf_algorithm gdm

XC_GRID 000099000590
NL_GRID 000075000302
BASIS def2-QZVPPD


$end




