$molecule
0 1
  N    2.915424005  -0.636720099  -0.327762382
  H    2.019642277  -0.869421399   0.093291787
  H    3.616017416  -0.692728013   0.400758561
  H    3.132764480  -1.362718184  -0.998735687
$end



$rem
N_FROZEN_CORE FC
MEM_TOTAL 3750
MEM_STATIC 1500
AUX_BASIS_CORR rimp2-def2-QZVPPD
method DSD-PBEPBE-D3
GEN_SCFMAN TRUE
UNRESTRICTED True
THRESH  14
SCF_CONVERGENCE 7
SYMMETRY FALSE
SYM_IGNORE TRUE
max_scf_cycles 200
scf_algorithm gdm

XC_GRID 000099000590
NL_GRID 000075000302
BASIS def2-QZVPPD


$end




