$molecule
0 1
  C    1.171947069   1.668049406  -0.678143887
  H    1.516372126   2.536525480  -0.121352529
  H    0.090766463   1.585464780  -0.591785907
  H    1.436533747   1.825352729  -1.723578674
  C    1.909784714   0.445061910  -0.171618720
  O    3.118429561   0.442637690   0.001589023
  N    1.142198692  -0.646912217   0.067093460
  H    0.151222785  -0.612769628  -0.111842979
  C    1.729710724  -1.892903091   0.515978668
  H    2.318087272  -1.737194958   1.418993251
  H    0.930791442  -2.599421971   0.726412416
  H    2.392016228  -2.317011077  -0.239586909
$end



$rem
N_FROZEN_CORE FC
MEM_TOTAL 3750
MEM_STATIC 1500
AUX_BASIS_CORR rimp2-def2-QZVPPD
method DSD-PBEPBE-D3
GEN_SCFMAN TRUE
UNRESTRICTED True
THRESH  14
SCF_CONVERGENCE 7
SYMMETRY FALSE
SYM_IGNORE TRUE
max_scf_cycles 200
scf_algorithm gdm

XC_GRID 000099000590
NL_GRID 000075000302
BASIS def2-QZVPPD


$end




