$molecule
0 1
  H   -3.781713200   0.499789709   1.294531387
  H   -3.109056295  -1.134189570   1.254762795
  H   -2.237958484   0.172541951   2.079712003
  H   -1.211748947  -0.083925505   0.000000000
  H   -2.237958484   0.172541951  -2.079712003
  H   -3.781713200   0.499789709  -1.294531387
  H   -3.109056295  -1.134189570  -1.254762795
  C   -2.849822159  -0.063582297   1.209724225
  N   -2.146403305   0.315667599   0.000000000
  C   -2.849822159  -0.063582297  -1.209724225
$end



$rem
N_FROZEN_CORE FC
MEM_TOTAL 3750
MEM_STATIC 1500
AUX_BASIS_CORR rimp2-def2-QZVPPD
method DSD-PBEPBE-D3
GEN_SCFMAN TRUE
UNRESTRICTED True
THRESH  14
SCF_CONVERGENCE 7
SYMMETRY FALSE
SYM_IGNORE TRUE
max_scf_cycles 200
scf_algorithm gdm

XC_GRID 000099000590
NL_GRID 000075000302
BASIS def2-QZVPPD


$end




