$molecule
0 1
  C   -1.777898205  -0.187614033  -0.014413407
  O   -0.831164252  -0.942130687  -0.068633075
  O   -1.665755297   1.136026085   0.100652869
  H   -0.716769499   1.393190277   0.129354693
  C   -3.214918988  -0.627409329  -0.070424866
  H   -3.739711571  -0.286873166   0.821021108
  H   -3.704820132  -0.168234020  -0.928118721
  H   -3.268559519  -1.707705159  -0.146328218
$end



$rem
N_FROZEN_CORE FC
MEM_TOTAL 3750
MEM_STATIC 1500
AUX_BASIS_CORR rimp2-def2-QZVPPD
method DSD-PBEPBE-D3
GEN_SCFMAN TRUE
UNRESTRICTED True
THRESH  14
SCF_CONVERGENCE 7
SYMMETRY FALSE
SYM_IGNORE TRUE
max_scf_cycles 200
scf_algorithm gdm

XC_GRID 000099000590
NL_GRID 000075000302
BASIS def2-QZVPPD


$end




