$molecule
0 1
  H   -1.011395585   1.342008641  -0.884472404
  H   -0.283475544   2.711694142   0.000000000
  H   -1.011395585   1.342008641   0.884472404
  H    2.849382443  -0.410893082  -0.877429992
  C    0.908234371  -0.292204661   0.000000000
  O    0.855419447   1.043057833   0.000000000
  C   -0.456113720   1.641602556   0.000000000
  C    2.326239552  -0.787980552   0.000000000
  O   -0.068865259  -1.005608147   0.000000000
  H    2.849382443  -0.410893082   0.877429992
  H    2.333555993  -1.872167984   0.000000000
$end



$rem
N_FROZEN_CORE FC
MEM_TOTAL 3750
MEM_STATIC 1500
AUX_BASIS_CORR rimp2-def2-QZVPPD
method DSD-PBEPBE-D3
GEN_SCFMAN TRUE
UNRESTRICTED True
THRESH  14
SCF_CONVERGENCE 7
SYMMETRY FALSE
SYM_IGNORE TRUE
max_scf_cycles 200
scf_algorithm gdm

XC_GRID 000099000590
NL_GRID 000075000302
BASIS def2-QZVPPD


$end




