$molecule
0 1
  O    2.918572453   0.000000000  -0.605637020
  H    1.949094148   0.000000000  -0.504913136
  C    3.497253484   0.000000000   0.681677575
  H    4.579607695   0.000000000   0.560896664
  H    3.221051514   0.887249147   1.263031668
  H    3.221051514  -0.887249147   1.263031668
  H   -2.479468939   2.146999384   0.149245623
  H   -0.018739313   2.052345875  -0.190758575
  C   -2.675660888   0.000000000   0.177382161
  C   -1.975581823   1.194345616   0.080819669
  C   -0.601343049   1.143788024  -0.108281371
  N    0.076852238   0.000000000  -0.200914078
  C   -0.601343049  -1.143788024  -0.108281371
  C   -1.975581823  -1.194345616   0.080819669
  H   -0.018739313  -2.052345875  -0.190758575
  H   -2.479468939  -2.146999384   0.149245623
  H   -3.746375272   0.000000000   0.324301814
$end



$rem
N_FROZEN_CORE FC
MEM_TOTAL 7500
MEM_STATIC 3000
AUX_BASIS_CORR rimp2-def2-QZVPPD
method DSD-PBEPBE-D3
GEN_SCFMAN TRUE
UNRESTRICTED True
THRESH  14
SCF_CONVERGENCE 7
SYMMETRY FALSE
SYM_IGNORE TRUE
max_scf_cycles 200
scf_algorithm gdm

XC_GRID 000099000590
NL_GRID 000075000302
BASIS def2-QZVPPD


$end




