$molecule
0 1
  C    2.449319184   0.044371208   0.000000000
  H    1.384768316  -0.058136862   0.000000000
  C    3.640694696   0.161388052   0.000000000
  H    4.696775374   0.264808000   0.000000000
  H   -0.760662065  -2.294954561   0.877886344
  H   -2.296537657  -1.999206226   0.000000000
  H   -0.760662065  -2.294954561  -0.877886344
  H   -1.970082718   2.200511581  -0.877585149
  H   -0.433512568   1.915962815   0.000000000
  H   -1.970082718   2.200511581   0.877585149
  C   -1.218714842  -1.839039114   0.000000000
  N   -0.876893227  -0.419796855   0.000000000
  N   -1.853387237   0.327743657   0.000000000
  C   -1.510206175   1.746124500   0.000000000
$end



$rem
N_FROZEN_CORE FC
MEM_TOTAL 3750
MEM_STATIC 1500
AUX_BASIS_CORR rimp2-def2-QZVPPD
method DSD-PBEPBE-D3
GEN_SCFMAN TRUE
UNRESTRICTED True
THRESH  14
SCF_CONVERGENCE 7
SYMMETRY FALSE
SYM_IGNORE TRUE
max_scf_cycles 200
scf_algorithm gdm

XC_GRID 000099000590
NL_GRID 000075000302
BASIS def2-QZVPPD


$end




