$molecule
0 1
  H    0.774689833   0.199637499  -1.441248647
  H    1.748024546  -0.523181373  -2.749126439
  H    1.376592899  -1.459873062  -1.275412742
  H    4.383953851   1.699090828   0.183115785
  C    2.909722515   0.160527406   0.188419008
  O    2.831587492   0.030792327  -1.136555525
  C    1.593806399  -0.474423167  -1.677525158
  C    4.240314801   0.709476805   0.614709182
  O    2.012552362  -0.126734941   0.950502234
  H    5.040850131   0.072993299   0.241574802
  H    4.281606462   0.767432096   1.696490905
$end



$rem
N_FROZEN_CORE FC
MEM_TOTAL 3750
MEM_STATIC 1500
AUX_BASIS_CORR rimp2-def2-QZVPPD
method DSD-PBEPBE-D3
GEN_SCFMAN TRUE
UNRESTRICTED True
THRESH  14
SCF_CONVERGENCE 7
SYMMETRY FALSE
SYM_IGNORE TRUE
max_scf_cycles 200
scf_algorithm gdm

XC_GRID 000099000590
NL_GRID 000075000302
BASIS def2-QZVPPD


$end




