$molecule
0 1
  N   -2.344403272  -0.465357477  -0.713483010
  H   -1.470883704  -0.812145831  -0.330859986
  H   -2.713250565  -1.178985136  -1.327481537
  C   -3.286996117  -0.178980010   0.365879202
  H   -4.215685195   0.213848858  -0.048716902
  H   -3.536631103  -1.037803015   1.000427839
  H   -2.867562741   0.592832014   1.011281587
$end



$rem
N_FROZEN_CORE FC
MEM_TOTAL 3750
MEM_STATIC 1500
AUX_BASIS_CORR rimp2-def2-QZVPPD
method DSD-PBEPBE-D3
GEN_SCFMAN TRUE
UNRESTRICTED True
THRESH  14
SCF_CONVERGENCE 7
SYMMETRY FALSE
SYM_IGNORE TRUE
max_scf_cycles 200
scf_algorithm gdm

XC_GRID 000099000590
NL_GRID 000075000302
BASIS def2-QZVPPD


$end




