$molecule
0 1
  H    1.259234240  -1.721061566   0.305419934
  H    2.948182090  -2.166304689  -0.118373815
  H    2.617732247  -1.261035780   1.386922096
  C    2.304651880  -1.440257379   0.362047563
  O    2.502330419  -0.204683376  -0.410630564
  C    1.763600547   0.780398294  -0.091580864
  N    1.117988406   1.702893394   0.168962125
$end



$rem
N_FROZEN_CORE FC
MEM_TOTAL 3750
MEM_STATIC 1500
AUX_BASIS_CORR rimp2-def2-QZVPPD
method DSD-PBEPBE-D3
GEN_SCFMAN TRUE
UNRESTRICTED True
THRESH  14
SCF_CONVERGENCE 7
SYMMETRY FALSE
SYM_IGNORE TRUE
max_scf_cycles 200
scf_algorithm gdm

XC_GRID 000099000590
NL_GRID 000075000302
BASIS def2-QZVPPD


$end




