$molecule
0 1
  H   -2.244111562   1.285322419   0.205481390
  H   -1.220631112   1.256452127  -1.235255710
  H   -0.673400262   2.081630632   0.237561012
  H    0.392014890   0.000000000   0.198501901
  H   -0.673400262  -2.081630632   0.237561012
  H   -2.244111562  -1.285322419   0.205481390
  H   -1.220631112  -1.256452127  -1.235255710
  C   -1.208955397   1.208540059  -0.133824979
  N   -0.603695898   0.000000000   0.392539194
  C   -1.208955397  -1.208540059  -0.133824979
$end



$rem
N_FROZEN_CORE FC
MEM_TOTAL 3750
MEM_STATIC 1500
AUX_BASIS_CORR rimp2-def2-QZVPPD
method DSD-PBEPBE-D3
GEN_SCFMAN TRUE
UNRESTRICTED True
THRESH  14
SCF_CONVERGENCE 7
SYMMETRY FALSE
SYM_IGNORE TRUE
max_scf_cycles 200
scf_algorithm gdm

XC_GRID 000099000590
NL_GRID 000075000302
BASIS def2-QZVPPD


$end




