$molecule
0 1
  H    1.681814893  -1.335350569  -1.988718791
  H    1.338677982  -2.766506568  -0.975055988
  H    0.345259032  -1.291928442  -0.792804642
  C    1.329394565  -1.684845240  -1.022077432
  O    2.275605067  -1.258605285   0.011638518
  C    2.446138288   0.002521234   0.130658979
  N    2.638686571   1.133514526   0.267962467
$end



$rem
N_FROZEN_CORE FC
MEM_TOTAL 3750
MEM_STATIC 1500
AUX_BASIS_CORR rimp2-def2-QZVPPD
method DSD-PBEPBE-D3
GEN_SCFMAN TRUE
UNRESTRICTED True
THRESH  14
SCF_CONVERGENCE 7
SYMMETRY FALSE
SYM_IGNORE TRUE
max_scf_cycles 200
scf_algorithm gdm

XC_GRID 000099000590
NL_GRID 000075000302
BASIS def2-QZVPPD


$end




