$molecule
0 1
  H   -0.568163801   1.206840850   0.000001572
  H   -2.949384580   2.505912955   0.000002207
  H   -4.854487058   0.574832500  -0.000000907
  H   -3.524487732  -1.785868816  -0.000003134
  N   -1.792372843  -0.538614531  -0.000001024
  C   -1.567382356   0.812099593   0.000000755
  C   -2.789697306   1.442021038   0.000000960
  C   -3.788448457   0.430298206  -0.000000629
  C   -3.139772747  -0.782110297  -0.000001779
  H   -1.069841222  -1.244357727  -0.000000706
$end



$rem
N_FROZEN_CORE FC
MEM_TOTAL 3750
MEM_STATIC 1500
AUX_BASIS_CORR rimp2-def2-QZVPPD
method DSD-PBEPBE-D3
GEN_SCFMAN TRUE
UNRESTRICTED True
THRESH  14
SCF_CONVERGENCE 7
SYMMETRY FALSE
SYM_IGNORE TRUE
max_scf_cycles 200
scf_algorithm gdm

XC_GRID 000099000590
NL_GRID 000075000302
BASIS def2-QZVPPD


$end




