$molecule
0 1
  H   -2.752615032  -2.172433111   0.081073602
  H   -4.204716470   1.798335712  -0.674693562
  H   -4.569861011  -0.652930895  -0.641192548
  H   -0.210159409   1.188426738   0.768297006
  H    0.446893056  -1.009372931   0.955726895
  H   -2.012969612   2.708967820   0.035075202
  C   -3.413881054   1.133471130  -0.359638272
  C   -3.615777978  -0.243193984  -0.339311360
  C   -2.604853585  -1.102274563   0.063383737
  C   -1.367914684  -0.590042901   0.457545555
  C   -1.162116742   0.791939215   0.445684352
  C   -2.182952460   1.640887326   0.036867483
  O   -0.410181885  -1.465688618   0.837173645
$end



$rem
N_FROZEN_CORE FC
MEM_TOTAL 7500
MEM_STATIC 3000
AUX_BASIS_CORR rimp2-def2-QZVPPD
method DSD-PBEPBE-D3
GEN_SCFMAN TRUE
UNRESTRICTED True
THRESH  14
SCF_CONVERGENCE 7
SYMMETRY FALSE
SYM_IGNORE TRUE
max_scf_cycles 200
scf_algorithm gdm

XC_GRID 000099000590
NL_GRID 000075000302
BASIS def2-QZVPPD


$end




