$molecule
0 1
  N    2.971889660   0.590639235  -0.346701354
  H    3.098880290   0.356902133  -1.322519228
  H    3.731920532   1.206728662  -0.091292212
  C    2.976773294  -0.618356379   0.481774695
  H    2.828836425  -0.337692576   1.523734107
  H    3.894024893  -1.213576409   0.417305903
  H    2.138331382  -1.250926431   0.195953902
$end



$rem
N_FROZEN_CORE FC
MEM_TOTAL 3750
MEM_STATIC 1500
AUX_BASIS_CORR rimp2-def2-QZVPPD
method DSD-PBEPBE-D3
GEN_SCFMAN TRUE
UNRESTRICTED True
THRESH  14
SCF_CONVERGENCE 7
SYMMETRY FALSE
SYM_IGNORE TRUE
max_scf_cycles 200
scf_algorithm gdm

XC_GRID 000099000590
NL_GRID 000075000302
BASIS def2-QZVPPD


$end




