$molecule
0 1
  O   -2.348486771  -0.056624773   0.613156522
  H   -1.412690424   0.210139175   0.505412839
  C   -2.950204140  -0.062602351  -0.662438603
  H   -3.976678500  -0.408762548  -0.548850877
  H   -2.440086705  -0.737765341  -1.360088137
  H   -2.976982213   0.935160117  -1.115595138
$end



$rem
N_FROZEN_CORE FC
MEM_TOTAL 3750
MEM_STATIC 1500
AUX_BASIS_CORR rimp2-def2-QZVPPD
method DSD-PBEPBE-D3
GEN_SCFMAN TRUE
UNRESTRICTED True
THRESH  14
SCF_CONVERGENCE 7
SYMMETRY FALSE
SYM_IGNORE TRUE
max_scf_cycles 200
scf_algorithm gdm

XC_GRID 000099000590
NL_GRID 000075000302
BASIS def2-QZVPPD


$end




