$molecule
0 1
  H   -0.054356305   2.140415839  -0.558070726
  H    3.258046682   0.000000000   1.115644044
  H    2.141906974   2.138797359   0.549725362
  H   -0.054356305  -2.140415839  -0.558070726
  H   -1.698775484   0.829771094  -1.747163012
  H    2.141906974  -2.138797359   0.549725362
  H   -1.698775484  -0.829771094  -1.747163012
  C    2.295104028   0.000000000   0.626918956
  C    1.667327876   1.198178699   0.308267707
  C    0.430549553   1.202927930  -0.320025537
  C   -0.198250575   0.000000000  -0.643209635
  C    0.430549553  -1.202927930  -0.320025537
  C    1.667327876  -1.198178699   0.308267707
  N   -1.482029804   0.000000000  -1.216934336
$end



$rem
N_FROZEN_CORE FC
MEM_TOTAL 7500
MEM_STATIC 3000
AUX_BASIS_CORR rimp2-def2-QZVPPD
method DSD-PBEPBE-D3
GEN_SCFMAN TRUE
UNRESTRICTED True
THRESH  14
SCF_CONVERGENCE 7
SYMMETRY FALSE
SYM_IGNORE TRUE
max_scf_cycles 200
scf_algorithm gdm

XC_GRID 000099000590
NL_GRID 000075000302
BASIS def2-QZVPPD


$end




