$molecule
0 1
  H   -0.091281120   0.008918050   1.914192261
  H    2.772152837   2.392304915  -0.207622505
  H    1.061474768   2.154981071   1.572747058
  H    2.157416724  -1.705936061  -1.297132911
  H   -0.684294008  -2.110083410   0.812083831
  H    3.320811644   0.432474402  -1.624859121
  H    0.376922697  -2.867625811  -0.225038828
  C    2.264798640   1.450722589  -0.058580710
  C    1.303001855   1.314067601   0.936911840
  C    0.649825069   0.107545418   1.133879595
  C    0.938010968  -0.998076780   0.323730574
  C    1.918337803  -0.860176779  -0.665487419
  C    2.570963535   0.349198066  -0.850315447
  N    0.279342647  -2.203853076   0.525223627
$end



$rem
N_FROZEN_CORE FC
MEM_TOTAL 7500
MEM_STATIC 3000
AUX_BASIS_CORR rimp2-def2-QZVPPD
method DSD-PBEPBE-D3
GEN_SCFMAN TRUE
UNRESTRICTED True
THRESH  14
SCF_CONVERGENCE 7
SYMMETRY FALSE
SYM_IGNORE TRUE
max_scf_cycles 200
scf_algorithm gdm

XC_GRID 000099000590
NL_GRID 000075000302
BASIS def2-QZVPPD


$end




