$molecule
0 1
  H   -2.818389581  -0.653355727  -0.888871135
  H   -2.818389581  -0.653355727   0.888871135
  H   -3.668331381   0.635625150   0.000000000
  H    1.415893902  -1.357886888   0.885042540
  H    1.415893902  -1.357886888  -0.885042540
  H    0.650716180  -2.707882679   0.000000000
  O   -1.666070437   0.842112531   0.000000000
  C   -0.439401698   0.325782866   0.000000000
  O    0.539613374   1.028010483   0.000000000
  O   -0.440773904  -1.009314980   0.000000000
  C    0.855274637  -1.643377460   0.000000000
  C   -2.810270185  -0.027543337   0.000000000
$end



$rem
N_FROZEN_CORE FC
MEM_TOTAL 3750
MEM_STATIC 1500
AUX_BASIS_CORR rimp2-def2-QZVPPD
method DSD-PBEPBE-D3
GEN_SCFMAN TRUE
UNRESTRICTED True
THRESH  14
SCF_CONVERGENCE 7
SYMMETRY FALSE
SYM_IGNORE TRUE
max_scf_cycles 200
scf_algorithm gdm

XC_GRID 000099000590
NL_GRID 000075000302
BASIS def2-QZVPPD


$end




