$molecule
0 1
  H    1.359503415  -1.756933035  -1.073181597
  H    0.988594928  -2.519391568   0.498118276
  H   -0.339143116  -1.925999830  -0.532477140
  H    0.596095135   2.475169524  -0.615997688
  H    2.044505916   1.639923710   0.013912387
  H    0.634783633   1.920385404   1.077501210
  C    0.688961616  -1.751181412  -0.212818275
  O    0.798237328  -0.539633349   0.510768531
  O    0.365970878   0.505928549  -0.415087848
  C    0.957001084   1.701029255   0.058631471
$end



$rem
N_FROZEN_CORE FC
MEM_TOTAL 3750
MEM_STATIC 1500
AUX_BASIS_CORR rimp2-def2-QZVPPD
method DSD-PBEPBE-D3
GEN_SCFMAN TRUE
UNRESTRICTED True
THRESH  14
SCF_CONVERGENCE 7
SYMMETRY FALSE
SYM_IGNORE TRUE
max_scf_cycles 200
scf_algorithm gdm

XC_GRID 000099000590
NL_GRID 000075000302
BASIS def2-QZVPPD


$end




