$molecule
0 1
  H    1.528665063   1.242364695  -1.122194022
  H    2.937446617   0.827128954  -0.133090719
  H    1.697900917   1.940739425   0.484660667
  H    1.277257745  -0.165221936   1.431322669
  H    0.725850901  -2.112603450   0.243605388
  H    0.927092010  -1.234703808  -1.270292759
  H    2.347121746  -1.618079686  -0.286059225
  C    1.861499955   1.040713723  -0.104432523
  N    1.072655528  -0.057205108   0.447122990
  C    1.291085560  -1.322293730  -0.246795885
$end



$rem
N_FROZEN_CORE FC
MEM_TOTAL 3750
MEM_STATIC 1500
AUX_BASIS_CORR rimp2-def2-QZVPPD
method DSD-PBEPBE-D3
GEN_SCFMAN TRUE
UNRESTRICTED True
THRESH  14
SCF_CONVERGENCE 7
SYMMETRY FALSE
SYM_IGNORE TRUE
max_scf_cycles 200
scf_algorithm gdm

XC_GRID 000099000590
NL_GRID 000075000302
BASIS def2-QZVPPD


$end




