$molecule
0 1
  H    3.869065935   0.221917348  -0.996175487
  H    2.409343251   0.006780472   2.147522845
  H    0.760138276  -0.151176698   1.478905157
  H    1.907873771  -1.503490093   1.407211632
  O    1.609365469   0.489865888  -0.876420845
  C    2.294203392   0.049640415   0.016283603
  O    3.627987149  -0.082720043  -0.109927410
  C    1.802638729  -0.420018243   1.351804431
$end



$rem
N_FROZEN_CORE FC
MEM_TOTAL 3750
MEM_STATIC 1500
AUX_BASIS_CORR rimp2-def2-QZVPPD
method DSD-PBEPBE-D3
GEN_SCFMAN TRUE
UNRESTRICTED True
THRESH  14
SCF_CONVERGENCE 7
SYMMETRY FALSE
SYM_IGNORE TRUE
max_scf_cycles 200
scf_algorithm gdm

XC_GRID 000099000590
NL_GRID 000075000302
BASIS def2-QZVPPD


$end




