$molecule
0 1
  O   -2.078218400  -0.406636970   0.220658442
  H   -1.287163445   0.153861844   0.226683253
  C   -3.184467993   0.356925802  -0.220588799
  H   -4.052691539  -0.299619987  -0.235464679
  H   -3.036726222   0.752119841  -1.230877149
  H   -3.400403579   1.194407390   0.450288533
$end



$rem
N_FROZEN_CORE FC
MEM_TOTAL 3750
MEM_STATIC 1500
AUX_BASIS_CORR rimp2-def2-QZVPPD
method DSD-PBEPBE-D3
GEN_SCFMAN TRUE
UNRESTRICTED True
THRESH  14
SCF_CONVERGENCE 7
SYMMETRY FALSE
SYM_IGNORE TRUE
max_scf_cycles 200
scf_algorithm gdm

XC_GRID 000099000590
NL_GRID 000075000302
BASIS def2-QZVPPD


$end




