$molecule
0 1
  O   -1.595339818   0.688093212  -0.217449474
  H   -0.701470430   0.441608071   0.094804663
  C   -2.487690514  -0.352566612   0.115895092
  H   -3.479099900  -0.070073065  -0.235371639
  H   -2.218418840  -1.301891789  -0.362427056
  H   -2.547933056  -0.520131412   1.197548045
$end



$rem
N_FROZEN_CORE FC
MEM_TOTAL 3750
MEM_STATIC 1500
AUX_BASIS_CORR rimp2-def2-QZVPPD
method DSD-PBEPBE-D3
GEN_SCFMAN TRUE
UNRESTRICTED True
THRESH  14
SCF_CONVERGENCE 7
SYMMETRY FALSE
SYM_IGNORE TRUE
max_scf_cycles 200
scf_algorithm gdm

XC_GRID 000099000590
NL_GRID 000075000302
BASIS def2-QZVPPD


$end




