$molecule
0 1
  C   -3.860666669   0.831022543  -0.000000000
  H   -3.977366510   1.463983206   0.877607624
  H   -3.977366510   1.463983206  -0.877607624
  H   -4.640747858   0.072505500  -0.000000000
  C   -2.461805110   0.259241251  -0.000000000
  O   -1.477556340   0.990296557  -0.000000000
  N   -2.362470436  -1.086938171  -0.000000000
  H   -3.205363656  -1.630168564  -0.000000000
  C   -1.082620748  -1.777103878  -0.000000000
  H   -0.496861595  -1.515456883  -0.878901520
  H   -1.265274035  -2.847575639  -0.000000000
  H   -0.496861595  -1.515456883   0.878901520
$end



$rem
N_FROZEN_CORE FC
MEM_TOTAL 3750
MEM_STATIC 1500
AUX_BASIS_CORR rimp2-def2-QZVPPD
method DSD-PBEPBE-D3
GEN_SCFMAN TRUE
UNRESTRICTED True
THRESH  14
SCF_CONVERGENCE 7
SYMMETRY FALSE
SYM_IGNORE TRUE
max_scf_cycles 200
scf_algorithm gdm

XC_GRID 000099000590
NL_GRID 000075000302
BASIS def2-QZVPPD


$end




