$molecule
0 1
  H    2.548677391  -2.094571129  -1.130111016
  H    0.980266659  -1.605165583  -0.468281267
  H    1.506913609  -1.013692285  -2.052155703
  H    1.920756964   0.696645292  -0.506983684
  H    3.354256073   0.568361576   1.329328203
  H    3.693181246  -1.117243491   0.949828074
  H    2.098799884  -0.665703403   1.566351617
  C    1.848233821  -1.261129901  -1.048370045
  N    2.523284366  -0.114189272  -0.462549827
  C    2.924790818  -0.342647145   0.913546034
$end



$rem
N_FROZEN_CORE FC
MEM_TOTAL 3750
MEM_STATIC 1500
AUX_BASIS_CORR rimp2-def2-QZVPPD
method DSD-PBEPBE-D3
GEN_SCFMAN TRUE
UNRESTRICTED True
THRESH  14
SCF_CONVERGENCE 7
SYMMETRY FALSE
SYM_IGNORE TRUE
max_scf_cycles 200
scf_algorithm gdm

XC_GRID 000099000590
NL_GRID 000075000302
BASIS def2-QZVPPD


$end




