$molecule
0 1
  N   -2.383131087   0.409173345   0.081905534
  H   -2.001495420  -0.520888038  -0.054419067
  H   -3.097344818   0.547217287  -0.622270453
  H   -2.850998983   0.410292032   0.979797824
$end



$rem
N_FROZEN_CORE FC
MEM_TOTAL 3750
MEM_STATIC 1500
AUX_BASIS_CORR rimp2-def2-QZVPPD
method DSD-PBEPBE-D3
GEN_SCFMAN TRUE
UNRESTRICTED True
THRESH  14
SCF_CONVERGENCE 7
SYMMETRY FALSE
SYM_IGNORE TRUE
max_scf_cycles 200
scf_algorithm gdm

XC_GRID 000099000590
NL_GRID 000075000302
BASIS def2-QZVPPD


$end




