$molecule
0 1
  H   -2.392323265   2.139747950  -1.173787046
  H   -3.574159843   0.830559295  -1.497531206
  H   -1.955256986   0.838829865  -2.269318294
  H   -2.236005205  -2.211202226   1.230036159
  H   -1.058178133  -0.908460939   1.584987614
  H   -2.687495326  -0.922810109   2.331450807
  C   -2.520670330   1.074813349  -1.367734398
  N   -1.924646493   0.338955848  -0.256779487
  N   -2.706817903  -0.409616820   0.326624813
  C   -2.110644494  -1.147950013   1.434703300
$end



$rem
N_FROZEN_CORE FC
MEM_TOTAL 3750
MEM_STATIC 1500
AUX_BASIS_CORR rimp2-def2-QZVPPD
method DSD-PBEPBE-D3
GEN_SCFMAN TRUE
UNRESTRICTED True
THRESH  14
SCF_CONVERGENCE 7
SYMMETRY FALSE
SYM_IGNORE TRUE
max_scf_cycles 200
scf_algorithm gdm

XC_GRID 000099000590
NL_GRID 000075000302
BASIS def2-QZVPPD


$end




