$molecule
0 1
  H    2.681665511  -1.354704780   0.023579749
  H    0.020667206   1.621942935   0.089877420
  H    1.575149179   1.816900257   0.951062579
  H    1.539910918   1.880960753  -0.801667404
  O    0.457271097  -0.915458951  -0.125967570
  C    1.311248587  -0.068864489  -0.000367979
  O    2.616531291  -0.391469473   0.086494226
  C    1.084001550   1.409870046   0.068919154
$end



$rem
N_FROZEN_CORE FC
MEM_TOTAL 3750
MEM_STATIC 1500
AUX_BASIS_CORR rimp2-def2-QZVPPD
method DSD-PBEPBE-D3
GEN_SCFMAN TRUE
UNRESTRICTED True
THRESH  14
SCF_CONVERGENCE 7
SYMMETRY FALSE
SYM_IGNORE TRUE
max_scf_cycles 200
scf_algorithm gdm

XC_GRID 000099000590
NL_GRID 000075000302
BASIS def2-QZVPPD


$end




