$molecule
0 1
  C   -1.953282701   0.032088166  -0.044821300
  O   -1.711110452  -1.075603419  -0.464490533
  O   -1.015474390   0.864080740   0.422517152
  H   -0.124441281   0.428022476   0.355942795
  C   -3.329538970   0.637983782   0.016657345
  H   -4.060226608  -0.066589591  -0.364835566
  H   -3.569186888   0.905307586   1.045037322
  H   -3.354467791   1.555811909  -0.569474123
$end



$rem
N_FROZEN_CORE FC
MEM_TOTAL 3750
MEM_STATIC 1500
AUX_BASIS_CORR rimp2-def2-QZVPPD
method DSD-PBEPBE-D3
GEN_SCFMAN TRUE
UNRESTRICTED True
THRESH  14
SCF_CONVERGENCE 7
SYMMETRY FALSE
SYM_IGNORE TRUE
max_scf_cycles 200
scf_algorithm gdm

XC_GRID 000099000590
NL_GRID 000075000302
BASIS def2-QZVPPD


$end




