$molecule
0 1
  N   -2.524608363   0.202777346  -0.588500777
  H   -2.990806037   1.077615504  -0.790985523
  H   -2.796949590  -0.444286205  -1.317065535
  C   -2.919900801  -0.302455618   0.731858421
  H   -2.402903126  -1.240678784   0.924905081
  H   -3.994017243  -0.472723040   0.846687124
  H   -2.601614825   0.405820331   1.494638899
$end



$rem
N_FROZEN_CORE FC
MEM_TOTAL 3750
MEM_STATIC 1500
AUX_BASIS_CORR rimp2-def2-QZVPPD
method DSD-PBEPBE-D3
GEN_SCFMAN TRUE
UNRESTRICTED True
THRESH  14
SCF_CONVERGENCE 7
SYMMETRY FALSE
SYM_IGNORE TRUE
max_scf_cycles 200
scf_algorithm gdm

XC_GRID 000099000590
NL_GRID 000075000302
BASIS def2-QZVPPD


$end




