$molecule
0 1
  H    5.297039372   1.195383491  -0.885890929
  H    5.821635772  -0.246260142   0.000041658
  H    5.297002816   1.195392013   0.885938714
  C    5.122361533   0.587763040   0.000023208
  C    3.758186606   0.090539491  -0.000002558
  N    2.681579833  -0.302984381  -0.000022678
$end



$rem
N_FROZEN_CORE FC
MEM_TOTAL 3750
MEM_STATIC 1500
AUX_BASIS_CORR rimp2-def2-QZVPPD
method DSD-PBEPBE-D3
GEN_SCFMAN TRUE
UNRESTRICTED True
THRESH  14
SCF_CONVERGENCE 7
SYMMETRY FALSE
SYM_IGNORE TRUE
max_scf_cycles 200
scf_algorithm gdm

XC_GRID 000099000590
NL_GRID 000075000302
BASIS def2-QZVPPD


$end




