$molecule
0 1
  H    1.228993299   1.296197486   0.340842700
  H    0.191029954   2.742520248   0.154831328
  H    0.500867347   1.665967693  -1.233789355
  H   -2.190346805  -1.967572559   0.068623053
  C   -0.879444616  -0.297766152  -0.090930470
  O   -0.837107220   1.005278767   0.218283921
  C    0.358957708   1.717354906  -0.156379954
  C   -2.175187075  -0.920545731   0.350290668
  O    0.014417600  -0.883860380  -0.652628842
  H   -2.281340282  -0.824319647   1.429954822
  H   -3.014214764  -0.398100762  -0.106462947
$end



$rem
N_FROZEN_CORE FC
MEM_TOTAL 3750
MEM_STATIC 1500
AUX_BASIS_CORR rimp2-def2-QZVPPD
method DSD-PBEPBE-D3
GEN_SCFMAN TRUE
UNRESTRICTED True
THRESH  14
SCF_CONVERGENCE 7
SYMMETRY FALSE
SYM_IGNORE TRUE
max_scf_cycles 200
scf_algorithm gdm

XC_GRID 000099000590
NL_GRID 000075000302
BASIS def2-QZVPPD


$end




