$molecule
0 1
  H   -2.371485892   1.661358185   0.470233836
  H   -1.271970547   2.413996601  -0.716233158
  H   -0.651737743   1.920830404   0.882043210
  H   -0.998331437  -2.517369677   0.733143609
  H   -1.659941798  -1.993520531  -0.837362387
  H    0.097660874  -1.847990781  -0.505166061
  C   -1.352144657   1.676914619   0.081053030
  O   -1.022198836   0.447237633  -0.527060124
  O   -1.126918229  -0.543028363   0.544332284
  C   -0.903390626  -1.795007879  -0.076067860
$end



$rem
N_FROZEN_CORE FC
MEM_TOTAL 3750
MEM_STATIC 1500
AUX_BASIS_CORR rimp2-def2-QZVPPD
method DSD-PBEPBE-D3
GEN_SCFMAN TRUE
UNRESTRICTED True
THRESH  14
SCF_CONVERGENCE 7
SYMMETRY FALSE
SYM_IGNORE TRUE
max_scf_cycles 200
scf_algorithm gdm

XC_GRID 000099000590
NL_GRID 000075000302
BASIS def2-QZVPPD


$end




