$molecule
0 1
  H   -2.213588927   1.209006381   1.275250578
  H   -3.733964693   0.308021180   1.265804280
  H   -2.303731522  -0.349667224   2.088248986
  H   -2.481149876  -1.411517161   0.000000000
  H   -2.303731522  -0.349667224  -2.088248986
  H   -2.213588927   1.209006381  -1.275250578
  H   -3.733964693   0.308021180  -1.265804280
  C   -2.642130430   0.208504971   1.217442241
  N   -2.175475010  -0.447348328   0.000000000
  C   -2.642130430   0.208504971  -1.217442241
$end



$rem
N_FROZEN_CORE FC
MEM_TOTAL 3750
MEM_STATIC 1500
AUX_BASIS_CORR rimp2-def2-QZVPPD
method DSD-PBEPBE-D3
GEN_SCFMAN TRUE
UNRESTRICTED True
THRESH  14
SCF_CONVERGENCE 7
SYMMETRY FALSE
SYM_IGNORE TRUE
max_scf_cycles 200
scf_algorithm gdm

XC_GRID 000099000590
NL_GRID 000075000302
BASIS def2-QZVPPD


$end




