$molecule
0 1
  H    1.940821318  -1.758125761   0.875108408
  H    1.940821279  -1.758126074  -0.875108172
  H    0.427130498  -1.393607536   0.000000104
  H    2.985734307   0.372943524  -0.000000415
  C    1.506149660  -1.269746698   0.000000037
  C    1.895294274   0.176459777  -0.000000126
  O    1.121515189   1.100311531   0.000000134
$end



$rem
N_FROZEN_CORE FC
MEM_TOTAL 3750
MEM_STATIC 1500
AUX_BASIS_CORR rimp2-def2-QZVPPD
method DSD-PBEPBE-D3
GEN_SCFMAN TRUE
UNRESTRICTED True
THRESH  14
SCF_CONVERGENCE 7
SYMMETRY FALSE
SYM_IGNORE TRUE
max_scf_cycles 200
scf_algorithm gdm

XC_GRID 000099000590
NL_GRID 000075000302
BASIS def2-QZVPPD


$end




