$molecule
0 1
  C   -2.467768462   1.450486403  -0.204498905
  H   -1.848838709   2.280117562  -0.541652702
  H   -3.153712508   1.171345450  -1.002085983
  H   -3.039532031   1.796386522   0.654330241
  C   -1.561592505   0.322712809   0.239450536
  O   -0.753778728   0.469682633   1.146417225
  N   -1.692878809  -0.847003658  -0.427294235
  H   -2.377839573  -0.912131585  -1.156518938
  C   -0.897322795  -2.021003509  -0.100153574
  H    0.161903310  -1.835480006  -0.272931353
  H   -1.228859353  -2.847168050  -0.723151931
  H   -1.030580270  -2.288919590   0.947142725
$end



$rem
N_FROZEN_CORE FC
MEM_TOTAL 3750
MEM_STATIC 1500
AUX_BASIS_CORR rimp2-def2-QZVPPD
method DSD-PBEPBE-D3
GEN_SCFMAN TRUE
UNRESTRICTED True
THRESH  14
SCF_CONVERGENCE 7
SYMMETRY FALSE
SYM_IGNORE TRUE
max_scf_cycles 200
scf_algorithm gdm

XC_GRID 000099000590
NL_GRID 000075000302
BASIS def2-QZVPPD


$end




