$molecule
0 1
  H   -2.451110258   0.746367814   1.292991230
  H   -0.964751081   0.182819634   2.081882026
  H   -0.964752125   1.711355722   1.199543845
  H   -0.964751760   1.711554516  -1.199260296
  H   -2.451109874   0.746581994  -1.292867932
  H   -0.964750487   0.183164637  -2.081851613
  H   -2.451091268  -1.492970368  -0.000123801
  H   -0.964727730  -1.894371968  -0.882616903
  C   -1.354439822   0.694364297   1.202903590
  N   -0.926982061  -0.000000296   0.000000064
  C   -1.354439471   0.694563698  -1.202788565
  C   -1.354422729  -1.388935095  -0.000115184
  H   -0.964728052  -1.894518220   0.882302949
$end



$rem
N_FROZEN_CORE FC
MEM_TOTAL 3750
MEM_STATIC 1500
AUX_BASIS_CORR rimp2-def2-QZVPPD
method DSD-PBEPBE-D3
GEN_SCFMAN TRUE
UNRESTRICTED True
THRESH  14
SCF_CONVERGENCE 7
SYMMETRY FALSE
SYM_IGNORE TRUE
max_scf_cycles 200
scf_algorithm gdm

XC_GRID 000099000590
NL_GRID 000075000302
BASIS def2-QZVPPD


$end




