$molecule
0 1
  H   -2.036071347   1.715914880  -0.886107363
  H   -0.519933077   1.396871626   0.000000000
  H   -2.036071347   1.715914880   0.886107363
  C   -2.076121961  -1.281782126   0.000000000
  N   -1.882124042  -0.135412826   0.000000000
  C   -1.601799289   1.257398213   0.000000000
  H    0.725088224  -0.885036098   1.266557044
  H    2.486175104  -1.026277136   1.265671313
  H    1.697851588   0.334565269   2.088007874
  H    2.455683843   1.106430389   0.000000000
  H    1.697851588   0.334565269  -2.088007874
  H    0.725088224  -0.885036098  -1.266557044
  H    2.486175104  -1.026277136  -1.265671313
  C    1.651178880  -0.313607207   1.214106946
  N    1.651374325   0.493985199   0.000000000
  C    1.651178880  -0.313607207  -1.214106946
$end



$rem
N_FROZEN_CORE FC
MEM_TOTAL 7500
MEM_STATIC 3000
AUX_BASIS_CORR rimp2-def2-QZVPPD
method DSD-PBEPBE-D3
GEN_SCFMAN TRUE
UNRESTRICTED True
THRESH  14
SCF_CONVERGENCE 7
SYMMETRY FALSE
SYM_IGNORE TRUE
max_scf_cycles 200
scf_algorithm gdm

XC_GRID 000099000590
NL_GRID 000075000302
BASIS def2-QZVPPD


$end




