$molecule
0 1
  H    2.685600794   0.471160773  -1.789719420
  H    3.813342014   1.628763039  -1.066503696
  H    2.059103955   1.880225203  -0.941938698
  H    2.804388238   0.957534275   1.094865887
  H    3.752254601  -1.175509659   1.351883287
  H    3.704506121  -1.395174218  -0.394800831
  H    4.835278096  -0.228813308   0.308767646
  C    2.846419600   1.129229413  -0.936653475
  N    2.769908547   0.342049630   0.292748653
  C    3.830807357  -0.658638515   0.397814744
$end



$rem
N_FROZEN_CORE FC
MEM_TOTAL 3750
MEM_STATIC 1500
AUX_BASIS_CORR rimp2-def2-QZVPPD
method DSD-PBEPBE-D3
GEN_SCFMAN TRUE
UNRESTRICTED True
THRESH  14
SCF_CONVERGENCE 7
SYMMETRY FALSE
SYM_IGNORE TRUE
max_scf_cycles 200
scf_algorithm gdm

XC_GRID 000099000590
NL_GRID 000075000302
BASIS def2-QZVPPD


$end




