$molecule
0 1
  H    0.850087664   1.844081128   0.818590053
  H   -0.236798885   1.347200086  -0.501188922
  H    1.419070914   1.934345854  -0.834033647
  H    3.048204555  -1.240199001   0.444594869
  H    3.075423297   0.405818486   1.132844817
  C    0.793330579   1.352965651  -0.155529009
  C    1.323246614  -0.054773106  -0.027821484
  O    0.609534393  -1.026125747  -0.151839200
  C    2.798039064  -0.198535602   0.268210815
  H    3.377072669   0.177095210  -0.577624601
$end



$rem
N_FROZEN_CORE FC
MEM_TOTAL 3750
MEM_STATIC 1500
AUX_BASIS_CORR rimp2-def2-QZVPPD
method DSD-PBEPBE-D3
GEN_SCFMAN TRUE
UNRESTRICTED True
THRESH  14
SCF_CONVERGENCE 7
SYMMETRY FALSE
SYM_IGNORE TRUE
max_scf_cycles 200
scf_algorithm gdm

XC_GRID 000099000590
NL_GRID 000075000302
BASIS def2-QZVPPD


$end




