$molecule
0 1
  H   -3.268336953   0.624363038   0.888831472
  H   -3.268336953   0.624363038  -0.888831472
  H   -4.104833564  -0.673078594   0.000000000
  H    0.957147112   1.360300639  -0.885980644
  H    0.957147112   1.360300639   0.885980644
  H    0.192711866   2.708941123   0.000000000
  O   -2.100591829  -0.859229966   0.000000000
  C   -0.877463439  -0.331650464   0.000000000
  O    0.112125934  -1.013583264   0.000000000
  O   -0.895180831   1.008457720   0.000000000
  C    0.395920854   1.643912048   0.000000000
  C   -3.253220159  -0.001531149   0.000000000
$end



$rem
N_FROZEN_CORE FC
MEM_TOTAL 3750
MEM_STATIC 1500
AUX_BASIS_CORR rimp2-def2-QZVPPD
method DSD-PBEPBE-D3
GEN_SCFMAN TRUE
UNRESTRICTED True
THRESH  14
SCF_CONVERGENCE 7
SYMMETRY FALSE
SYM_IGNORE TRUE
max_scf_cycles 200
scf_algorithm gdm

XC_GRID 000099000590
NL_GRID 000075000302
BASIS def2-QZVPPD


$end




