$molecule
0 1
  C    1.599720828   0.000000000   0.083087945
  O    1.169994748   0.000000000   1.219113350
  O    0.823461767   0.000000000  -0.997211239
  H   -0.147025393   0.000000000  -0.696476555
  C    3.066436873   0.000000000  -0.257602455
  H    3.658715227   0.000000000   0.650926367
  H    3.304153809  -0.876711766  -0.858800866
  H    3.304153809   0.876711766  -0.858800866
$end



$rem
N_FROZEN_CORE FC
MEM_TOTAL 3750
MEM_STATIC 1500
AUX_BASIS_CORR rimp2-def2-QZVPPD
method DSD-PBEPBE-D3
GEN_SCFMAN TRUE
UNRESTRICTED True
THRESH  14
SCF_CONVERGENCE 7
SYMMETRY FALSE
SYM_IGNORE TRUE
max_scf_cycles 200
scf_algorithm gdm

XC_GRID 000099000590
NL_GRID 000075000302
BASIS def2-QZVPPD


$end




