$molecule
0 1
  N    2.264148055  -0.428237459  -0.124151649
  H    1.481586218  -1.069931740  -0.149833010
  H    2.852920550  -0.711089118   0.647497866
  C    1.789924404   0.938056608   0.063637384
  H    2.640829402   1.616340136   0.123582257
  H    1.171569577   1.096455008   0.957797370
  H    1.203728008   1.236697234  -0.806148643
$end



$rem
N_FROZEN_CORE FC
MEM_TOTAL 3750
MEM_STATIC 1500
AUX_BASIS_CORR rimp2-def2-QZVPPD
method DSD-PBEPBE-D3
GEN_SCFMAN TRUE
UNRESTRICTED True
THRESH  14
SCF_CONVERGENCE 7
SYMMETRY FALSE
SYM_IGNORE TRUE
max_scf_cycles 200
scf_algorithm gdm

XC_GRID 000099000590
NL_GRID 000075000302
BASIS def2-QZVPPD


$end




