$molecule
0 1
  H    0.737313957   1.009374164   0.815027537
  H   -3.329029640   1.792512163  -0.315095023
  H   -1.131350949   2.598970003   0.493475719
  H   -1.776496856  -2.198740237  -0.481275187
  H    0.407024974  -2.423594871   0.165564629
  H   -3.641183750  -0.616024279  -0.799992216
  C   -2.513218427   1.099053689  -0.174511667
  C   -1.278436914   1.549869252   0.279704985
  C   -0.224681952   0.666901443   0.464040143
  C   -0.410345827  -0.683138341   0.188073645
  C   -1.639546619  -1.146072460  -0.267500124
  C   -2.687328834  -0.251429639  -0.446208037
  O    0.657723967  -1.521580709   0.381548382
$end



$rem
N_FROZEN_CORE FC
MEM_TOTAL 7500
MEM_STATIC 3000
AUX_BASIS_CORR rimp2-def2-QZVPPD
method DSD-PBEPBE-D3
GEN_SCFMAN TRUE
UNRESTRICTED True
THRESH  14
SCF_CONVERGENCE 7
SYMMETRY FALSE
SYM_IGNORE TRUE
max_scf_cycles 200
scf_algorithm gdm

XC_GRID 000099000590
NL_GRID 000075000302
BASIS def2-QZVPPD


$end




