$molecule
0 1
  H   -3.342438540   1.081112461   1.005005915
  H   -1.199530462  -0.611045282  -1.900097262
  H   -0.684126821   0.982643533  -1.323263271
  H   -2.170090195   0.844418326  -2.260031139
  O   -2.411796234  -0.892708831   0.361705757
  C   -2.305612892   0.142120773  -0.249762476
  O   -2.886077092   1.284243931   0.176887230
  C   -1.543970868   0.344669364  -1.523427157
$end



$rem
N_FROZEN_CORE FC
MEM_TOTAL 3750
MEM_STATIC 1500
AUX_BASIS_CORR rimp2-def2-QZVPPD
method DSD-PBEPBE-D3
GEN_SCFMAN TRUE
UNRESTRICTED True
THRESH  14
SCF_CONVERGENCE 7
SYMMETRY FALSE
SYM_IGNORE TRUE
max_scf_cycles 200
scf_algorithm gdm

XC_GRID 000099000590
NL_GRID 000075000302
BASIS def2-QZVPPD


$end




