$molecule
0 1
  C    1.276026524  -1.519077241  -0.975360374
  H    0.198689074  -1.391723657  -1.059570174
  H    1.488171405  -2.447306885  -0.447328988
  H    1.707661943  -1.604626465  -1.970875345
  C    1.958697475  -0.378135124  -0.245994318
  O    3.168675925  -0.352120436  -0.082571650
  N    1.139357068   0.597847959   0.211162300
  H    0.142645284   0.533069569   0.050782326
  C    1.665042758   1.742249536   0.926437324
  H    2.231429950   1.428097356   1.802547648
  H    2.332728663   2.330593730   0.296675580
  H    0.833374213   2.366619534   1.243879368
$end



$rem
N_FROZEN_CORE FC
MEM_TOTAL 3750
MEM_STATIC 1500
AUX_BASIS_CORR rimp2-def2-QZVPPD
method DSD-PBEPBE-D3
GEN_SCFMAN TRUE
UNRESTRICTED True
THRESH  14
SCF_CONVERGENCE 7
SYMMETRY FALSE
SYM_IGNORE TRUE
max_scf_cycles 200
scf_algorithm gdm

XC_GRID 000099000590
NL_GRID 000075000302
BASIS def2-QZVPPD


$end




