$molecule
0 1
  H   -0.947099162  -1.778478402   0.000000000
  H   -3.662321536  -1.833750014   0.000000000
  H   -4.458989775   0.759045901   0.000000000
  H   -2.188300949   2.238330146   0.000000000
  N   -1.230136609   0.331689749   0.000000000
  C   -1.653957034  -0.969442419   0.000000000
  C   -3.029056276  -0.964124174   0.000000000
  C   -3.446839606   0.394563405   0.000000000
  C   -2.311631049   1.170635700   0.000000000
  H   -0.265474180   0.619582096   0.000000000
$end



$rem
N_FROZEN_CORE FC
MEM_TOTAL 3750
MEM_STATIC 1500
AUX_BASIS_CORR rimp2-def2-QZVPPD
method DSD-PBEPBE-D3
GEN_SCFMAN TRUE
UNRESTRICTED True
THRESH  14
SCF_CONVERGENCE 7
SYMMETRY FALSE
SYM_IGNORE TRUE
max_scf_cycles 200
scf_algorithm gdm

XC_GRID 000099000590
NL_GRID 000075000302
BASIS def2-QZVPPD


$end




