$molecule
0 1
  H   -1.555357117   1.507334718   1.186960791
  H   -2.072379397   1.718146648  -0.495610151
  H   -0.341646914   1.500576673  -0.121508730
  C   -1.538676884  -1.341104829  -0.107141320
  N   -1.484594239  -0.186724246   0.019266037
  C   -1.357089144   1.221027813   0.156209504
$end



$rem
N_FROZEN_CORE FC
MEM_TOTAL 3750
MEM_STATIC 1500
AUX_BASIS_CORR rimp2-def2-QZVPPD
method DSD-PBEPBE-D3
GEN_SCFMAN TRUE
UNRESTRICTED True
THRESH  14
SCF_CONVERGENCE 7
SYMMETRY FALSE
SYM_IGNORE TRUE
max_scf_cycles 200
scf_algorithm gdm

XC_GRID 000099000590
NL_GRID 000075000302
BASIS def2-QZVPPD


$end




