$molecule
0 1
  H   -3.611719690  -1.811363570   1.660259883
  H   -1.338946504  -0.801493368   1.629890249
  C   -4.291654360  -0.615122559  -0.000060184
  C   -3.363072708  -1.051516213   0.934599847
  C   -2.094937919  -0.489033858   0.921039862
  N   -1.730366304   0.452288671   0.049641279
  C   -2.625848602   0.868795928  -0.845861139
  C   -3.917059103   0.364407217  -0.909018325
  H   -2.292825176   1.633589388  -1.535262197
  H   -4.607420137   0.732766740  -1.653013715
  H   -5.288898711  -1.031002953  -0.019859639
$end



$rem
N_FROZEN_CORE FC
MEM_TOTAL 3750
MEM_STATIC 1500
AUX_BASIS_CORR rimp2-def2-QZVPPD
method DSD-PBEPBE-D3
GEN_SCFMAN TRUE
UNRESTRICTED True
THRESH  14
SCF_CONVERGENCE 7
SYMMETRY FALSE
SYM_IGNORE TRUE
max_scf_cycles 200
scf_algorithm gdm

XC_GRID 000099000590
NL_GRID 000075000302
BASIS def2-QZVPPD


$end




