$molecule
0 1
  H   -0.842584556  -0.367913347   1.537104888
  H   -4.087734428   2.356785295   0.852322570
  H   -2.139043857   1.633879992   2.198637199
  H   -3.432710287  -0.928492127  -1.820833029
  H   -1.652215678  -2.278435286  -1.297081582
  H   -4.729049658   1.065061480  -1.160355589
  C   -3.522467434   1.482837623   0.564583092
  C   -2.428692186   1.075142965   1.320401279
  C   -1.695873534  -0.045735712   0.959087944
  C   -2.066353907  -0.760017834  -0.172922477
  C   -3.154633216  -0.364809562  -0.939242445
  C   -3.881596472   0.758526791  -0.564171870
  O   -1.306318285  -1.859965269  -0.504253786
$end



$rem
N_FROZEN_CORE FC
MEM_TOTAL 7500
MEM_STATIC 3000
AUX_BASIS_CORR rimp2-def2-QZVPPD
method DSD-PBEPBE-D3
GEN_SCFMAN TRUE
UNRESTRICTED True
THRESH  14
SCF_CONVERGENCE 7
SYMMETRY FALSE
SYM_IGNORE TRUE
max_scf_cycles 200
scf_algorithm gdm

XC_GRID 000099000590
NL_GRID 000075000302
BASIS def2-QZVPPD


$end




