$molecule
0 1
  H    0.651135723   0.253775596   1.402773994
  H    4.351660002   2.135944230   0.330674692
  H    2.220148068   2.136985236   1.599347035
  H    3.306556926  -1.663711231  -1.353210332
  H    0.007726505  -1.699561099   0.110540389
  H    4.877281736   0.212341733  -1.144361510
  H    1.112947771  -2.514682254  -0.869884856
  C    3.660158872   1.311388510   0.239612493
  C    2.463453444   1.308261863   0.948285642
  C    1.572866967   0.251757788   0.838274476
  C    1.858240638  -0.837204223   0.002400713
  C    3.066432243  -0.829326637  -0.706717411
  C    3.951488192   0.230869074  -0.585635951
  N    0.982411273  -1.907147403  -0.079407974
$end



$rem
N_FROZEN_CORE FC
MEM_TOTAL 7500
MEM_STATIC 3000
AUX_BASIS_CORR rimp2-def2-QZVPPD
method DSD-PBEPBE-D3
GEN_SCFMAN TRUE
UNRESTRICTED True
THRESH  14
SCF_CONVERGENCE 7
SYMMETRY FALSE
SYM_IGNORE TRUE
max_scf_cycles 200
scf_algorithm gdm

XC_GRID 000099000590
NL_GRID 000075000302
BASIS def2-QZVPPD


$end




