$molecule
0 1
  H    0.558345965  -0.995343081   1.230116655
  H   -3.373490160  -1.604368353  -0.365032651
  H   -1.365080970  -2.466761858   0.807082935
  H   -1.482730516   2.225542424  -0.713801138
  H    1.667881940   1.085779108   0.619693975
  H   -3.411157274   0.759682363  -1.114586020
  H    0.796879948   2.397667214   0.007852898
  C   -2.525072275  -0.960347833  -0.187116913
  C   -1.396223004  -1.440134028   0.468105813
  C   -0.305641606  -0.617059230   0.701573620
  C   -0.313007201   0.718552543   0.275156988
  C   -1.455024006   1.195870567  -0.380959524
  C   -2.542429050   0.365756446  -0.604996219
  N    0.765227607   1.545599532   0.540920467
$end



$rem
N_FROZEN_CORE FC
MEM_TOTAL 7500
MEM_STATIC 3000
AUX_BASIS_CORR rimp2-def2-QZVPPD
method DSD-PBEPBE-D3
GEN_SCFMAN TRUE
UNRESTRICTED True
THRESH  14
SCF_CONVERGENCE 7
SYMMETRY FALSE
SYM_IGNORE TRUE
max_scf_cycles 200
scf_algorithm gdm

XC_GRID 000099000590
NL_GRID 000075000302
BASIS def2-QZVPPD


$end




