$molecule
0 1
  O    2.559043225   0.253918837   0.353749621
  H    1.718237081   0.311084953   0.816533698
  C    2.344280848  -0.456508467  -0.855381913
  H    3.280037231  -0.438887615  -1.409786999
  H    1.567367574   0.006087884  -1.470720533
  H    2.069169354  -1.500067274  -0.675346122
$end



$rem
N_FROZEN_CORE FC
MEM_TOTAL 3750
MEM_STATIC 1500
AUX_BASIS_CORR rimp2-def2-QZVPPD
method DSD-PBEPBE-D3
GEN_SCFMAN TRUE
UNRESTRICTED True
THRESH  14
SCF_CONVERGENCE 7
SYMMETRY FALSE
SYM_IGNORE TRUE
max_scf_cycles 200
scf_algorithm gdm

XC_GRID 000099000590
NL_GRID 000075000302
BASIS def2-QZVPPD


$end




