$molecule
0 1
  C   -0.681021530  -0.079730445   0.005766635
  O   -0.074687326  -1.132806626   0.009019329
  O   -0.080823006   1.111996454   0.012203343
  H    0.895181876   0.971974145   0.015914127
  C   -2.177760208   0.029957279  -0.008482472
  H   -2.621201172  -0.959051364   0.014511782
  H   -2.512713221   0.613442580   0.847805271
  H   -2.495080505   0.560728752  -0.905233617
  O    2.420705522   0.032688049  -0.059350450
  H    3.029973105  -0.054834180   0.677185916
  H    1.813058638  -0.727700486  -0.012605175
$end



$rem
N_FROZEN_CORE FC
MEM_TOTAL 3750
MEM_STATIC 1500
AUX_BASIS_CORR rimp2-def2-QZVPPD
method DSD-PBEPBE-D3
GEN_SCFMAN TRUE
UNRESTRICTED True
THRESH  14
SCF_CONVERGENCE 7
SYMMETRY FALSE
SYM_IGNORE TRUE
max_scf_cycles 200
scf_algorithm gdm

XC_GRID 000099000590
NL_GRID 000075000302
BASIS def2-QZVPPD


$end




