$molecule
0 1
  H    2.463830755  -0.428362566  -2.199575813
  H    1.613080182   0.984285263  -1.461644324
  H    1.001189329  -0.651439000  -1.180209177
  C    1.894448741  -0.057779308  -1.358164775
  N    2.745209983  -0.181616602  -0.135246897
  O    2.337246589   0.357136956   0.889256743
  O    3.773825529  -0.816567037  -0.214609939
$end



$rem
N_FROZEN_CORE FC
MEM_TOTAL 3750
MEM_STATIC 1500
AUX_BASIS_CORR rimp2-def2-QZVPPD
method DSD-PBEPBE-D3
GEN_SCFMAN TRUE
UNRESTRICTED True
THRESH  14
SCF_CONVERGENCE 7
SYMMETRY FALSE
SYM_IGNORE TRUE
max_scf_cycles 200
scf_algorithm gdm

XC_GRID 000099000590
NL_GRID 000075000302
BASIS def2-QZVPPD


$end




