$molecule
0 1
  C   -1.638975366  -0.056022600   0.031518714
  O   -1.127948699  -1.122837952   0.284219743
  O   -0.934676385   1.041064882  -0.273451761
  H    0.025822213   0.821325391  -0.242476783
  C   -3.119969895   0.201850673   0.021436052
  H   -3.655230230  -0.713147090   0.249229494
  H   -3.362802565   0.968823372   0.755885812
  H   -3.422583327   0.581618092  -0.953387360
$end



$rem
N_FROZEN_CORE FC
MEM_TOTAL 3750
MEM_STATIC 1500
AUX_BASIS_CORR rimp2-def2-QZVPPD
method DSD-PBEPBE-D3
GEN_SCFMAN TRUE
UNRESTRICTED True
THRESH  14
SCF_CONVERGENCE 7
SYMMETRY FALSE
SYM_IGNORE TRUE
max_scf_cycles 200
scf_algorithm gdm

XC_GRID 000099000590
NL_GRID 000075000302
BASIS def2-QZVPPD


$end




