$molecule
0 1
  H   -3.353803711   1.272267014  -1.167297224
  H   -1.585531593   1.257268080  -1.112775048
  H   -2.516079284   2.082630005   0.153474352
  H   -1.843472831  -0.000011582   0.989072448
  H   -2.516028140  -2.082651577   0.153428397
  H   -3.353771831  -1.272279939  -1.167325621
  H   -1.585500053  -1.257238957  -1.112802237
  C   -2.496662400   1.207471253  -0.494808021
  N   -2.590761027  -0.000013353   0.305553784
  C   -2.496632391  -1.207478014  -0.494834622
$end



$rem
N_FROZEN_CORE FC
MEM_TOTAL 3750
MEM_STATIC 1500
AUX_BASIS_CORR rimp2-def2-QZVPPD
method DSD-PBEPBE-D3
GEN_SCFMAN TRUE
UNRESTRICTED True
THRESH  14
SCF_CONVERGENCE 7
SYMMETRY FALSE
SYM_IGNORE TRUE
max_scf_cycles 200
scf_algorithm gdm

XC_GRID 000099000590
NL_GRID 000075000302
BASIS def2-QZVPPD


$end




