$molecule
0 1
  H    0.733312221   1.486719401   0.758750109
  H    2.473696525   1.400915560   0.461333297
  H    1.371866777   1.974822543  -0.807610768
  H    1.869833457  -0.267569730  -1.289608591
  H    1.348299959  -2.104156215   0.070170942
  H    0.707376800  -1.014289262   1.289968896
  H    2.452757374  -1.067513460   1.000842287
  C    1.484936840   1.256989117   0.003117741
  N    1.266346983  -0.092344814  -0.498203143
  C    1.467826719  -1.118727509   0.515906045
$end



$rem
N_FROZEN_CORE FC
MEM_TOTAL 3750
MEM_STATIC 1500
AUX_BASIS_CORR rimp2-def2-QZVPPD
method DSD-PBEPBE-D3
GEN_SCFMAN TRUE
UNRESTRICTED True
THRESH  14
SCF_CONVERGENCE 7
SYMMETRY FALSE
SYM_IGNORE TRUE
max_scf_cycles 200
scf_algorithm gdm

XC_GRID 000099000590
NL_GRID 000075000302
BASIS def2-QZVPPD


$end




