$molecule
0 1
  N   -2.252647713   0.386835207  -0.396620701
  H   -1.471892960  -0.042014519  -0.882198683
  H   -3.001572486   0.509464359  -1.064471532
  C   -2.680710039  -0.465200773   0.710877752
  H   -3.494610801   0.015860954   1.253703084
  H   -3.014530599  -1.468202790   0.419302189
  H   -1.851823790  -0.586646005   1.408135952
$end



$rem
N_FROZEN_CORE FC
MEM_TOTAL 3750
MEM_STATIC 1500
AUX_BASIS_CORR rimp2-def2-QZVPPD
method DSD-PBEPBE-D3
GEN_SCFMAN TRUE
UNRESTRICTED True
THRESH  14
SCF_CONVERGENCE 7
SYMMETRY FALSE
SYM_IGNORE TRUE
max_scf_cycles 200
scf_algorithm gdm

XC_GRID 000099000590
NL_GRID 000075000302
BASIS def2-QZVPPD


$end




