$molecule
0 1
  O    1.846592374   0.056329751   0.496678526
  H    1.261812598  -0.716893884   0.421086802
  C    2.874600813  -0.021464382  -0.486130393
  H    3.460608494   0.891236829  -0.415199693
  H    3.530754359  -0.873792439  -0.302082668
  H    2.463382464  -0.099629349  -1.495307729
$end



$rem
N_FROZEN_CORE FC
MEM_TOTAL 3750
MEM_STATIC 1500
AUX_BASIS_CORR rimp2-def2-QZVPPD
method DSD-PBEPBE-D3
GEN_SCFMAN TRUE
UNRESTRICTED True
THRESH  14
SCF_CONVERGENCE 7
SYMMETRY FALSE
SYM_IGNORE TRUE
max_scf_cycles 200
scf_algorithm gdm

XC_GRID 000099000590
NL_GRID 000075000302
BASIS def2-QZVPPD


$end




