$molecule
0 1
  H    0.039766108   0.799663417   1.876256840
  H   -2.723590222  -2.219363559   0.598919868
  H   -1.130712852  -1.324016640   2.277837855
  H   -1.939434071   1.172174643  -1.901218905
  H    0.708630930   2.408218295   0.155568143
  H   -3.117631817  -0.943902459  -1.491855451
  H   -0.232897919   2.688337939  -1.193012353
  C   -2.205262097  -1.289109937   0.419833388
  C   -1.312221523  -0.783021800   1.359456124
  C   -0.647232158   0.412658591   1.137462124
  C   -0.858960819   1.138257448  -0.043689049
  C   -1.761206355   0.625283853  -0.984454180
  C   -2.424940955  -0.570344186  -0.750349014
  N   -0.216182768   2.348960798  -0.245801118
$end



$rem
N_FROZEN_CORE FC
MEM_TOTAL 7500
MEM_STATIC 3000
AUX_BASIS_CORR rimp2-def2-QZVPPD
method DSD-PBEPBE-D3
GEN_SCFMAN TRUE
UNRESTRICTED True
THRESH  14
SCF_CONVERGENCE 7
SYMMETRY FALSE
SYM_IGNORE TRUE
max_scf_cycles 200
scf_algorithm gdm

XC_GRID 000099000590
NL_GRID 000075000302
BASIS def2-QZVPPD


$end




