$molecule
0 1
  C   -1.511364416  -1.810199427  -0.000000000
  H   -1.908644981  -2.316764742   0.877790829
  H   -1.908644981  -2.316764742  -0.877790829
  H   -0.426625894  -1.889087007  -0.000000000
  C   -2.005161935  -0.376175625  -0.000000000
  O   -3.198253008  -0.110625175  -0.000000000
  N   -1.043627683   0.574173582  -0.000000000
  H   -0.061324777   0.307544901  -0.000000000
  C   -1.392743612   1.979560477   0.000000000
  H   -1.982902730   2.239247749  -0.878983992
  H   -0.477890680   2.566914617   0.000000000
  H   -1.982902730   2.239247749   0.878983992
  H    3.355429018  -0.934717772  -1.290790701
  H    1.931841112  -0.230862194  -2.083218779
  H    1.783851700  -1.751232113  -1.200108665
  H    1.783851700  -1.751232113   1.200108665
  H    3.355429018  -0.934717772   1.290790701
  H    1.931841112  -0.230862194   2.083218779
  H    3.598258189   1.265174519   0.000000000
  H    2.171375758   1.838212991   0.883484819
  C    2.269962581  -0.777099441  -1.204157517
  N    1.911752804  -0.041127084   0.000000000
  C    2.269962581  -0.777099441   1.204157517
  C    2.498307746   1.291920701   0.000000000
  H    2.171375758   1.838212991  -0.883484819
$end



$rem
N_FROZEN_CORE FC
MEM_TOTAL 30000
MEM_STATIC 8000
AUX_BASIS_CORR rimp2-def2-QZVPPD
method DSD-PBEPBE-D3
GEN_SCFMAN TRUE
UNRESTRICTED True
THRESH  14
SCF_CONVERGENCE 7
SYMMETRY FALSE
SYM_IGNORE TRUE
max_scf_cycles 200
scf_algorithm gdm

XC_GRID 000099000590
NL_GRID 000075000302
BASIS def2-QZVPPD


$end




