$molecule
0 1
  H    0.660480357  -1.033116251  -0.985970369
  H   -3.395246477  -1.632777290   0.296583448
  H   -1.293219196  -2.524195764  -0.662246796
  H   -1.586433918   2.240432155   0.602945536
  H    0.580817008   2.368956890  -0.130008704
  H   -3.531937692   0.758154559   0.926686643
  C   -2.544098418  -0.983500494   0.154493435
  C   -1.362644063  -1.482283529  -0.383887036
  C   -0.263418692  -0.657016251  -0.571365008
  C   -0.353243445   0.682784306  -0.212390588
  C   -1.526677262   1.195149514   0.326751955
  C   -2.620171678   0.357092324   0.507622951
  O    0.758215842   1.467348125  -0.410277602
$end



$rem
N_FROZEN_CORE FC
MEM_TOTAL 7500
MEM_STATIC 3000
AUX_BASIS_CORR rimp2-def2-QZVPPD
method DSD-PBEPBE-D3
GEN_SCFMAN TRUE
UNRESTRICTED True
THRESH  14
SCF_CONVERGENCE 7
SYMMETRY FALSE
SYM_IGNORE TRUE
max_scf_cycles 200
scf_algorithm gdm

XC_GRID 000099000590
NL_GRID 000075000302
BASIS def2-QZVPPD


$end




