$molecule
0 1
  H   -3.309620134  -0.695125910  -1.015217613
  H   -3.705568887  -0.289205189   0.658190322
  H   -2.843809431  -1.793828514   0.281625344
  H   -1.241219877  -0.238322083   1.007617341
  H   -0.735684650   1.795117543  -0.026489121
  H   -2.000494092   1.501791797  -1.218119291
  H   -2.442284008   1.871149282   0.453167101
  C   -2.942111302  -0.743622215   0.010752933
  N   -1.645365395  -0.087923372   0.092706872
  C   -1.713690205   1.343025376  -0.177747396
$end



$rem
N_FROZEN_CORE FC
MEM_TOTAL 3750
MEM_STATIC 1500
AUX_BASIS_CORR rimp2-def2-QZVPPD
method DSD-PBEPBE-D3
GEN_SCFMAN TRUE
UNRESTRICTED True
THRESH  14
SCF_CONVERGENCE 7
SYMMETRY FALSE
SYM_IGNORE TRUE
max_scf_cycles 200
scf_algorithm gdm

XC_GRID 000099000590
NL_GRID 000075000302
BASIS def2-QZVPPD


$end




