$molecule
0 1
  H   -1.097702112   2.102332804   0.000000000
  H   -3.703458847   1.356107436   0.000000000
  H   -3.703458847  -1.356107436  -0.000000000
  H   -1.097702112  -2.102332804  -0.000000000
  N   -0.739838189   0.000000000   0.000000000
  C   -1.529134834   1.117786124   0.000000000
  C   -2.842967616   0.710479024   0.000000000
  C   -2.842967616  -0.710479024  -0.000000000
  C   -1.529134834  -1.117786124  -0.000000000
  H    0.271825628   0.000000000   0.000000000
$end



$rem
N_FROZEN_CORE FC
MEM_TOTAL 3750
MEM_STATIC 1500
AUX_BASIS_CORR rimp2-def2-QZVPPD
method DSD-PBEPBE-D3
GEN_SCFMAN TRUE
UNRESTRICTED True
THRESH  14
SCF_CONVERGENCE 7
SYMMETRY FALSE
SYM_IGNORE TRUE
max_scf_cycles 200
scf_algorithm gdm

XC_GRID 000099000590
NL_GRID 000075000302
BASIS def2-QZVPPD


$end




