$molecule
0 1
  H   -0.060573619   1.393630652  -0.093483434
  H    4.222628340   1.256778336  -0.047759026
  H    2.107125878   2.548260306  -0.136693830
  H    1.956004408  -2.375989309   0.124357272
  H   -1.246715518  -0.717306453  -0.265801182
  H    4.120854232  -1.218425232   0.079522439
  H   -0.429454152  -2.195872837  -0.153609636
  C    3.269976586   0.748431566  -0.029952333
  C    2.081428653   1.468521692  -0.079030514
  C    0.855670438   0.821652947  -0.056654078
  C    0.787007747  -0.576156772   0.016148832
  C    1.988106927  -1.295630101   0.064446878
  C    3.208586476  -0.638857221   0.041526528
  N   -0.436603884  -1.220074287   0.087845508
$end



$rem
N_FROZEN_CORE FC
MEM_TOTAL 7500
MEM_STATIC 3000
AUX_BASIS_CORR rimp2-def2-QZVPPD
method DSD-PBEPBE-D3
GEN_SCFMAN TRUE
UNRESTRICTED True
THRESH  14
SCF_CONVERGENCE 7
SYMMETRY FALSE
SYM_IGNORE TRUE
max_scf_cycles 200
scf_algorithm gdm

XC_GRID 000099000590
NL_GRID 000075000302
BASIS def2-QZVPPD


$end




