$molecule
0 1
  H   -2.663037758   0.525564051   0.563185175
  H   -2.416110713  -1.178381638   0.388265137
  H   -0.294206481   1.662500127  -1.224466701
  H    0.705984566   1.447659016   0.205409649
  H   -0.957928109   2.074948508   0.362638818
  O   -0.052010685  -0.997500499  -0.349217410
  C   -0.774687474  -0.054775308  -0.071272196
  N   -2.060537510  -0.240294496   0.330466883
  C   -0.312096193   1.380618022  -0.171411258
$end



$rem
N_FROZEN_CORE FC
MEM_TOTAL 3750
MEM_STATIC 1500
AUX_BASIS_CORR rimp2-def2-QZVPPD
method DSD-PBEPBE-D3
GEN_SCFMAN TRUE
UNRESTRICTED True
THRESH  14
SCF_CONVERGENCE 7
SYMMETRY FALSE
SYM_IGNORE TRUE
max_scf_cycles 200
scf_algorithm gdm

XC_GRID 000099000590
NL_GRID 000075000302
BASIS def2-QZVPPD


$end




