$molecule
0 1
  O    3.155324976  -0.205045800  -0.391889929
  H    2.485897861   0.483320662  -0.474612775
  C    3.165951540  -0.651469314   0.952974816
  H    3.890099794  -1.460681857   1.020957881
  H    2.189716241  -1.034277025   1.266410092
  H    3.468500034   0.138955452   1.646913189
$end



$rem
N_FROZEN_CORE FC
MEM_TOTAL 3750
MEM_STATIC 1500
AUX_BASIS_CORR rimp2-def2-QZVPPD
method DSD-PBEPBE-D3
GEN_SCFMAN TRUE
UNRESTRICTED True
THRESH  14
SCF_CONVERGENCE 7
SYMMETRY FALSE
SYM_IGNORE TRUE
max_scf_cycles 200
scf_algorithm gdm

XC_GRID 000099000590
NL_GRID 000075000302
BASIS def2-QZVPPD


$end




