$molecule
0 1
  C   -3.126305942  -0.323783158  -0.085035180
  H   -2.370166180   0.428512607  -0.028505261
  C   -3.977281178  -1.163085502  -0.146680162
  H   -4.729233540  -1.909617113  -0.202188267
$end



$rem
N_FROZEN_CORE FC
MEM_TOTAL 3750
MEM_STATIC 1500
AUX_BASIS_CORR rimp2-def2-QZVPPD
method DSD-PBEPBE-D3
GEN_SCFMAN TRUE
UNRESTRICTED True
THRESH  14
SCF_CONVERGENCE 7
SYMMETRY FALSE
SYM_IGNORE TRUE
max_scf_cycles 200
scf_algorithm gdm

XC_GRID 000099000590
NL_GRID 000075000302
BASIS def2-QZVPPD


$end




