$molecule
0 1
  C    1.384484784  -1.719712467   0.589438586
  H    0.397598778  -1.568280033   1.021127197
  H    1.316145491  -2.418352237  -0.243584041
  H    2.038759914  -2.167506719   1.334909105
  C    2.022162905  -0.434719979   0.096354238
  O    3.154230787  -0.414584469  -0.364848379
  N    1.254449587   0.673519781   0.198295167
  H    0.313204867   0.601065567   0.563201472
  C    1.747032381   1.966246047  -0.229317473
  H    2.034320616   1.949672384  -1.280868813
  H    2.624771301   2.263009513   0.344916034
  H    0.961176450   2.702846224  -0.083169955
$end



$rem
N_FROZEN_CORE FC
MEM_TOTAL 3750
MEM_STATIC 1500
AUX_BASIS_CORR rimp2-def2-QZVPPD
method DSD-PBEPBE-D3
GEN_SCFMAN TRUE
UNRESTRICTED True
THRESH  14
SCF_CONVERGENCE 7
SYMMETRY FALSE
SYM_IGNORE TRUE
max_scf_cycles 200
scf_algorithm gdm

XC_GRID 000099000590
NL_GRID 000075000302
BASIS def2-QZVPPD


$end




