$molecule
0 1
  C   -1.202626030  -0.080733881   0.001350480
  O   -0.611284810  -1.138047894   0.102443058
  O   -0.600049589   1.105867986   0.083328024
  H    0.366456693   0.954392657   0.237092681
  C   -2.682044803   0.036750991  -0.224321922
  H   -3.120790513  -0.949724025  -0.323201190
  H   -3.136152092   0.564136745   0.613777977
  H   -2.873672517   0.626809518  -1.119219604
$end



$rem
N_FROZEN_CORE FC
MEM_TOTAL 3750
MEM_STATIC 1500
AUX_BASIS_CORR rimp2-def2-QZVPPD
method DSD-PBEPBE-D3
GEN_SCFMAN TRUE
UNRESTRICTED True
THRESH  14
SCF_CONVERGENCE 7
SYMMETRY FALSE
SYM_IGNORE TRUE
max_scf_cycles 200
scf_algorithm gdm

XC_GRID 000099000590
NL_GRID 000075000302
BASIS def2-QZVPPD


$end




