$molecule
0 1
  H   -0.219854105   0.774848297   2.095911229
  H   -2.733246944  -2.203013243   0.316814177
  H   -1.531072222  -1.295026387   2.285149184
  H   -1.299454436   1.077831574  -2.035152879
  H    0.292156433   2.718014686   0.747660822
  H   -2.608849729  -0.993167033  -1.842861884
  H   -0.113312520   2.827244199  -0.864646241
  C   -2.162937708  -1.289794756   0.234704492
  C   -1.488402236  -0.778103454   1.336772491
  C   -0.751979774   0.392319173   1.235147712
  C   -0.677798291   1.076701780   0.020182480
  C   -1.357594581   0.561911669  -1.085728989
  C   -2.091452115  -0.609238504  -0.974894680
  N    0.130725309   2.210818682  -0.106963383
$end



$rem
N_FROZEN_CORE FC
MEM_TOTAL 7500
MEM_STATIC 3000
AUX_BASIS_CORR rimp2-def2-QZVPPD
method DSD-PBEPBE-D3
GEN_SCFMAN TRUE
UNRESTRICTED True
THRESH  14
SCF_CONVERGENCE 7
SYMMETRY FALSE
SYM_IGNORE TRUE
max_scf_cycles 200
scf_algorithm gdm

XC_GRID 000099000590
NL_GRID 000075000302
BASIS def2-QZVPPD


$end




