$molecule
0 1
  H   -2.568737278  -0.445932746   0.797295211
  H   -2.788724607   1.093079002  -0.044029781
  H   -2.500962400  -0.394438616  -0.952653142
  H   -0.646538048   2.341235003  -0.851191811
  H   -0.942231525  -2.179329325   0.876899181
  H   -0.900438892  -2.156066586  -0.886905080
  H    0.552220130  -2.576435217   0.023048096
  H   -0.702835376   2.334361625   0.899203750
  H    0.801640735   1.874309726   0.066491094
  C   -0.746833530   0.390291710   0.012647546
  N    0.114767348  -0.543311772   0.042005788
  C   -0.321036984  -1.929675465   0.012213241
  C   -0.282104540   1.816173620   0.034494983
  C   -2.236695131   0.157284183  -0.048944653
$end



$rem
N_FROZEN_CORE FC
MEM_TOTAL 3750
MEM_STATIC 1500
AUX_BASIS_CORR rimp2-def2-QZVPPD
method DSD-PBEPBE-D3
GEN_SCFMAN TRUE
UNRESTRICTED True
THRESH  14
SCF_CONVERGENCE 7
SYMMETRY FALSE
SYM_IGNORE TRUE
max_scf_cycles 200
scf_algorithm gdm

XC_GRID 000099000590
NL_GRID 000075000302
BASIS def2-QZVPPD


$end




