$molecule
0 1
  N    3.727468014  -0.577668262  -0.330920746
  H    4.555738473  -0.198211591  -0.772163709
  H    4.036133638  -1.149857221   0.445192161
  H    3.284102041  -1.193362198  -1.001757687
$end



$rem
N_FROZEN_CORE FC
MEM_TOTAL 3750
MEM_STATIC 1500
AUX_BASIS_CORR rimp2-def2-QZVPPD
method DSD-PBEPBE-D3
GEN_SCFMAN TRUE
UNRESTRICTED True
THRESH  14
SCF_CONVERGENCE 7
SYMMETRY FALSE
SYM_IGNORE TRUE
max_scf_cycles 200
scf_algorithm gdm

XC_GRID 000099000590
NL_GRID 000075000302
BASIS def2-QZVPPD


$end




