$molecule
0 1
  O   -2.419368340  -0.230048521  -0.534476158
  H   -3.088957569  -0.143332743  -1.215704999
  C   -2.927963926   0.260421214   0.705503327
  H   -2.127419553   0.155108709   1.432828887
  H   -3.788519708  -0.319643484   1.043197500
  H   -3.203798197   1.314493832   0.638979598
$end



$rem
N_FROZEN_CORE FC
MEM_TOTAL 3750
MEM_STATIC 1500
AUX_BASIS_CORR rimp2-def2-QZVPPD
method DSD-PBEPBE-D3
GEN_SCFMAN TRUE
UNRESTRICTED True
THRESH  14
SCF_CONVERGENCE 7
SYMMETRY FALSE
SYM_IGNORE TRUE
max_scf_cycles 200
scf_algorithm gdm

XC_GRID 000099000590
NL_GRID 000075000302
BASIS def2-QZVPPD


$end




