$molecule
0 1
  H   -2.559910633   1.360134864  -1.757306418
  H   -2.344035882   2.224787673  -0.229326425
  H   -0.973044402   1.403337528  -0.992433504
  H   -1.741202867  -0.007338891   0.695728499
  H   -3.882837595  -0.962180482   0.824690389
  H   -4.355526262  -0.093723053  -0.633927924
  H   -4.101301859   0.797669092   0.871257837
  C   -2.042241531   1.331972027  -0.796830014
  N   -2.336985696   0.081795187  -0.117414395
  C   -3.734111337  -0.041842074   0.261837543
$end



$rem
N_FROZEN_CORE FC
MEM_TOTAL 3750
MEM_STATIC 1500
AUX_BASIS_CORR rimp2-def2-QZVPPD
method DSD-PBEPBE-D3
GEN_SCFMAN TRUE
UNRESTRICTED True
THRESH  14
SCF_CONVERGENCE 7
SYMMETRY FALSE
SYM_IGNORE TRUE
max_scf_cycles 200
scf_algorithm gdm

XC_GRID 000099000590
NL_GRID 000075000302
BASIS def2-QZVPPD


$end




