$molecule
0 1
  O    1.651562762  -0.286250407   0.289854804
  H    1.237863194   0.583482002   0.341251930
  C    2.946806533  -0.155857249  -0.278087310
  H    3.372254578  -1.154759256  -0.344109428
  H    3.602360868   0.458524379   0.344144862
  H    2.909844818   0.273252962  -1.282777796
$end



$rem
N_FROZEN_CORE FC
MEM_TOTAL 3750
MEM_STATIC 1500
AUX_BASIS_CORR rimp2-def2-QZVPPD
method DSD-PBEPBE-D3
GEN_SCFMAN TRUE
UNRESTRICTED True
THRESH  14
SCF_CONVERGENCE 7
SYMMETRY FALSE
SYM_IGNORE TRUE
max_scf_cycles 200
scf_algorithm gdm

XC_GRID 000099000590
NL_GRID 000075000302
BASIS def2-QZVPPD


$end




