$molecule
0 1
  H    1.717580494   2.426627915   0.000000000
  H   -0.604851808   1.544763183   0.000000000
  C    2.591749646   0.455710896   0.000000000
  C    1.540416747   1.361232517   0.000000000
  C    0.241839253   0.868792167   0.000000000
  N   -0.045774092  -0.432624208   0.000000000
  C    0.970195916  -1.295241609   0.000000000
  C    2.301954732  -0.901502651   0.000000000
  H    0.707071784  -2.345614444   0.000000000
  H    3.087663086  -1.642585785   0.000000000
  H    3.616137044   0.800402903   0.000000000
$end



$rem
N_FROZEN_CORE FC
MEM_TOTAL 3750
MEM_STATIC 1500
AUX_BASIS_CORR rimp2-def2-QZVPPD
method DSD-PBEPBE-D3
GEN_SCFMAN TRUE
UNRESTRICTED True
THRESH  14
SCF_CONVERGENCE 7
SYMMETRY FALSE
SYM_IGNORE TRUE
max_scf_cycles 200
scf_algorithm gdm

XC_GRID 000099000590
NL_GRID 000075000302
BASIS def2-QZVPPD


$end




