$molecule
0 1
  H    0.055826485  -0.491986329   1.530194231
  H   -3.023874727  -2.470634208  -0.705545957
  H   -1.008654633  -2.566411643   0.737682086
  H   -2.881168425   1.809865293  -0.560909306
  H    0.282646187   1.904746531   1.106891385
  H   -3.954483836  -0.259635512  -1.334334359
  H   -1.002039908   2.810611939   0.525046645
  C   -2.552948701  -1.561357449  -0.362331568
  C   -1.420974478  -1.609940755   0.445224194
  C   -0.815284383  -0.447171546   0.893031141
  C   -1.325527116   0.807524595   0.531481702
  C   -2.469250409   0.850349121  -0.275604673
  C   -3.072483729  -0.320131297  -0.711598342
  N   -0.721433490   1.966326854   0.994661215
$end



$rem
N_FROZEN_CORE FC
MEM_TOTAL 7500
MEM_STATIC 3000
AUX_BASIS_CORR rimp2-def2-QZVPPD
method DSD-PBEPBE-D3
GEN_SCFMAN TRUE
UNRESTRICTED True
THRESH  14
SCF_CONVERGENCE 7
SYMMETRY FALSE
SYM_IGNORE TRUE
max_scf_cycles 200
scf_algorithm gdm

XC_GRID 000099000590
NL_GRID 000075000302
BASIS def2-QZVPPD


$end




