$molecule
0 1
  H    3.552821585   1.738473830  -1.367721675
  H    3.552823065   1.738471814   1.367722985
  H    2.372805469  -0.633422517  -2.051185570
  H    2.372807014  -0.633425129   2.051184657
  C    3.172991038   0.971798816   0.716970703
  C    3.172990358   0.971799809  -0.716970159
  C    2.598017625  -0.190271337  -1.099835421
  O    2.238831925  -0.919633572  -0.000000589
  C    2.598018611  -0.190272839   1.099834908
$end



$rem
N_FROZEN_CORE FC
MEM_TOTAL 3750
MEM_STATIC 1500
AUX_BASIS_CORR rimp2-def2-QZVPPD
method DSD-PBEPBE-D3
GEN_SCFMAN TRUE
UNRESTRICTED True
THRESH  14
SCF_CONVERGENCE 7
SYMMETRY FALSE
SYM_IGNORE TRUE
max_scf_cycles 200
scf_algorithm gdm

XC_GRID 000099000590
NL_GRID 000075000302
BASIS def2-QZVPPD


$end




