$molecule
0 1
  C   -2.578045314  -0.315324422   0.001040101
  H   -1.585578464  -0.711515737   0.013010192
  C   -3.681058278   0.149785146  -0.012768902
  H   -4.661770099   0.554637596  -0.024859107
$end



$rem
N_FROZEN_CORE FC
MEM_TOTAL 3750
MEM_STATIC 1500
AUX_BASIS_CORR rimp2-def2-QZVPPD
method DSD-PBEPBE-D3
GEN_SCFMAN TRUE
UNRESTRICTED True
THRESH  14
SCF_CONVERGENCE 7
SYMMETRY FALSE
SYM_IGNORE TRUE
max_scf_cycles 200
scf_algorithm gdm

XC_GRID 000099000590
NL_GRID 000075000302
BASIS def2-QZVPPD


$end




