$molecule
0 1
  H   -2.100654094  -0.626051376  -1.794654802
  H   -2.512508660   1.060009172  -1.458564724
  H   -0.832250109   0.601190720  -1.781525940
  H   -1.032264365   0.797223929   0.526330336
  H   -2.466984746  -0.451940514   1.905728688
  H   -3.126268515  -1.255900752   0.482137317
  H   -3.489001044   0.449230975   0.770177393
  C   -1.753591867   0.281524614  -1.297961839
  N   -1.498383267   0.002524350   0.108008468
  C   -2.706808729  -0.318892331   0.851878117
$end



$rem
N_FROZEN_CORE FC
MEM_TOTAL 3750
MEM_STATIC 1500
AUX_BASIS_CORR rimp2-def2-QZVPPD
method DSD-PBEPBE-D3
GEN_SCFMAN TRUE
UNRESTRICTED True
THRESH  14
SCF_CONVERGENCE 7
SYMMETRY FALSE
SYM_IGNORE TRUE
max_scf_cycles 200
scf_algorithm gdm

XC_GRID 000099000590
NL_GRID 000075000302
BASIS def2-QZVPPD


$end




