$molecule
0 1
  H    4.102697325   0.415513984   0.194660523
  H    3.685360799  -0.927348081  -0.876718983
  H    3.432389894   0.748784680  -1.400329333
  H    1.347296373  -0.062832751  -0.691386348
  H    0.832719618  -0.784044250   1.473581313
  H    2.510455184  -0.546566840   1.949246330
  H    2.091722499  -1.865369861   0.847898991
  C    3.376473884   0.075995911  -0.545938390
  N    2.040564548   0.116045595   0.023577786
  C    1.861343483  -0.823295472   1.116696996
$end



$rem
N_FROZEN_CORE FC
MEM_TOTAL 3750
MEM_STATIC 1500
AUX_BASIS_CORR rimp2-def2-QZVPPD
method DSD-PBEPBE-D3
GEN_SCFMAN TRUE
UNRESTRICTED True
THRESH  14
SCF_CONVERGENCE 7
SYMMETRY FALSE
SYM_IGNORE TRUE
max_scf_cycles 200
scf_algorithm gdm

XC_GRID 000099000590
NL_GRID 000075000302
BASIS def2-QZVPPD


$end




