$molecule
0 1
  H    0.540906380  -2.023260918  -0.279199538
  H    2.134492940  -1.236170762  -0.192582927
  H    1.053318240  -1.223291109   1.222844701
  H    0.540906380   2.023260918  -0.279199538
  H    2.134492940   1.236170762  -0.192582927
  H    1.053318240   1.223291109   1.222844701
  C    1.090537062  -1.180211636   0.130107878
  O    0.475850424   0.000000000  -0.354654003
  C    1.090537062   1.180211636   0.130107878
$end



$rem
N_FROZEN_CORE FC
MEM_TOTAL 3750
MEM_STATIC 1500
AUX_BASIS_CORR rimp2-def2-QZVPPD
method DSD-PBEPBE-D3
GEN_SCFMAN TRUE
UNRESTRICTED True
THRESH  14
SCF_CONVERGENCE 7
SYMMETRY FALSE
SYM_IGNORE TRUE
max_scf_cycles 200
scf_algorithm gdm

XC_GRID 000099000590
NL_GRID 000075000302
BASIS def2-QZVPPD


$end




