$molecule
0 1
  H   -0.024345908  -1.423869278  -0.305490740
  H    1.021145725  -1.636663972   1.111739906
  H    1.710403730  -1.906888952  -0.516694224
  C    0.992325307  -1.344594174   0.065263585
  N    1.391457835   0.096589489   0.018083382
  O    0.556136041   0.921440810   0.368406795
  O    2.518958172   0.364931721  -0.340575374
$end



$rem
N_FROZEN_CORE FC
MEM_TOTAL 3750
MEM_STATIC 1500
AUX_BASIS_CORR rimp2-def2-QZVPPD
method DSD-PBEPBE-D3
GEN_SCFMAN TRUE
UNRESTRICTED True
THRESH  14
SCF_CONVERGENCE 7
SYMMETRY FALSE
SYM_IGNORE TRUE
max_scf_cycles 200
scf_algorithm gdm

XC_GRID 000099000590
NL_GRID 000075000302
BASIS def2-QZVPPD


$end




