$molecule
0 1
  O    0.720765428  -0.645170790   0.053569011
  H    0.951692672  -1.213076049  -0.685000266
  C    1.512820807   0.543062246  -0.000695559
  H    1.201144722   1.162982332   0.834994563
  H    1.345728717   1.095970244  -0.926567928
  H    2.575296703   0.316493286   0.103476198
$end



$rem
N_FROZEN_CORE FC
MEM_TOTAL 3750
MEM_STATIC 1500
AUX_BASIS_CORR rimp2-def2-QZVPPD
method DSD-PBEPBE-D3
GEN_SCFMAN TRUE
UNRESTRICTED True
THRESH  14
SCF_CONVERGENCE 7
SYMMETRY FALSE
SYM_IGNORE TRUE
max_scf_cycles 200
scf_algorithm gdm

XC_GRID 000099000590
NL_GRID 000075000302
BASIS def2-QZVPPD


$end




