$molecule
0 1
  O    2.918572453   0.000000000  -0.605637020
  H    1.949094148   0.000000000  -0.504913136
  C    3.497253484   0.000000000   0.681677575
  H    4.579607695   0.000000000   0.560896664
  H    3.221051514   0.887249147   1.263031668
  H    3.221051514  -0.887249147   1.263031668
$end



$rem
N_FROZEN_CORE FC
MEM_TOTAL 3750
MEM_STATIC 1500
AUX_BASIS_CORR rimp2-def2-QZVPPD
method DSD-PBEPBE-D3
GEN_SCFMAN TRUE
UNRESTRICTED True
THRESH  14
SCF_CONVERGENCE 7
SYMMETRY FALSE
SYM_IGNORE TRUE
max_scf_cycles 200
scf_algorithm gdm

XC_GRID 000099000590
NL_GRID 000075000302
BASIS def2-QZVPPD


$end




