$molecule
0 1
  H   -2.325212382   0.940818490  -1.636657025
  H   -2.440596548  -1.641228889  -0.739700145
  H   -0.503423077   2.152428182   0.006673249
  H   -0.680114539  -1.715078520   1.352982228
  C   -1.835537496  -0.842766417  -0.349813563
  C   -1.775269806   0.510052526  -0.819562365
  C   -0.883018823   1.148924746  -0.028597762
  O   -0.382401950   0.287842808   0.905580975
  C   -0.975313531  -0.923204334   0.691012903
$end



$rem
N_FROZEN_CORE FC
MEM_TOTAL 3750
MEM_STATIC 1500
AUX_BASIS_CORR rimp2-def2-QZVPPD
method DSD-PBEPBE-D3
GEN_SCFMAN TRUE
UNRESTRICTED True
THRESH  14
SCF_CONVERGENCE 7
SYMMETRY FALSE
SYM_IGNORE TRUE
max_scf_cycles 200
scf_algorithm gdm

XC_GRID 000099000590
NL_GRID 000075000302
BASIS def2-QZVPPD


$end




