$molecule
0 1
  H   -2.046465937  -2.118041588   0.127141954
  H   -3.432692367  -0.152995747   1.377381611
  H   -2.417466027   2.184665965   0.450595429
  H   -0.470651176   1.505254751  -1.313718647
  N   -1.044485474  -0.485530656  -0.811081627
  C   -1.956786696  -1.050974046   0.037022299
  C   -2.637923215  -0.033045467   0.662654102
  C   -2.103362692   1.192280208   0.179189249
  C   -1.114603380   0.878840198  -0.724112621
  H   -0.313865261  -0.981349578  -1.293043931
$end



$rem
N_FROZEN_CORE FC
MEM_TOTAL 3750
MEM_STATIC 1500
AUX_BASIS_CORR rimp2-def2-QZVPPD
method DSD-PBEPBE-D3
GEN_SCFMAN TRUE
UNRESTRICTED True
THRESH  14
SCF_CONVERGENCE 7
SYMMETRY FALSE
SYM_IGNORE TRUE
max_scf_cycles 200
scf_algorithm gdm

XC_GRID 000099000590
NL_GRID 000075000302
BASIS def2-QZVPPD


$end




