$molecule
0 1
  H    2.053541167  -1.948657171  -0.476072808
  H    0.663564668  -1.072843662  -1.125597059
  H    0.545973796  -1.918884875   0.433224657
  H    0.875530947   0.362595039   0.872020255
  H    2.784118695   1.591903154   0.305551325
  H    3.436151513   0.184494139  -0.530935485
  H    2.039106244   1.036806520  -1.205140735
  C    1.204768888  -1.322332735  -0.196651371
  N    1.671939076  -0.161999487   0.535580562
  C    2.514610993   0.706985029  -0.268404866
$end



$rem
N_FROZEN_CORE FC
MEM_TOTAL 3750
MEM_STATIC 1500
AUX_BASIS_CORR rimp2-def2-QZVPPD
method DSD-PBEPBE-D3
GEN_SCFMAN TRUE
UNRESTRICTED True
THRESH  14
SCF_CONVERGENCE 7
SYMMETRY FALSE
SYM_IGNORE TRUE
max_scf_cycles 200
scf_algorithm gdm

XC_GRID 000099000590
NL_GRID 000075000302
BASIS def2-QZVPPD


$end




