$molecule
0 1
  O    2.607679268   0.000000000  -0.563809318
  H    3.315552872   0.000000000  -1.210736750
  C    3.154895204   0.000000000   0.754487617
  H    2.311923307   0.000000000   1.440301707
  H    3.757687278  -0.891138605   0.938344801
  H    3.757687278   0.891138605   0.938344801
$end



$rem
N_FROZEN_CORE FC
MEM_TOTAL 3750
MEM_STATIC 1500
AUX_BASIS_CORR rimp2-def2-QZVPPD
method DSD-PBEPBE-D3
GEN_SCFMAN TRUE
UNRESTRICTED True
THRESH  14
SCF_CONVERGENCE 7
SYMMETRY FALSE
SYM_IGNORE TRUE
max_scf_cycles 200
scf_algorithm gdm

XC_GRID 000099000590
NL_GRID 000075000302
BASIS def2-QZVPPD


$end




