$molecule
0 1
  C   -2.357186964   0.008798926  -0.000000000
  O   -2.207820759   1.211204466  -0.000000000
  O   -1.353065602  -0.863730058   0.000000000
  H   -0.461762446  -0.380480851   0.000000000
  C   -3.703710307  -0.669251590   0.000000000
  H   -4.493272307   0.074343869  -0.000000000
  H   -3.794161562  -1.309184286   0.876926812
  H   -3.794161562  -1.309184286  -0.876926812
  H    3.633663347   0.957084859  -0.875612636
  H    4.307771717  -0.423284140   0.000000000
  H    3.633663347   0.957084859   0.875612636
  H    2.628484943  -2.217095154   0.875771322
  H    1.583524369   2.178537346  -0.882650400
  H    1.583524369   2.178537346   0.882650400
  H    0.046423113   2.133311886  -0.000000000
  H    2.628484943  -2.217095154  -0.875771322
  H    1.083646942  -2.192145333   0.000000000
  C    2.151119110  -0.327688978   0.000000000
  N    1.062767410   0.327786934  -0.000000000
  C    1.074232812   1.783747857  -0.000000000
  C    2.105982100  -1.826621953   0.000000000
  C    3.513092747   0.317603782  -0.000000000
$end



$rem
N_FROZEN_CORE FC
MEM_TOTAL 15000
MEM_STATIC 6000
AUX_BASIS_CORR rimp2-def2-QZVPPD
method DSD-PBEPBE-D3
GEN_SCFMAN TRUE
UNRESTRICTED True
THRESH  14
SCF_CONVERGENCE 7
SYMMETRY FALSE
SYM_IGNORE TRUE
max_scf_cycles 200
scf_algorithm gdm

XC_GRID 000099000590
NL_GRID 000075000302
BASIS def2-QZVPPD


$end




