$molecule
0 1
  C    0.922310071  -1.797009687   0.000000000
  H    1.222792440  -2.366788056  -0.877554276
  H    1.222792440  -2.366788056   0.877554276
  H   -0.159100148  -1.678615365   0.000000000
  C    1.667495919  -0.475901730   0.000000000
  O    2.888029848  -0.427343757   0.000000000
  N    0.892953802   0.633832298   0.000000000
  H   -0.112681823   0.541740910   0.000000000
  C    1.482652957   1.957000438   0.000000000
  H    2.108905276   2.107541425  -0.879229904
  H    2.108905276   2.107541425   0.879229904
  H    0.683804234   2.694053747   0.000000000
$end



$rem
N_FROZEN_CORE FC
MEM_TOTAL 3750
MEM_STATIC 1500
AUX_BASIS_CORR rimp2-def2-QZVPPD
method DSD-PBEPBE-D3
GEN_SCFMAN TRUE
UNRESTRICTED True
THRESH  14
SCF_CONVERGENCE 7
SYMMETRY FALSE
SYM_IGNORE TRUE
max_scf_cycles 200
scf_algorithm gdm

XC_GRID 000099000590
NL_GRID 000075000302
BASIS def2-QZVPPD


$end




