$molecule
0 1
  N   -2.215224378  -0.298360416  -0.514556461
  H   -1.330415481  -0.254940679  -1.005862023
  H   -2.947226756  -0.116073706  -1.187460994
  C   -2.243963812   0.684797155   0.566405837
  H   -3.189149747   0.609559802   1.103168998
  H   -2.119627517   1.727213581   0.247710700
  H   -1.449834676   0.459352366   1.277381527
$end



$rem
N_FROZEN_CORE FC
MEM_TOTAL 3750
MEM_STATIC 1500
AUX_BASIS_CORR rimp2-def2-QZVPPD
method DSD-PBEPBE-D3
GEN_SCFMAN TRUE
UNRESTRICTED True
THRESH  14
SCF_CONVERGENCE 7
SYMMETRY FALSE
SYM_IGNORE TRUE
max_scf_cycles 200
scf_algorithm gdm

XC_GRID 000099000590
NL_GRID 000075000302
BASIS def2-QZVPPD


$end




