$molecule
0 1
  H    1.848301395  -0.419757484   2.026463094
  H    1.495228333   1.130961465   1.225744873
  H    3.156166725   0.471121859   1.216696173
  H    1.848301395  -0.419757484  -2.026463094
  H    1.495228333   1.130961465  -1.225744873
  H    3.156166725   0.471121859  -1.216696173
  C    2.093460575   0.218852174   1.182021028
  O    1.798972613  -0.516512328   0.000000000
  C    2.093460575   0.218852174  -1.182021028
$end



$rem
N_FROZEN_CORE FC
MEM_TOTAL 3750
SCF_ALGORITHM GDM_QLS
MEM_STATIC 1500
AUX_BASIS_CORR rimp2-def2-QZVPPD
method DSD-PBEPBE-D3
GEN_SCFMAN TRUE
UNRESTRICTED True
THRESH  14
SCF_CONVERGENCE 7
SYMMETRY FALSE
SYM_IGNORE TRUE
max_scf_cycles 200

XC_GRID 000099000590
NL_GRID 000075000302
BASIS def2-QZVPPD


$end




