$molecule
0 1
  H   -3.523025332  -0.463609593  -1.503996961
  H   -2.195148786  -1.560300850  -1.976656163
  H   -1.996680421   0.202291351  -2.154813778
  H   -2.252752925   1.533565836   2.123104825
  H   -2.778154649  -0.172635461   2.097484192
  H   -1.038270995   0.237375187   1.996587376
  C   -2.441244558  -0.589473502  -1.550332472
  O   -1.880376899  -0.612626815  -0.251370187
  O   -2.168127624   0.702483169   0.318780662
  C   -2.048010788   0.543789709   1.719080668
$end



$rem
N_FROZEN_CORE FC
MEM_TOTAL 3750
MEM_STATIC 1500
AUX_BASIS_CORR rimp2-def2-QZVPPD
method DSD-PBEPBE-D3
GEN_SCFMAN TRUE
UNRESTRICTED True
THRESH  14
SCF_CONVERGENCE 7
SYMMETRY FALSE
SYM_IGNORE TRUE
max_scf_cycles 200
scf_algorithm gdm

XC_GRID 000099000590
NL_GRID 000075000302
BASIS def2-QZVPPD


$end




