$molecule
0 1
  C    0.936148994   1.803524151   0.000000000
  H    1.247586894   2.366974188   0.877790110
  H    1.247586894   2.366974188  -0.877790110
  H   -0.147317299   1.708883430   0.000000000
  C    1.652223100   0.466504076   0.000000000
  O    2.872648699   0.395551997   0.000000000
  N    0.855329160  -0.625080597   0.000000000
  H   -0.156992093  -0.523366400   0.000000000
  C    1.423170645  -1.956683386   0.000000000
  H    2.046676181  -2.120112683   0.879135935
  H    2.046676181  -2.120112683  -0.879135935
  H    0.611997806  -2.681251498   0.000000000
$end



$rem
N_FROZEN_CORE FC
MEM_TOTAL 3750
MEM_STATIC 1500
AUX_BASIS_CORR rimp2-def2-QZVPPD
method DSD-PBEPBE-D3
GEN_SCFMAN TRUE
UNRESTRICTED True
THRESH  14
SCF_CONVERGENCE 7
SYMMETRY FALSE
SYM_IGNORE TRUE
max_scf_cycles 200
scf_algorithm gdm

XC_GRID 000099000590
NL_GRID 000075000302
BASIS def2-QZVPPD


$end




