$molecule
0 1
  N   -3.066051201   0.240646661  -0.000001310
  H   -3.319025538   0.785467339   0.815212138
  H   -3.652491009  -0.584836307  -0.000003247
  H   -3.319020748   0.785467400  -0.815216178
$end



$rem
N_FROZEN_CORE FC
MEM_TOTAL 3750
MEM_STATIC 1500
AUX_BASIS_CORR rimp2-def2-QZVPPD
method DSD-PBEPBE-D3
GEN_SCFMAN TRUE
UNRESTRICTED True
THRESH  14
SCF_CONVERGENCE 7
SYMMETRY FALSE
SYM_IGNORE TRUE
max_scf_cycles 200
scf_algorithm gdm

XC_GRID 000099000590
NL_GRID 000075000302
BASIS def2-QZVPPD


$end




