$molecule
0 1
  O    2.271169342   0.653276194   0.000000000
  H    1.313480436   0.533481438   0.000000000
  C    2.876155121  -0.624338818   0.000000000
  H    3.954807364  -0.476204534   0.000000000
  H    2.611442796  -1.208150724  -0.888085808
  H    2.611442796  -1.208150724   0.888085808
  H   -3.719825912   0.867549955   0.000000000
  H   -3.593563527  -0.660994546  -0.885640940
  H   -3.593563527  -0.660994546   0.885640940
  C   -3.264128417  -0.120880240   0.000000000
  C   -1.816597610  -0.000435829   0.000000000
  N   -0.673948837   0.095640569   0.000000000
$end



$rem
N_FROZEN_CORE FC
MEM_TOTAL 3750
MEM_STATIC 1500
AUX_BASIS_CORR rimp2-def2-QZVPPD
method DSD-PBEPBE-D3
GEN_SCFMAN TRUE
UNRESTRICTED True
THRESH  14
SCF_CONVERGENCE 7
SYMMETRY FALSE
SYM_IGNORE TRUE
max_scf_cycles 200
scf_algorithm gdm

XC_GRID 000099000590
NL_GRID 000075000302
BASIS def2-QZVPPD


$end




