$molecule
0 1
  H   -2.810268087  -1.660245726   0.932805324
  H   -3.108855416   2.523399163   0.005843687
  H   -3.937306384   0.528202355   1.219819641
  H   -0.092027641   0.100862755  -1.844375688
  H    0.154292229  -2.029579688  -0.778072565
  H   -1.178520945   2.296094192  -1.530468023
  C   -2.624949935   1.566513441  -0.123930366
  C   -3.088699209   0.443862118   0.555182761
  C   -2.468279657  -0.786427881   0.397812153
  C   -1.370390827  -0.910603667  -0.452434523
  C   -0.918371611   0.206963261  -1.156409714
  C   -1.539852962   1.437142301  -0.981822898
  O   -0.788078181  -2.130151964  -0.568106401
$end



$rem
N_FROZEN_CORE FC
MEM_TOTAL 7500
MEM_STATIC 3000
AUX_BASIS_CORR rimp2-def2-QZVPPD
method DSD-PBEPBE-D3
GEN_SCFMAN TRUE
UNRESTRICTED True
THRESH  14
SCF_CONVERGENCE 7
SYMMETRY FALSE
SYM_IGNORE TRUE
max_scf_cycles 200
scf_algorithm gdm

XC_GRID 000099000590
NL_GRID 000075000302
BASIS def2-QZVPPD


$end




