$molecule
0 1
  H   -0.588777978  -1.750313582   0.123170965
  H    0.721949404  -2.694945246   0.892199333
  H    0.832171626  -2.232174805  -0.828145520
  H    1.891186304   2.291931155  -0.359191165
  C    1.100972560   0.321594474  -0.206531260
  O    1.182507420  -0.751050250   0.593909951
  C    0.482598588  -1.934025229   0.157519954
  C    1.849354851   1.491007095   0.370757715
  O    0.489855115   0.335764899  -1.247272422
  H    1.334162443   1.841076837   1.265104412
  H    2.852911477   1.193467639   0.667453629
$end



$rem
N_FROZEN_CORE FC
MEM_TOTAL 3750
MEM_STATIC 1500
AUX_BASIS_CORR rimp2-def2-QZVPPD
method DSD-PBEPBE-D3
GEN_SCFMAN TRUE
UNRESTRICTED True
THRESH  14
SCF_CONVERGENCE 7
SYMMETRY FALSE
SYM_IGNORE TRUE
max_scf_cycles 200
scf_algorithm gdm

XC_GRID 000099000590
NL_GRID 000075000302
BASIS def2-QZVPPD


$end




