$molecule
0 1
  O   -2.080722411   0.374743458  -0.277017255
  H   -1.318026211  -0.220847417  -0.258404267
  C   -3.208308312  -0.296934856   0.253406800
  H   -4.042554777   0.401947625   0.239673618
  H   -3.484170341  -1.171366492  -0.343950304
  H   -3.047691552  -0.619156781   1.287120547
$end



$rem
N_FROZEN_CORE FC
MEM_TOTAL 3750
MEM_STATIC 1500
AUX_BASIS_CORR rimp2-def2-QZVPPD
method DSD-PBEPBE-D3
GEN_SCFMAN TRUE
UNRESTRICTED True
THRESH  14
SCF_CONVERGENCE 7
SYMMETRY FALSE
SYM_IGNORE TRUE
max_scf_cycles 200
scf_algorithm gdm

XC_GRID 000099000590
NL_GRID 000075000302
BASIS def2-QZVPPD


$end




