$molecule
0 1
  H   -0.146531428  -1.207372720   0.764421711
  H   -4.252689142  -1.468184152  -0.436071122
  H   -2.143906846  -2.556887896   0.284981138
  H   -2.316322736   2.348537459  -0.217178396
  H    0.939643561   0.949027122   0.477898721
  H   -4.315926169   0.999556269  -0.676294511
  H    0.038493512   2.362820950   0.244255415
  C   -3.372760610  -0.875948317  -0.233003066
  C   -2.187869226  -1.482330810   0.169955496
  C   -1.056456380  -0.726644129   0.433957895
  C   -1.078868239   0.667925181   0.294413883
  C   -2.276601603   1.272239520  -0.108461871
  C   -3.404144358   0.507730486  -0.365926149
  N    0.044609437   1.420259707   0.594584404
$end



$rem
N_FROZEN_CORE FC
MEM_TOTAL 7500
MEM_STATIC 3000
AUX_BASIS_CORR rimp2-def2-QZVPPD
method DSD-PBEPBE-D3
GEN_SCFMAN TRUE
UNRESTRICTED True
THRESH  14
SCF_CONVERGENCE 7
SYMMETRY FALSE
SYM_IGNORE TRUE
max_scf_cycles 200
scf_algorithm gdm

XC_GRID 000099000590
NL_GRID 000075000302
BASIS def2-QZVPPD


$end




