$molecule
0 1
  O   -2.164066826   0.673628527  -0.058441427
  H   -1.914751889  -0.255799065   0.026437608
  H   -3.043517756   0.674244371  -0.441855628
  H    1.167988994   1.349913015   1.324814910
  H    1.768958979   2.052384269  -0.205149139
  H    0.024617973   1.657521342  -0.019186266
  C    1.042448620   1.388374618   0.246217478
  O    1.349241838   0.064889964  -0.310699337
  C    0.505464327  -0.853847715  -0.035778707
  N   -0.252896076  -1.696158876   0.191908533
$end



$rem
N_FROZEN_CORE FC
MEM_TOTAL 3750
MEM_STATIC 1500
AUX_BASIS_CORR rimp2-def2-QZVPPD
method DSD-PBEPBE-D3
GEN_SCFMAN TRUE
UNRESTRICTED True
THRESH  14
SCF_CONVERGENCE 7
SYMMETRY FALSE
SYM_IGNORE TRUE
max_scf_cycles 200
scf_algorithm gdm

XC_GRID 000099000590
NL_GRID 000075000302
BASIS def2-QZVPPD


$end




