$molecule
0 1
  O    1.314820958  -0.412457918  -0.489820465
  H    0.450880825   0.014371030  -0.399320006
  C    2.216978094   0.189483065   0.418542323
  H    3.175611578  -0.315213487   0.312205478
  H    1.889448906   0.084861602   1.458255496
  H    2.366309090   1.253907523   0.209865811
$end



$rem
N_FROZEN_CORE FC
MEM_TOTAL 3750
MEM_STATIC 1500
AUX_BASIS_CORR rimp2-def2-QZVPPD
method DSD-PBEPBE-D3
GEN_SCFMAN TRUE
UNRESTRICTED True
THRESH  14
SCF_CONVERGENCE 7
SYMMETRY FALSE
SYM_IGNORE TRUE
max_scf_cycles 200
scf_algorithm gdm

XC_GRID 000099000590
NL_GRID 000075000302
BASIS def2-QZVPPD


$end




