$molecule
0 1
  C   -2.432906253   0.473582602   0.004130564
  H   -1.646241222   1.139001924  -0.261552120
  C   -3.297939682  -0.296063444   0.305259780
  H   -4.075023714  -0.967467081   0.573562013
$end



$rem
N_FROZEN_CORE FC
MEM_TOTAL 3750
MEM_STATIC 1500
AUX_BASIS_CORR rimp2-def2-QZVPPD
method DSD-PBEPBE-D3
GEN_SCFMAN TRUE
UNRESTRICTED True
THRESH  14
SCF_CONVERGENCE 7
SYMMETRY FALSE
SYM_IGNORE TRUE
max_scf_cycles 200
scf_algorithm gdm

XC_GRID 000099000590
NL_GRID 000075000302
BASIS def2-QZVPPD


$end




