$molecule
0 1
  C    4.099803097   0.892552779   0.595990659
  H    4.744256397   1.181182588  -0.231631124
  H    3.814276360   1.782017475   1.154482424
  H    4.654249497   0.245550085   1.272962083
  C    2.845663207   0.172352031   0.161110809
  O    2.028638863  -0.221452526   0.989711298
  N    2.684895762  -0.009230517  -1.163970188
  H    3.383856498   0.359728756  -1.781427340
  C    1.527919851  -0.678373094  -1.740270576
  H    1.351641774  -1.627194562  -1.240438770
  H    1.721960581  -0.859854302  -2.793282249
  H    0.628841582  -0.072079017  -1.642061344
$end



$rem
N_FROZEN_CORE FC
MEM_TOTAL 3750
MEM_STATIC 1500
AUX_BASIS_CORR rimp2-def2-QZVPPD
method DSD-PBEPBE-D3
GEN_SCFMAN TRUE
UNRESTRICTED True
THRESH  14
SCF_CONVERGENCE 7
SYMMETRY FALSE
SYM_IGNORE TRUE
max_scf_cycles 200
scf_algorithm gdm

XC_GRID 000099000590
NL_GRID 000075000302
BASIS def2-QZVPPD


$end




