$molecule
0 1
  C   -2.206897314  -0.898613912  -0.333402649
  H   -2.686467855  -1.314591852   0.550687423
  H   -2.891821938  -0.205171537  -0.817805072
  H   -1.997017067  -1.723999467  -1.011064003
  C   -0.894930991  -0.266877005   0.080311372
  O   -0.019679111  -0.916944253   0.635444976
  N   -0.752980885   1.049035104  -0.197651414
  H   -1.510909785   1.531830215  -0.642100366
  C    0.444537709   1.794278754   0.159293501
  H    1.327256290   1.360138522  -0.306057164
  H    0.592322401   1.788269556   1.239078856
  H    0.324911386   2.820998006  -0.175640665
$end



$rem
N_FROZEN_CORE FC
MEM_TOTAL 3750
MEM_STATIC 1500
AUX_BASIS_CORR rimp2-def2-QZVPPD
method DSD-PBEPBE-D3
GEN_SCFMAN TRUE
UNRESTRICTED True
THRESH  14
SCF_CONVERGENCE 7
SYMMETRY FALSE
SYM_IGNORE TRUE
max_scf_cycles 200
scf_algorithm gdm

XC_GRID 000099000590
NL_GRID 000075000302
BASIS def2-QZVPPD


$end




