$molecule
0 1
  N    1.427339082  -0.599460933  -0.391210405
  H    0.524716799  -0.814135861   0.022375840
  H    2.004866126  -1.425237666  -0.309450334
  C    2.047308300   0.531660202   0.293967970
  H    3.009553628   0.759268640  -0.165146751
  H    2.214250713   0.389080652   1.369340867
  H    1.417609392   1.413212598   0.173110974
  N   -1.664130636  -0.604889635   0.320536536
  H   -2.004227267  -1.300880938  -0.329911309
  H   -2.236721794  -0.673068577   1.151113651
  C   -1.746377967   0.735799002  -0.266821839
  H   -1.398748668   1.466062795   0.462478458
  H   -2.749490135   1.031419200  -0.591364401
  H   -1.077169846   0.787266247  -1.123910106
$end



$rem
N_FROZEN_CORE FC
MEM_TOTAL 3750
MEM_STATIC 1500
AUX_BASIS_CORR rimp2-def2-QZVPPD
method DSD-PBEPBE-D3
GEN_SCFMAN TRUE
UNRESTRICTED True
THRESH  14
SCF_CONVERGENCE 7
SYMMETRY FALSE
SYM_IGNORE TRUE
max_scf_cycles 200
scf_algorithm gdm

XC_GRID 000099000590
NL_GRID 000075000302
BASIS def2-QZVPPD


$end




