$molecule
0 1
  H   -1.619773742  -1.612223666   1.238900366
  H   -0.097022069  -1.213046930   0.526657091
  H   -3.577840653  -0.515637886   0.809841292
  H   -3.285409512   1.206629337   0.499391691
  H   -3.616510428   0.126168966  -0.843791171
  O   -0.987409647   0.703023446  -0.817008566
  C   -1.639709341  -0.010302574  -0.074426377
  N   -1.082424168  -1.035289727   0.620901366
  C   -3.125049926   0.197652337   0.124463742
$end



$rem
N_FROZEN_CORE FC
MEM_TOTAL 3750
MEM_STATIC 1500
AUX_BASIS_CORR rimp2-def2-QZVPPD
method DSD-PBEPBE-D3
GEN_SCFMAN TRUE
UNRESTRICTED True
THRESH  14
SCF_CONVERGENCE 7
SYMMETRY FALSE
SYM_IGNORE TRUE
max_scf_cycles 200
scf_algorithm gdm

XC_GRID 000099000590
NL_GRID 000075000302
BASIS def2-QZVPPD


$end




