$molecule
0 1
  H   -3.173192027  -1.464950592  -1.510336852
  H   -3.282605353   0.256698889  -1.897320542
  H   -1.700609360  -0.504171773  -1.638966736
  H   -2.240288519   0.597795663   0.339857329
  H   -4.091942466   0.137270380   1.710866961
  H   -4.642899552  -1.070595995   0.553363130
  H   -4.735849994   0.643995306   0.136044443
  C   -2.734944518  -0.487910022  -1.299453914
  N   -2.776421966  -0.232984818   0.130126581
  C   -4.126340986  -0.114294221   0.651792414
$end



$rem
N_FROZEN_CORE FC
MEM_TOTAL 3750
MEM_STATIC 1500
AUX_BASIS_CORR rimp2-def2-QZVPPD
method DSD-PBEPBE-D3
GEN_SCFMAN TRUE
UNRESTRICTED True
THRESH  14
SCF_CONVERGENCE 7
SYMMETRY FALSE
SYM_IGNORE TRUE
max_scf_cycles 200
scf_algorithm gdm

XC_GRID 000099000590
NL_GRID 000075000302
BASIS def2-QZVPPD


$end




