$molecule
0 1
  O   -1.870564293  -0.756998080   0.000000000
  H   -0.924380728  -0.504380189   0.000000000
  C   -2.642544109   0.423845411  -0.000000000
  H   -3.693626155   0.138881740   0.000000000
  H   -2.460648385   1.040868745  -0.887998323
  H   -2.460648385   1.040868745   0.887998323
$end



$rem
N_FROZEN_CORE FC
MEM_TOTAL 3750
MEM_STATIC 1500
AUX_BASIS_CORR rimp2-def2-QZVPPD
method DSD-PBEPBE-D3
GEN_SCFMAN TRUE
UNRESTRICTED True
THRESH  14
SCF_CONVERGENCE 7
SYMMETRY FALSE
SYM_IGNORE TRUE
max_scf_cycles 200
scf_algorithm gdm

XC_GRID 000099000590
NL_GRID 000075000302
BASIS def2-QZVPPD


$end




