$molecule
0 1
  N    3.219629555  -0.632154438   0.639868370
  H    2.474939535  -0.928226606   0.016905524
  H    3.308037962  -1.335631672   1.362189912
  H    4.081883341  -0.644978177   0.109847531
$end



$rem
N_FROZEN_CORE FC
MEM_TOTAL 3750
MEM_STATIC 1500
AUX_BASIS_CORR rimp2-def2-QZVPPD
method DSD-PBEPBE-D3
GEN_SCFMAN TRUE
UNRESTRICTED True
THRESH  14
SCF_CONVERGENCE 7
SYMMETRY FALSE
SYM_IGNORE TRUE
max_scf_cycles 200
scf_algorithm gdm

XC_GRID 000099000590
NL_GRID 000075000302
BASIS def2-QZVPPD


$end




