$molecule
0 1
  N    1.832374469  -0.197313160  -0.681135691
  H    1.402014909   0.681617869  -0.941611423
  H    2.563833572  -0.383641076  -1.354316876
  C    2.387619749  -0.103798672   0.671654663
  H    2.808706723  -1.066623119   0.959501683
  H    3.164889696   0.657510688   0.793518643
  H    1.585892358   0.127482888   1.371262215
$end



$rem
N_FROZEN_CORE FC
MEM_TOTAL 3750
MEM_STATIC 1500
AUX_BASIS_CORR rimp2-def2-QZVPPD
method DSD-PBEPBE-D3
GEN_SCFMAN TRUE
UNRESTRICTED True
THRESH  14
SCF_CONVERGENCE 7
SYMMETRY FALSE
SYM_IGNORE TRUE
max_scf_cycles 200
scf_algorithm gdm

XC_GRID 000099000590
NL_GRID 000075000302
BASIS def2-QZVPPD


$end




