$molecule
0 1
  N   -2.057822693   0.136358285   0.000000000
  H   -2.573361066  -0.734990837   0.000000000
  H   -2.346813229   0.659791983  -0.816679180
  H   -2.346813229   0.659791983   0.816679180
$end



$rem
N_FROZEN_CORE FC
MEM_TOTAL 3750
MEM_STATIC 1500
AUX_BASIS_CORR rimp2-def2-QZVPPD
method DSD-PBEPBE-D3
GEN_SCFMAN TRUE
UNRESTRICTED True
THRESH  14
SCF_CONVERGENCE 7
SYMMETRY FALSE
SYM_IGNORE TRUE
max_scf_cycles 200
scf_algorithm gdm

XC_GRID 000099000590
NL_GRID 000075000302
BASIS def2-QZVPPD


$end




