$molecule
0 1
  H    2.121219397   0.808470166  -2.011620335
  H    4.504290258  -0.407421353  -1.567615153
  H    4.644384543  -0.819167195   1.109177270
  H    2.338460794   0.169357947   2.137854866
  N    1.911263621   0.642749253   0.103505601
  C    2.558264929   0.470856076  -1.089383452
  C    3.760603329  -0.148348278  -0.834786291
  C    3.834031061  -0.363990769   0.567537301
  C    2.673736293   0.131433720   1.117226119
  H    0.967209372   0.986328211   0.204290222
$end



$rem
N_FROZEN_CORE FC
MEM_TOTAL 3750
MEM_STATIC 1500
AUX_BASIS_CORR rimp2-def2-QZVPPD
method DSD-PBEPBE-D3
GEN_SCFMAN TRUE
UNRESTRICTED True
THRESH  14
SCF_CONVERGENCE 7
SYMMETRY FALSE
SYM_IGNORE TRUE
max_scf_cycles 200
scf_algorithm gdm

XC_GRID 000099000590
NL_GRID 000075000302
BASIS def2-QZVPPD


$end




