$molecule
0 1
  H    1.069768258  -2.022138578  -0.309578904
  H    2.619066865  -1.238121782   0.076742142
  H    1.293835358  -1.226126908   1.265472536
  H    1.069768258   2.022138578  -0.309578904
  H    2.619066865   1.238121782   0.076742142
  H    1.293835358   1.226126908   1.265472536
  C    1.533231586  -1.180750345   0.198160433
  O    1.020599220   0.000000000  -0.389551055
  C    1.533231586   1.180750345   0.198160433
$end



$rem
N_FROZEN_CORE FC
MEM_TOTAL 3750
MEM_STATIC 1500
AUX_BASIS_CORR rimp2-def2-QZVPPD
method DSD-PBEPBE-D3
GEN_SCFMAN TRUE
UNRESTRICTED True
THRESH  14
SCF_CONVERGENCE 7
SYMMETRY FALSE
SYM_IGNORE TRUE
max_scf_cycles 200
scf_algorithm gdm

XC_GRID 000099000590
NL_GRID 000075000302
BASIS def2-QZVPPD


$end




