$molecule
0 1
  H   -2.754275724   2.150109666  -1.385590543
  H   -1.284177742   2.133979467  -0.427041809
  H   -2.870189559   2.066535876   0.395791655
  H   -1.671881588  -0.137967295  -1.425461525
  C   -2.304221096   1.747932022  -0.475192914
  C   -2.246131627   0.256239381  -0.565644503
  O   -2.763658782  -0.503611412   0.215637955
$end



$rem
N_FROZEN_CORE FC
MEM_TOTAL 3750
MEM_STATIC 1500
AUX_BASIS_CORR rimp2-def2-QZVPPD
method DSD-PBEPBE-D3
GEN_SCFMAN TRUE
UNRESTRICTED True
THRESH  14
SCF_CONVERGENCE 7
SYMMETRY FALSE
SYM_IGNORE TRUE
max_scf_cycles 200
scf_algorithm gdm

XC_GRID 000099000590
NL_GRID 000075000302
BASIS def2-QZVPPD


$end




