$molecule
0 1
  H    2.608203904   1.497244723  -0.867575466
  H    1.231655844   0.670877871  -1.604787738
  H    0.972697359   2.035396964  -0.498590308
  H    0.604392971   0.085748211   0.731006230
  H    2.184302947  -1.589158379   1.154618280
  H    3.355540482  -0.738306657   0.151063733
  H    1.962281622  -1.519139286  -0.605419456
  C    1.588503033   1.155520500  -0.680763069
  N    1.563895883   0.288378657   0.481857338
  C    2.292461515  -0.950208525   0.279425410
$end



$rem
N_FROZEN_CORE FC
MEM_TOTAL 3750
MEM_STATIC 1500
AUX_BASIS_CORR rimp2-def2-QZVPPD
method DSD-PBEPBE-D3
GEN_SCFMAN TRUE
UNRESTRICTED True
THRESH  14
SCF_CONVERGENCE 7
SYMMETRY FALSE
SYM_IGNORE TRUE
max_scf_cycles 200
scf_algorithm gdm

XC_GRID 000099000590
NL_GRID 000075000302
BASIS def2-QZVPPD


$end




