$molecule
0 1
  H   -3.701151382   0.003070569   1.193876327
  H   -3.441987345   1.424614477   0.175845372
  H   -2.510504574   1.211356271   1.670536981
  H   -1.117824896   0.535056991  -0.092811622
  H   -1.539505948  -1.210236243  -1.576141656
  H   -3.100787555  -1.496298509  -0.808236909
  H   -2.857109301  -0.043341589  -1.785937972
  C   -2.937341055   0.685947890   0.817347317
  N   -1.899789452  -0.066478424   0.134364921
  C   -2.373573845  -0.725490908  -1.070153059
$end



$rem
N_FROZEN_CORE FC
MEM_TOTAL 3750
MEM_STATIC 1500
AUX_BASIS_CORR rimp2-def2-QZVPPD
method DSD-PBEPBE-D3
GEN_SCFMAN TRUE
UNRESTRICTED True
THRESH  14
SCF_CONVERGENCE 7
SYMMETRY FALSE
SYM_IGNORE TRUE
max_scf_cycles 200
scf_algorithm gdm

XC_GRID 000099000590
NL_GRID 000075000302
BASIS def2-QZVPPD


$end




