$molecule
0 1
  H   -2.739221841   0.427721197   1.612838101
  H   -1.220984938  -0.527317162   1.672015546
  H   -2.724413095  -1.300672674   1.088691582
  C   -2.169041280  -0.373288077   1.159951750
  N   -1.799338860   0.045908601  -0.223310995
  O   -1.536573810  -0.835607230  -1.024143944
  O   -1.744980080   1.240503355  -0.458371814
$end



$rem
N_FROZEN_CORE FC
MEM_TOTAL 3750
MEM_STATIC 1500
AUX_BASIS_CORR rimp2-def2-QZVPPD
method DSD-PBEPBE-D3
GEN_SCFMAN TRUE
UNRESTRICTED True
THRESH  14
SCF_CONVERGENCE 7
SYMMETRY FALSE
SYM_IGNORE TRUE
max_scf_cycles 200
scf_algorithm gdm

XC_GRID 000099000590
NL_GRID 000075000302
BASIS def2-QZVPPD


$end




