$molecule
0 1
  H    1.570813574   1.592087257   0.874523371
  H    1.570813574   1.592087257  -0.874523371
  H    0.016966763   1.453767797   0.000000000
  H    2.294930189  -0.663626372   0.000000000
  C    1.066403209   1.174266710   0.000000000
  C    1.246331668  -0.309697199   0.000000000
  O    0.350281819  -1.119757641   0.000000000
$end



$rem
N_FROZEN_CORE FC
MEM_TOTAL 3750
MEM_STATIC 1500
AUX_BASIS_CORR rimp2-def2-QZVPPD
method DSD-PBEPBE-D3
GEN_SCFMAN TRUE
UNRESTRICTED True
THRESH  14
SCF_CONVERGENCE 7
SYMMETRY FALSE
SYM_IGNORE TRUE
max_scf_cycles 200
scf_algorithm gdm

XC_GRID 000099000590
NL_GRID 000075000302
BASIS def2-QZVPPD


$end




