$molecule
0 1
  H   -1.133076001   1.530529263  -1.354315884
  H   -0.295793741   1.410472361   0.222750769
  H   -1.509167394   2.698811586  -0.054529097
  C   -1.217471673   1.681418002  -0.282643883
  O   -2.319168270   0.856906240   0.231602403
  C   -2.208763779  -0.401491217   0.041428077
  N   -2.133131675  -1.544091751  -0.115002449
$end



$rem
N_FROZEN_CORE FC
MEM_TOTAL 3750
MEM_STATIC 1500
AUX_BASIS_CORR rimp2-def2-QZVPPD
method DSD-PBEPBE-D3
GEN_SCFMAN TRUE
UNRESTRICTED True
THRESH  14
SCF_CONVERGENCE 7
SYMMETRY FALSE
SYM_IGNORE TRUE
max_scf_cycles 200
scf_algorithm gdm

XC_GRID 000099000590
NL_GRID 000075000302
BASIS def2-QZVPPD


$end




