$molecule
0 1
  H    3.863920370  -0.325422503   1.740867115
  H    2.788053952  -1.751090000   1.706133530
  H    2.130665696  -0.154680752   2.152486398
  H    2.590097377   2.135328371  -1.665247248
  H    3.375786128   0.565171572  -1.989288484
  H    1.591672786   0.677772390  -1.888380579
  C    2.855517303  -0.679516107   1.529490963
  O    2.550379070  -0.521413821   0.154531353
  O    2.611417603   0.917733264  -0.094410570
  C    2.536679501   1.060910564  -1.500403279
$end



$rem
N_FROZEN_CORE FC
MEM_TOTAL 3750
MEM_STATIC 1500
AUX_BASIS_CORR rimp2-def2-QZVPPD
method DSD-PBEPBE-D3
GEN_SCFMAN TRUE
UNRESTRICTED True
THRESH  14
SCF_CONVERGENCE 7
SYMMETRY FALSE
SYM_IGNORE TRUE
max_scf_cycles 200
scf_algorithm gdm

XC_GRID 000099000590
NL_GRID 000075000302
BASIS def2-QZVPPD


$end




