$molecule
0 1
  H   -0.026537666  -0.924553846  -1.658911920
  H    1.470389630  -0.877653073  -2.630051699
  H    0.141411741   0.258747539  -2.975867368
  H    2.973019244  -2.448455642   0.843219057
  H    3.727788497  -0.857395282   1.147991542
  H    2.149531790  -1.237859310   1.863117263
  O    1.192649037   0.728188291  -1.323376301
  C    1.838334902   0.372118447  -0.218146601
  O    2.122110405   1.163154125   0.644701731
  O    2.137922717  -0.933068804  -0.191703808
  C    2.792522604  -1.390739346   0.999942947
  C    0.666523021  -0.286284454  -2.199613329
$end



$rem
N_FROZEN_CORE FC
MEM_TOTAL 3750
MEM_STATIC 1500
AUX_BASIS_CORR rimp2-def2-QZVPPD
method DSD-PBEPBE-D3
GEN_SCFMAN TRUE
UNRESTRICTED True
THRESH  14
SCF_CONVERGENCE 7
SYMMETRY FALSE
SYM_IGNORE TRUE
max_scf_cycles 200
scf_algorithm gdm

XC_GRID 000099000590
NL_GRID 000075000302
BASIS def2-QZVPPD


$end




