$molecule
0 1
  H   -3.298423144  -0.442225570   0.031404619
  H   -2.936322408   1.249489078   0.084086954
  H    0.044474243  -1.506157441  -0.552693681
  H   -1.646741086  -2.052906875  -0.395686355
  H   -0.674003389  -1.710659978   1.039499095
  O   -0.475645406   0.966142176   0.036436358
  C   -1.287859308   0.051838245   0.024766471
  N   -2.620869770   0.295759540   0.051370368
  C   -0.876883048  -1.401737418   0.013416217
$end



$rem
N_FROZEN_CORE FC
MEM_TOTAL 3750
MEM_STATIC 1500
AUX_BASIS_CORR rimp2-def2-QZVPPD
method DSD-PBEPBE-D3
GEN_SCFMAN TRUE
UNRESTRICTED True
THRESH  14
SCF_CONVERGENCE 7
SYMMETRY FALSE
SYM_IGNORE TRUE
max_scf_cycles 200
scf_algorithm gdm

XC_GRID 000099000590
NL_GRID 000075000302
BASIS def2-QZVPPD


$end




