$molecule
0 1
  H    2.328249337   1.085668782   0.000000000
  H   -0.798340011  -1.399454574   0.000000000
  H    0.681937940  -1.880705291   0.876460187
  H    0.681937940  -1.880705291  -0.876460187
  O    0.055462564   1.036618867   0.000000000
  C    0.755787335   0.054599507   0.000000000
  O    2.105540701   0.144458729   0.000000000
  C    0.286303407  -1.368613484   0.000000000
$end



$rem
N_FROZEN_CORE FC
MEM_TOTAL 3750
MEM_STATIC 1500
AUX_BASIS_CORR rimp2-def2-QZVPPD
method DSD-PBEPBE-D3
GEN_SCFMAN TRUE
UNRESTRICTED True
THRESH  14
SCF_CONVERGENCE 7
SYMMETRY FALSE
SYM_IGNORE TRUE
max_scf_cycles 200
scf_algorithm gdm

XC_GRID 000099000590
NL_GRID 000075000302
BASIS def2-QZVPPD


$end




