$molecule
0 1
  H   -0.731846059   1.922353837   0.823761173
  H    0.779365481   1.404231487   0.024346436
  H   -0.654664952   1.871178808  -0.923832631
  H   -2.544512823  -1.303738420  -0.028719887
  H   -2.695776525   0.163796775   0.965895777
  C   -0.305515611   1.372742047  -0.017056970
  C   -0.801449221  -0.052828234  -0.008871816
  O   -0.045416036  -0.999540376  -0.037408317
  C   -2.299309282  -0.248095064   0.036072288
  H   -2.777694745   0.297104185  -0.778781302
$end



$rem
N_FROZEN_CORE FC
MEM_TOTAL 3750
MEM_STATIC 1500
AUX_BASIS_CORR rimp2-def2-QZVPPD
method DSD-PBEPBE-D3
GEN_SCFMAN TRUE
UNRESTRICTED True
THRESH  14
SCF_CONVERGENCE 7
SYMMETRY FALSE
SYM_IGNORE TRUE
max_scf_cycles 200
scf_algorithm gdm

XC_GRID 000099000590
NL_GRID 000075000302
BASIS def2-QZVPPD


$end




