$molecule
0 1
  C    1.098341317  -1.109788246  -1.468472142
  H    0.272377385  -1.603754542  -0.957941160
  H    1.545449813  -1.823366272  -2.155532496
  H    0.700976879  -0.264499639  -2.026052154
  C    2.136132078  -0.709177873  -0.440761328
  O    2.892474131  -1.521927111   0.065655699
  N    2.166570984   0.609452910  -0.115598875
  H    1.424072361   1.207043007  -0.437204750
  C    3.022490511   1.094612387   0.947934852
  H    4.042557295   0.753456881   0.788961816
  H    3.003073173   2.181321409   0.948087899
  H    2.701343965   0.731416767   1.926871455
$end



$rem
N_FROZEN_CORE FC
MEM_TOTAL 3750
MEM_STATIC 1500
AUX_BASIS_CORR rimp2-def2-QZVPPD
method DSD-PBEPBE-D3
GEN_SCFMAN TRUE
UNRESTRICTED True
THRESH  14
SCF_CONVERGENCE 7
SYMMETRY FALSE
SYM_IGNORE TRUE
max_scf_cycles 200
scf_algorithm gdm

XC_GRID 000099000590
NL_GRID 000075000302
BASIS def2-QZVPPD


$end




