$molecule
0 1
  H    1.533301614  -0.912111055   2.140624196
  H    3.867152001   1.972451619   0.000000000
  H    3.085118149   0.995572919   2.138755398
  H    1.533301614  -0.912111055  -2.140624196
  H    0.473052259  -2.643995604   0.830726646
  H    3.085118149   0.995572919  -2.138755398
  H    0.473052259  -2.643995604  -0.830726646
  C    3.192291224   1.129609198   0.000000000
  C    2.752569056   0.579758692   1.198266303
  C    1.882137349  -0.500072443   1.203016469
  C    1.437004903  -1.049820768   0.000000000
  C    1.882137349  -0.500072443  -1.203016469
  C    2.752569056   0.579758692  -1.198266303
  N    0.475690768  -2.073380984   0.000000000
$end



$rem
N_FROZEN_CORE FC
MEM_TOTAL 7500
MEM_STATIC 3000
AUX_BASIS_CORR rimp2-def2-QZVPPD
method DSD-PBEPBE-D3
GEN_SCFMAN TRUE
UNRESTRICTED True
THRESH  14
SCF_CONVERGENCE 7
SYMMETRY FALSE
SYM_IGNORE TRUE
max_scf_cycles 200
scf_algorithm gdm

XC_GRID 000099000590
NL_GRID 000075000302
BASIS def2-QZVPPD


$end




