$molecule
0 1
  H   -0.018021151  -0.170916534   1.757251602
  H   -2.766074578  -2.650877567  -0.405223241
  H   -0.878483070  -2.404020164   1.184366839
  H   -2.900145455   1.608254426  -0.855628033
  H    0.118360947   2.150339376   0.949162782
  H   -3.779602699  -0.619516905  -1.402774418
  H   -1.179677053   2.874222077   0.195046719
  C   -2.385425549  -1.671444733  -0.156310785
  C   -1.326141629  -1.528860730   0.733946568
  C   -0.834539263  -0.274333836   1.056902670
  C   -1.384040149   0.876963698   0.478897816
  C   -2.459186070   0.728980678  -0.403970726
  C   -2.951359214  -0.530278894  -0.713407107
  N   -0.881030265   2.131018662   0.804628272
$end



$rem
N_FROZEN_CORE FC
MEM_TOTAL 7500
MEM_STATIC 3000
AUX_BASIS_CORR rimp2-def2-QZVPPD
method DSD-PBEPBE-D3
GEN_SCFMAN TRUE
UNRESTRICTED True
THRESH  14
SCF_CONVERGENCE 7
SYMMETRY FALSE
SYM_IGNORE TRUE
max_scf_cycles 200
scf_algorithm gdm

XC_GRID 000099000590
NL_GRID 000075000302
BASIS def2-QZVPPD


$end




