$molecule
0 1
  H   -1.246387616  -2.065421765   0.008074464
  H   -3.873682724  -1.400460135  -0.010324210
  H   -3.957173119   1.310326492  -0.007410906
  H   -1.376370501   2.136162153   0.012809569
  N   -0.950948924   0.046568308   0.013390917
  C   -1.706660751  -1.093743761   0.006141350
  C   -3.033523581  -0.728483033  -0.003197980
  C   -3.077247919   0.691331887  -0.001648833
  C   -1.775414715   1.137778547   0.008608425
  H    0.071119423   0.074708467   0.019710512
$end



$rem
N_FROZEN_CORE FC
MEM_TOTAL 3750
MEM_STATIC 1500
AUX_BASIS_CORR rimp2-def2-QZVPPD
method DSD-PBEPBE-D3
GEN_SCFMAN TRUE
UNRESTRICTED True
THRESH  14
SCF_CONVERGENCE 7
SYMMETRY FALSE
SYM_IGNORE TRUE
max_scf_cycles 200
scf_algorithm gdm

XC_GRID 000099000590
NL_GRID 000075000302
BASIS def2-QZVPPD


$end




