$molecule
0 1
  H   -0.703199640  -1.325264177   0.392610949
  H    0.975063571  -2.001803224   0.301792846
  H    0.095666867  -1.510158288  -1.178044533
  C    0.252484380  -1.316283870  -0.120323473
  N    0.817952983   0.065439920  -0.021735632
  O    0.048651951   1.000335368  -0.208788466
  O    2.001938454   0.182133904   0.215150660
$end



$rem
N_FROZEN_CORE FC
MEM_TOTAL 3750
MEM_STATIC 1500
AUX_BASIS_CORR rimp2-def2-QZVPPD
method DSD-PBEPBE-D3
GEN_SCFMAN TRUE
UNRESTRICTED True
THRESH  14
SCF_CONVERGENCE 7
SYMMETRY FALSE
SYM_IGNORE TRUE
max_scf_cycles 200
scf_algorithm gdm

XC_GRID 000099000590
NL_GRID 000075000302
BASIS def2-QZVPPD


$end




