$molecule
0 1
  H    4.051778231   1.277860492   1.065024316
  H    4.339256565   1.774629636  -0.606646301
  H    4.803766597   0.160774517  -0.055732668
  H    2.611487031   1.036948322  -2.389866810
  H    2.998889380  -0.528784902   2.174037819
  H    3.729114563  -1.679680122   1.052993570
  H    2.135757193  -2.007306035   1.739605468
  H    1.828358018   2.131875891  -1.268799381
  H    1.031002701   0.607140399  -1.703711092
  C    2.689172075   0.406739151  -0.351464036
  N    2.122318913  -0.563006047   0.244145640
  C    2.784100110  -1.223368101   1.357973985
  C    1.987346781   1.075417209  -1.494851837
  C    4.046721560   0.942118249   0.026919483
$end



$rem
N_FROZEN_CORE FC
MEM_TOTAL 3750
MEM_STATIC 1500
AUX_BASIS_CORR rimp2-def2-QZVPPD
method DSD-PBEPBE-D3
GEN_SCFMAN TRUE
UNRESTRICTED True
THRESH  14
SCF_CONVERGENCE 7
SYMMETRY FALSE
SYM_IGNORE TRUE
max_scf_cycles 200
scf_algorithm gdm

XC_GRID 000099000590
NL_GRID 000075000302
BASIS def2-QZVPPD


$end




