$molecule
0 1
  H   -1.168733314   1.212678053   0.000000000
  H    3.116923794   1.546400675   0.000000000
  H    0.880052841   2.609605646   0.000000000
  H    1.253858943  -2.312982660   0.000000000
  H   -1.026082298  -2.294017322   0.000000000
  H    3.292698345  -0.924488019   0.000000000
  C    2.224926982   0.937410547   0.000000000
  C    0.967240013   1.532215722   0.000000000
  C   -0.186544119   0.761799551   0.000000000
  C   -0.073919453  -0.624520591   0.000000000
  C    1.176402934  -1.232674542   0.000000000
  C    2.322866805  -0.447438046   0.000000000
  O   -1.235651481  -1.356602265   0.000000000
$end



$rem
N_FROZEN_CORE FC
MEM_TOTAL 7500
MEM_STATIC 3000
AUX_BASIS_CORR rimp2-def2-QZVPPD
method DSD-PBEPBE-D3
GEN_SCFMAN TRUE
UNRESTRICTED True
THRESH  14
SCF_CONVERGENCE 7
SYMMETRY FALSE
SYM_IGNORE TRUE
max_scf_cycles 200
scf_algorithm gdm

XC_GRID 000099000590
NL_GRID 000075000302
BASIS def2-QZVPPD


$end




