$molecule
0 1
  H   -2.457492809  -0.760551454   0.663679503
  H   -1.972787528  -1.888899197  -0.632091488
  H   -1.010910747  -1.791081186   0.864871614
  H    0.504541522   2.429124259   0.634671330
  H   -0.701623940   2.273623724  -0.673280039
  H    0.926363428   1.540910724  -0.848171510
  C   -1.612641465  -1.224131743   0.151381558
  O   -0.832853373  -0.261994991  -0.523674139
  O   -0.327819211   0.624276474   0.523869044
  C    0.121911147   1.782556786  -0.153160878
$end



$rem
N_FROZEN_CORE FC
MEM_TOTAL 3750
MEM_STATIC 1500
AUX_BASIS_CORR rimp2-def2-QZVPPD
method DSD-PBEPBE-D3
GEN_SCFMAN TRUE
UNRESTRICTED True
THRESH  14
SCF_CONVERGENCE 7
SYMMETRY FALSE
SYM_IGNORE TRUE
max_scf_cycles 200
scf_algorithm gdm

XC_GRID 000099000590
NL_GRID 000075000302
BASIS def2-QZVPPD


$end




