$molecule
0 1
  N   -2.672544687   0.000000000  -0.265348551
  H   -1.677475101   0.000000000  -0.483710111
  H   -3.084491707  -0.813088756  -0.705086623
  H   -3.084491707   0.813088756  -0.705086623
  H    2.540740600   0.000000000  -0.593733460
  H    1.464661881  -0.882837800  -1.693622922
  H    1.464661881   0.882837800  -1.693622922
  H    0.427356051   2.082511936   0.103142114
  H    1.406769881   1.279376535   1.345446224
  H   -0.367752925   1.198932907   1.409107460
  H    1.406769881  -1.279376535   1.345446224
  H   -0.367752925  -1.198932907   1.409107460
  C    1.542106668   0.000000000  -1.060379909
  N    0.469564168   0.000000000  -0.081344423
  C    0.490147348   1.200257489   0.739036051
  C    0.490147348  -1.200257489   0.739036051
  H    0.427356051  -2.082511936   0.103142114
$end



$rem
N_FROZEN_CORE FC
MEM_TOTAL 7500
MEM_STATIC 3000
AUX_BASIS_CORR rimp2-def2-QZVPPD
method DSD-PBEPBE-D3
GEN_SCFMAN TRUE
UNRESTRICTED True
THRESH  14
SCF_CONVERGENCE 7
SYMMETRY FALSE
SYM_IGNORE TRUE
max_scf_cycles 200
scf_algorithm gdm

XC_GRID 000099000590
NL_GRID 000075000302
BASIS def2-QZVPPD


$end




