$molecule
0 1
  H   -2.120768629   0.255208851   2.022922653
  H   -2.716986940  -1.218548737   1.226333308
  H   -3.716993561   0.253853609   1.238352661
  H   -2.120768629   0.255208851  -2.022922653
  H   -2.716986940  -1.218548737  -1.226333308
  H   -3.716993561   0.253853609  -1.238352661
  C   -2.692280508  -0.125090435   1.180516803
  O   -2.052645787   0.321373607   0.000000000
  C   -2.692280508  -0.125090435  -1.180516803
$end



$rem
N_FROZEN_CORE FC
MEM_TOTAL 3750
MEM_STATIC 1500
AUX_BASIS_CORR rimp2-def2-QZVPPD
method DSD-PBEPBE-D3
GEN_SCFMAN TRUE
UNRESTRICTED True
THRESH  14
SCF_CONVERGENCE 7
SYMMETRY FALSE
SYM_IGNORE TRUE
max_scf_cycles 200
scf_algorithm gdm

XC_GRID 000099000590
NL_GRID 000075000302
BASIS def2-QZVPPD


$end




