$molecule
0 1
  H    1.750377234  -2.226735061  -0.662655251
  H    3.673364029   1.599795110  -0.340002603
  H    3.719348719  -0.774388393  -1.048871671
  H   -0.302096709   1.042377287   1.166956805
  H   -1.227315705  -1.031684814   0.757343215
  H    1.648763220   2.497814324   0.768914677
  C    2.816293440   0.964279300  -0.172422081
  C    2.839362252  -0.369203207  -0.568914937
  C    1.742531187  -1.190488846  -0.357278388
  C    0.601762329  -0.681806020   0.262361078
  C    0.574335431   0.652899637   0.668602270
  C    1.679016156   1.465967175   0.447094712
  O   -0.448046636  -1.522975260   0.443924404
$end



$rem
N_FROZEN_CORE FC
MEM_TOTAL 7500
MEM_STATIC 3000
AUX_BASIS_CORR rimp2-def2-QZVPPD
method DSD-PBEPBE-D3
GEN_SCFMAN TRUE
UNRESTRICTED True
THRESH  14
SCF_CONVERGENCE 7
SYMMETRY FALSE
SYM_IGNORE TRUE
max_scf_cycles 200
scf_algorithm gdm

XC_GRID 000099000590
NL_GRID 000075000302
BASIS def2-QZVPPD


$end




