$molecule
0 1
  H   -1.370203934   0.128794405   2.102783594
  H   -3.957441590  -0.177439474   1.355896187
  H   -3.957441590  -0.177439474  -1.355896187
  H   -1.370203934   0.128794405  -2.102783594
  N   -1.014274211   0.172121696   0.000000000
  C   -1.798087744   0.078044167   1.117898359
  C   -3.102740897  -0.076766340   0.710444293
  C   -3.102740897  -0.076766340  -0.710444293
  C   -1.798087744   0.078044167  -1.117898359
  H   -0.005866292   0.279317938   0.000000000
$end



$rem
N_FROZEN_CORE FC
MEM_TOTAL 3750
MEM_STATIC 1500
AUX_BASIS_CORR rimp2-def2-QZVPPD
method DSD-PBEPBE-D3
GEN_SCFMAN TRUE
UNRESTRICTED True
THRESH  14
SCF_CONVERGENCE 7
SYMMETRY FALSE
SYM_IGNORE TRUE
max_scf_cycles 200
scf_algorithm gdm

XC_GRID 000099000590
NL_GRID 000075000302
BASIS def2-QZVPPD


$end




