$molecule
0 1
  N   -2.462849476  -0.177382344  -0.382810619
  H   -1.723502630   0.002103791  -1.051109213
  H   -3.343929379  -0.065056168  -0.865414159
  C   -2.366156593   0.752497685   0.740749523
  H   -3.181249759   0.566187998   1.439396281
  H   -2.391479066   1.813528721   0.466009347
  H   -1.436432680   0.571213750   1.280484670
$end



$rem
N_FROZEN_CORE FC
MEM_TOTAL 3750
MEM_STATIC 1500
AUX_BASIS_CORR rimp2-def2-QZVPPD
method DSD-PBEPBE-D3
GEN_SCFMAN TRUE
UNRESTRICTED True
THRESH  14
SCF_CONVERGENCE 7
SYMMETRY FALSE
SYM_IGNORE TRUE
max_scf_cycles 200
scf_algorithm gdm

XC_GRID 000099000590
NL_GRID 000075000302
BASIS def2-QZVPPD


$end




