$molecule
0 1
  H    2.718434455  -1.803818709  -0.319388829
  H    1.361718471  -2.537369161   0.577547596
  H    1.085822788  -1.850326872  -1.045478990
  H    1.771965301   2.501945521  -0.389973605
  H    2.083877783   1.784286197   1.212144867
  H    0.413372306   1.840845308   0.558225587
  C    1.648029769  -1.747999825  -0.115427767
  O    1.320223389  -0.546382434   0.548351560
  O    1.702693814   0.515560583  -0.382224415
  C    1.469608718   1.726349757   0.311868014
$end



$rem
N_FROZEN_CORE FC
MEM_TOTAL 3750
MEM_STATIC 1500
AUX_BASIS_CORR rimp2-def2-QZVPPD
method DSD-PBEPBE-D3
GEN_SCFMAN TRUE
UNRESTRICTED True
THRESH  14
SCF_CONVERGENCE 7
SYMMETRY FALSE
SYM_IGNORE TRUE
max_scf_cycles 200
scf_algorithm gdm

XC_GRID 000099000590
NL_GRID 000075000302
BASIS def2-QZVPPD


$end




