$molecule
0 1
  H   -2.773931007   0.775435754   1.925718214
  H   -2.386647145  -3.027974419  -0.006918171
  H   -2.878608367  -1.679799267   2.013497186
  H   -1.697441102   0.577312902  -2.212903474
  H   -2.603545549   2.732680281   0.529327799
  H   -1.803001041  -1.875837082  -2.121554779
  H   -2.227988534   2.657112286  -1.088094603
  C   -2.351530187  -1.949578156  -0.048818156
  C   -2.626342664  -1.191597683   1.082798224
  C   -2.573805103   0.194055440   1.035407544
  C   -2.243190074   0.845324138  -0.153915755
  C   -1.973193559   0.082729641  -1.291097590
  C   -2.027148860  -1.301081572  -1.234352256
  N   -2.087904818   2.239287767  -0.181954945
$end



$rem
N_FROZEN_CORE FC
MEM_TOTAL 7500
MEM_STATIC 3000
AUX_BASIS_CORR rimp2-def2-QZVPPD
method DSD-PBEPBE-D3
GEN_SCFMAN TRUE
UNRESTRICTED True
THRESH  14
SCF_CONVERGENCE 7
SYMMETRY FALSE
SYM_IGNORE TRUE
max_scf_cycles 200
scf_algorithm gdm

XC_GRID 000099000590
NL_GRID 000075000302
BASIS def2-QZVPPD


$end




