$molecule
0 1
  C    0.683724360  -1.802518360  -0.255134042
  H    1.291553930  -2.338926592  -0.980865871
  H    0.715143752  -2.364880410   0.677070242
  H   -0.343487439  -1.753937835  -0.610547271
  C    1.298498149  -0.435689824  -0.020629713
  O    2.472892372  -0.307879108   0.293409462
  N    0.463493990   0.615750314  -0.176288692
  H   -0.511238040   0.462043239  -0.417837780
  C    0.927936654   1.970292665   0.036651789
  H    1.745436954   2.216828072  -0.640685755
  H    1.292729233   2.108169813   1.054847160
  H    0.101185283   2.654035332  -0.141343330
  N   -2.524608363   0.202777346  -0.588500777
  H   -2.990806037   1.077615504  -0.790985523
  H   -2.796949590  -0.444286205  -1.317065535
  C   -2.919900801  -0.302455618   0.731858421
  H   -2.402903126  -1.240678784   0.924905081
  H   -3.994017243  -0.472723040   0.846687124
  H   -2.601614825   0.405820331   1.494638899
$end



$rem
N_FROZEN_CORE FC
MEM_TOTAL 15000
MEM_STATIC 6000
AUX_BASIS_CORR rimp2-def2-QZVPPD
method DSD-PBEPBE-D3
GEN_SCFMAN TRUE
UNRESTRICTED True
THRESH  14
SCF_CONVERGENCE 7
SYMMETRY FALSE
SYM_IGNORE TRUE
max_scf_cycles 200
scf_algorithm gdm

XC_GRID 000099000590
NL_GRID 000075000302
BASIS def2-QZVPPD


$end




