$molecule
0 1
  H   -2.809061884  -1.279334452  -1.073645760
  H   -3.272690571  -1.268217557   0.633527451
  H   -1.785608011  -2.085955939   0.116135936
  H   -1.162590521   0.000000000   0.992420400
  H   -1.785608011   2.085955939   0.116135936
  H   -2.809061884   1.279334452  -1.073645760
  H   -3.272690571   1.268217557   0.633527451
  C   -2.422261903  -1.220485938  -0.056472039
  N   -1.636403655   0.000000000   0.095114134
  C   -2.422261903   1.220485938  -0.056472039
$end



$rem
N_FROZEN_CORE FC
MEM_TOTAL 3750
MEM_STATIC 1500
AUX_BASIS_CORR rimp2-def2-QZVPPD
method DSD-PBEPBE-D3
GEN_SCFMAN TRUE
UNRESTRICTED True
THRESH  14
SCF_CONVERGENCE 7
SYMMETRY FALSE
SYM_IGNORE TRUE
max_scf_cycles 200
scf_algorithm gdm

XC_GRID 000099000590
NL_GRID 000075000302
BASIS def2-QZVPPD


$end




