$molecule
0 1
  C    3.497263390   0.005071102  -0.164648372
  H    2.646866729  -0.618005884  -0.010424745
  C    4.447006683   0.712526927  -0.335172122
  H    5.290114219   1.338597158  -0.487362299
$end



$rem
N_FROZEN_CORE FC
MEM_TOTAL 3750
MEM_STATIC 1500
AUX_BASIS_CORR rimp2-def2-QZVPPD
method DSD-PBEPBE-D3
GEN_SCFMAN TRUE
UNRESTRICTED True
THRESH  14
SCF_CONVERGENCE 7
SYMMETRY FALSE
SYM_IGNORE TRUE
max_scf_cycles 200
scf_algorithm gdm

XC_GRID 000099000590
NL_GRID 000075000302
BASIS def2-QZVPPD


$end




