$molecule
0 1
  H    0.128477238  -0.302780000   0.770852135
  H    3.715800068  -2.468248489  -0.114838831
  H    1.329395441  -2.426354797   0.571013751
  H    3.663122095   1.805883669  -0.412332930
  H    0.132418427   2.104758712   0.238482895
  H    4.867471023  -0.326115764  -0.603053292
  H    1.558373807   2.901292698  -0.131507890
  C    3.186349527  -1.530680186  -0.029510186
  C    1.850139755  -1.503454248   0.355495145
  C    1.164510678  -0.304583599   0.467952397
  C    1.805267167   0.907910804   0.187844752
  C    3.150728184   0.876751793  -0.197175846
  C    3.828642316  -0.328491296  -0.302446590
  N    1.137361806   2.117839540   0.337779885
$end



$rem
N_FROZEN_CORE FC
MEM_TOTAL 7500
MEM_STATIC 3000
AUX_BASIS_CORR rimp2-def2-QZVPPD
method DSD-PBEPBE-D3
GEN_SCFMAN TRUE
UNRESTRICTED True
THRESH  14
SCF_CONVERGENCE 7
SYMMETRY FALSE
SYM_IGNORE TRUE
max_scf_cycles 200
scf_algorithm gdm

XC_GRID 000099000590
NL_GRID 000075000302
BASIS def2-QZVPPD


$end




