$molecule
0 1
  C   -2.441198890   0.033254533  -0.124921211
  O   -1.931573044  -0.950144385  -0.613235076
  O   -1.748098619   1.022211060   0.441888845
  H   -0.779806185   0.838827019   0.382471585
  C   -3.923988576   0.287688186  -0.084149840
  H   -4.454363731  -0.547613916  -0.527712971
  H   -4.246359137   0.432903241   0.945966783
  H   -4.153250205   1.204469398  -0.626043796
$end



$rem
N_FROZEN_CORE FC
MEM_TOTAL 3750
MEM_STATIC 1500
AUX_BASIS_CORR rimp2-def2-QZVPPD
method DSD-PBEPBE-D3
GEN_SCFMAN TRUE
UNRESTRICTED True
THRESH  14
SCF_CONVERGENCE 7
SYMMETRY FALSE
SYM_IGNORE TRUE
max_scf_cycles 200
scf_algorithm gdm

XC_GRID 000099000590
NL_GRID 000075000302
BASIS def2-QZVPPD


$end




