$molecule
0 1
  H    2.252604637   1.484954657   0.876008433
  H    2.252604637   1.484954657  -0.876008433
  H    0.677653244   1.343448377   0.000000000
  C    1.735359361   1.089712644   0.000000000
  N    1.981802606  -0.362362693   0.000000000
  O    0.990377287  -1.042794261   0.000000000
$end



$rem
N_FROZEN_CORE FC
MEM_TOTAL 3750
MEM_STATIC 1500
AUX_BASIS_CORR rimp2-def2-QZVPPD
method DSD-PBEPBE-D3
GEN_SCFMAN TRUE
UNRESTRICTED True
THRESH  14
SCF_CONVERGENCE 7
SYMMETRY FALSE
SYM_IGNORE TRUE
max_scf_cycles 200
scf_algorithm gdm

XC_GRID 000099000590
NL_GRID 000075000302
BASIS def2-QZVPPD


$end




