$molecule
0 1
  C    1.774981531  -1.575711550  -0.900364427
  H    2.684915003  -1.324268953  -1.442168688
  H    1.883753700  -2.551137721  -0.435055175
  H    0.950748967  -1.618314048  -1.612468878
  C    1.421143562  -0.558535913   0.157645754
  O    0.715579161  -0.839466858   1.119339084
  N    1.919324407   0.686011760  -0.033062078
  H    2.329441306   0.884643625  -0.928069905
  C    1.488187255   1.809019224   0.775866822
  H    1.418259713   1.492879657   1.812193181
  H    0.510961119   2.180045980   0.460267198
  H    2.216399307   2.612060302   0.694231917
$end



$rem
N_FROZEN_CORE FC
MEM_TOTAL 3750
MEM_STATIC 1500
AUX_BASIS_CORR rimp2-def2-QZVPPD
method DSD-PBEPBE-D3
GEN_SCFMAN TRUE
UNRESTRICTED True
THRESH  14
SCF_CONVERGENCE 7
SYMMETRY FALSE
SYM_IGNORE TRUE
max_scf_cycles 200
scf_algorithm gdm

XC_GRID 000099000590
NL_GRID 000075000302
BASIS def2-QZVPPD


$end




