$molecule
0 1
  H   -5.085873039   0.513848061  -0.885676302
  H   -5.088624254  -1.019966573   0.000000000
  H   -5.085873039   0.513848061   0.885676302
  C   -4.714154870   0.001984206   0.000000000
  C   -3.261696656  -0.000732398   0.000000000
  N   -2.114865126  -0.002821814   0.000000000
$end



$rem
N_FROZEN_CORE FC
MEM_TOTAL 3750
MEM_STATIC 1500
AUX_BASIS_CORR rimp2-def2-QZVPPD
method DSD-PBEPBE-D3
GEN_SCFMAN TRUE
UNRESTRICTED True
THRESH  14
SCF_CONVERGENCE 7
SYMMETRY FALSE
SYM_IGNORE TRUE
max_scf_cycles 200
scf_algorithm gdm

XC_GRID 000099000590
NL_GRID 000075000302
BASIS def2-QZVPPD


$end




