$molecule
0 1
  C    1.958822371   0.063448473   0.000000000
  O    1.374415430   1.134060225   0.000000000
  O    1.357670707  -1.110782181   0.000000000
  H    0.356229651  -1.021533495   0.000000000
  C    3.458528481  -0.051128874   0.000000000
  H    3.907842909   0.935707469   0.000000000
  H    3.782529378  -0.610419823  -0.876633742
  H    3.782529378  -0.610419823   0.876633742
  H   -2.066717015   2.014776660   0.000000000
  H   -0.452642301   1.325455087   0.000000000
  H   -4.000747045   0.794247112   0.000000000
  H   -3.780948923  -0.733035461   0.877448542
  H   -3.780948923  -0.733035461  -0.877448542
  O   -1.269970702  -1.036578186   0.000000000
  C   -1.980336270  -0.026663092   0.000000000
  N   -1.468541231   1.210838117   0.000000000
  C   -3.483034696  -0.162187009   0.000000000
$end



$rem
N_FROZEN_CORE FC
MEM_TOTAL 7500
MEM_STATIC 3000
AUX_BASIS_CORR rimp2-def2-QZVPPD
method DSD-PBEPBE-D3
GEN_SCFMAN TRUE
UNRESTRICTED True
THRESH  14
SCF_CONVERGENCE 7
SYMMETRY FALSE
SYM_IGNORE TRUE
max_scf_cycles 200
scf_algorithm gdm

XC_GRID 000099000590
NL_GRID 000075000302
BASIS def2-QZVPPD


$end




