$molecule
0 1
  C    1.270446450  -1.825473998  -0.000004449
  H    0.184827044  -1.755080581   0.000003604
  H    1.596408150  -2.380872507   0.877802432
  H    1.596394525  -2.380856191  -0.877826473
  C    1.956340954  -0.473411105  -0.000006424
  O    3.174048286  -0.368586549   0.000003841
  N    1.133312459   0.600118914   0.000015216
  H    0.134893522   0.465537871   0.000014413
  C    1.660650792   1.948550393  -0.000009211
  H    2.279049160   2.128192014  -0.879465811
  H    0.828307718   2.647605262  -0.000028134
  H    2.279046336   2.128233325   0.879440776
$end



$rem
N_FROZEN_CORE FC
MEM_TOTAL 3750
MEM_STATIC 1500
AUX_BASIS_CORR rimp2-def2-QZVPPD
method DSD-PBEPBE-D3
GEN_SCFMAN TRUE
UNRESTRICTED True
THRESH  14
SCF_CONVERGENCE 7
SYMMETRY FALSE
SYM_IGNORE TRUE
max_scf_cycles 200
scf_algorithm gdm

XC_GRID 000099000590
NL_GRID 000075000302
BASIS def2-QZVPPD


$end




