$molecule
0 1
  C   -2.371270412   0.046959600  -0.162595143
  O   -1.841978059  -0.855740425  -0.774433321
  O   -1.708373373   0.946976821   0.557589085
  H   -0.725632203   0.795025476   0.499935338
  C   -3.859380582   0.279978873  -0.129611382
  H   -4.367856202  -0.492441743  -0.696105848
  H   -4.211235755   0.283167467   0.901095092
  H   -4.085534804   1.259156629  -0.550231061
$end



$rem
N_FROZEN_CORE FC
MEM_TOTAL 3750
MEM_STATIC 1500
AUX_BASIS_CORR rimp2-def2-QZVPPD
method DSD-PBEPBE-D3
GEN_SCFMAN TRUE
UNRESTRICTED True
THRESH  14
SCF_CONVERGENCE 7
SYMMETRY FALSE
SYM_IGNORE TRUE
max_scf_cycles 200
scf_algorithm gdm

XC_GRID 000099000590
NL_GRID 000075000302
BASIS def2-QZVPPD


$end




