$molecule
0 1
  N   -2.350338863   0.609975135   0.000000000
  H   -2.885064706   0.893170317   0.810922096
  H   -2.885064706   0.893170317  -0.810922096
  C   -2.147671027  -0.845448881   0.000000000
  H   -1.566992580  -1.126240024  -0.876484606
  H   -3.072535935  -1.430602451   0.000000000
  H   -1.566992580  -1.126240024   0.876484606
$end



$rem
N_FROZEN_CORE FC
MEM_TOTAL 3750
MEM_STATIC 1500
AUX_BASIS_CORR rimp2-def2-QZVPPD
method DSD-PBEPBE-D3
GEN_SCFMAN TRUE
UNRESTRICTED True
THRESH  14
SCF_CONVERGENCE 7
SYMMETRY FALSE
SYM_IGNORE TRUE
max_scf_cycles 200
scf_algorithm gdm

XC_GRID 000099000590
NL_GRID 000075000302
BASIS def2-QZVPPD


$end




