$molecule
0 1
  N   -1.924102404  -0.484806007   0.513383399
  H   -0.979899356  -0.369296403   0.861046291
  H   -2.557039828  -0.350397193   1.289921033
  C   -2.188494797   0.484902339  -0.546053857
  H   -3.202712713   0.351914201  -0.922219708
  H   -2.074024980   1.536661280  -0.253811067
  H   -1.510932686   0.298701945  -1.379492268
$end



$rem
N_FROZEN_CORE FC
MEM_TOTAL 3750
MEM_STATIC 1500
AUX_BASIS_CORR rimp2-def2-QZVPPD
method DSD-PBEPBE-D3
GEN_SCFMAN TRUE
UNRESTRICTED True
THRESH  14
SCF_CONVERGENCE 7
SYMMETRY FALSE
SYM_IGNORE TRUE
max_scf_cycles 200
scf_algorithm gdm

XC_GRID 000099000590
NL_GRID 000075000302
BASIS def2-QZVPPD


$end




