$molecule
0 1
  N    3.010909274  -0.058661092   0.587394445
  H    2.176267197   0.504421880   0.712389291
  H    3.726668782   0.307200900   1.200094675
  C    3.443762837  -0.009656765  -0.807053881
  H    4.311094368  -0.655059908  -0.947335972
  H    3.704164685   0.989957081  -1.176591431
  H    2.645676323  -0.395315269  -1.441151836
$end



$rem
N_FROZEN_CORE FC
MEM_TOTAL 3750
MEM_STATIC 1500
AUX_BASIS_CORR rimp2-def2-QZVPPD
method DSD-PBEPBE-D3
GEN_SCFMAN TRUE
UNRESTRICTED True
THRESH  14
SCF_CONVERGENCE 7
SYMMETRY FALSE
SYM_IGNORE TRUE
max_scf_cycles 200
scf_algorithm gdm

XC_GRID 000099000590
NL_GRID 000075000302
BASIS def2-QZVPPD


$end




