$molecule
0 1
  N   -2.063249797  -0.704944079  -0.154966234
  H   -1.106567202  -0.483428816  -0.417444501
  H   -2.425526964  -1.358101999  -0.836277569
  C   -2.877348118   0.507152304  -0.118194458
  H   -3.895550807   0.259771589   0.182446018
  H   -2.932316387   1.058919290  -1.065346459
  H   -2.476095866   1.185505060   0.634813543
$end



$rem
N_FROZEN_CORE FC
MEM_TOTAL 3750
MEM_STATIC 1500
AUX_BASIS_CORR rimp2-def2-QZVPPD
method DSD-PBEPBE-D3
GEN_SCFMAN TRUE
UNRESTRICTED True
THRESH  14
SCF_CONVERGENCE 7
SYMMETRY FALSE
SYM_IGNORE TRUE
max_scf_cycles 200
scf_algorithm gdm

XC_GRID 000099000590
NL_GRID 000075000302
BASIS def2-QZVPPD


$end




