$molecule
0 1
  C   -2.229109262  -0.149979090   0.098014379
  H   -1.188235068  -0.305187736   0.270778929
  C   -3.397176213   0.026862773  -0.092440131
  H   -4.432841078   0.183283933  -0.262308377
  H    2.012986337   1.798748421   0.878169041
  H    1.306584403   2.520098445  -0.595107886
  H    0.237643407   1.924738718   0.698203817
  H    1.220944982  -2.466905678   0.624786397
  H    2.456024628  -1.656683204  -0.379118639
  H    0.807548396  -1.916890141  -1.020036029
  C    1.180432732   1.759918347   0.173857589
  O    1.166637947   0.537741741  -0.534009942
  O    0.970568798  -0.496078950   0.481014504
  C    1.395747286  -1.699115397  -0.126910506
$end



$rem
N_FROZEN_CORE FC
MEM_TOTAL 3750
MEM_STATIC 1500
AUX_BASIS_CORR rimp2-def2-QZVPPD
method DSD-PBEPBE-D3
GEN_SCFMAN TRUE
UNRESTRICTED True
THRESH  14
SCF_CONVERGENCE 7
SYMMETRY FALSE
SYM_IGNORE TRUE
max_scf_cycles 200
scf_algorithm gdm

XC_GRID 000099000590
NL_GRID 000075000302
BASIS def2-QZVPPD


$end




