$molecule
0 1
  C    1.381372214  -1.730981392  -0.663572383
  H    1.810402472  -2.506718841  -0.034836955
  H    0.415028008  -2.082341196  -1.023983024
  H    2.027742354  -1.557186225  -1.521530587
  C    1.154092705  -0.492296517   0.172521424
  O    0.696155929  -0.554080327   1.305387751
  N    1.483777458   0.684082425  -0.415978805
  H    1.689433609   0.669896858  -1.398674655
  C    1.158507894   1.959740268   0.190186883
  H    1.292854653   1.881537502   1.264700898
  H    0.125015864   2.248920391  -0.010749777
  H    1.823547511   2.726255457  -0.200174975
$end



$rem
N_FROZEN_CORE FC
MEM_TOTAL 3750
MEM_STATIC 1500
AUX_BASIS_CORR rimp2-def2-QZVPPD
method DSD-PBEPBE-D3
GEN_SCFMAN TRUE
UNRESTRICTED True
THRESH  14
SCF_CONVERGENCE 7
SYMMETRY FALSE
SYM_IGNORE TRUE
max_scf_cycles 200
scf_algorithm gdm

XC_GRID 000099000590
NL_GRID 000075000302
BASIS def2-QZVPPD


$end




