$molecule
0 1
  C    2.111617965  -1.664266552   0.499321642
  H    1.029511422  -1.560383034   0.478189992
  H    2.413530282  -2.459632263  -0.179401922
  H    2.426282235  -1.953329375   1.501399451
  C    2.844149709  -0.394779529   0.111421223
  O    4.059442316  -0.367985922  -0.020989261
  N    2.069156042   0.698591776  -0.068116408
  H    1.069655470   0.639435771   0.051753317
  C    2.649205632   1.977443834  -0.421044775
  H    3.357538166   2.310491927   0.337679123
  H    1.849157811   2.707743919  -0.508745346
  H    3.185906791   1.917171090  -1.367929849
$end



$rem
N_FROZEN_CORE FC
MEM_TOTAL 3750
MEM_STATIC 1500
AUX_BASIS_CORR rimp2-def2-QZVPPD
method DSD-PBEPBE-D3
GEN_SCFMAN TRUE
UNRESTRICTED True
THRESH  14
SCF_CONVERGENCE 7
SYMMETRY FALSE
SYM_IGNORE TRUE
max_scf_cycles 200
scf_algorithm gdm

XC_GRID 000099000590
NL_GRID 000075000302
BASIS def2-QZVPPD


$end




