$molecule
0 1
  H    3.516702552   0.894710763   0.000000000
  H    2.138487193   1.570679510  -0.884444609
  H    2.138487193   1.570679510   0.884444609
  C    2.434278970   1.009667424   0.000000000
  C    1.791104917  -0.293330689   0.000000000
  N    1.278360074  -1.320612809   0.000000000
$end



$rem
N_FROZEN_CORE FC
MEM_TOTAL 3750
MEM_STATIC 1500
AUX_BASIS_CORR rimp2-def2-QZVPPD
method DSD-PBEPBE-D3
GEN_SCFMAN TRUE
UNRESTRICTED True
THRESH  14
SCF_CONVERGENCE 7
SYMMETRY FALSE
SYM_IGNORE TRUE
max_scf_cycles 200
scf_algorithm gdm

XC_GRID 000099000590
NL_GRID 000075000302
BASIS def2-QZVPPD


$end




