$molecule
0 1
  H    3.731865666  -1.075069284   0.874204506
  H    3.731865666  -1.075069284  -0.874204506
  H    4.066808709   0.448271663   0.000000000
  H    1.336433721  -1.049163090   0.000000000
  C    3.484320010  -0.468630860   0.000000000
  C    2.019215053  -0.185475522   0.000000000
  O    1.554579605   0.935426218   0.000000000
$end



$rem
N_FROZEN_CORE FC
MEM_TOTAL 3750
SCF_ALGORITHM GDM_QLS
MEM_STATIC 1500
AUX_BASIS_CORR rimp2-def2-QZVPPD
method DSD-PBEPBE-D3
GEN_SCFMAN TRUE
UNRESTRICTED True
THRESH  14
SCF_CONVERGENCE 7
SYMMETRY FALSE
SYM_IGNORE TRUE
max_scf_cycles 200

XC_GRID 000099000590
NL_GRID 000075000302
BASIS def2-QZVPPD


$end




