$molecule
0 1
  O   -1.978053535  -0.023446482   0.668943910
  H   -1.041058927   0.187252730   0.522641944
  C   -2.656380907   0.093829410  -0.565780324
  H   -3.692356972  -0.197906375  -0.403387047
  H   -2.234448733  -0.562984397  -1.334728767
  H   -2.647648037   1.120277903  -0.948211132
$end



$rem
N_FROZEN_CORE FC
MEM_TOTAL 3750
MEM_STATIC 1500
AUX_BASIS_CORR rimp2-def2-QZVPPD
method DSD-PBEPBE-D3
GEN_SCFMAN TRUE
UNRESTRICTED True
THRESH  14
SCF_CONVERGENCE 7
SYMMETRY FALSE
SYM_IGNORE TRUE
max_scf_cycles 200
scf_algorithm gdm

XC_GRID 000099000590
NL_GRID 000075000302
BASIS def2-QZVPPD


$end




