$molecule
0 1
  O    2.536736371   0.182918899  -0.061451462
  H    1.578854572   0.331992874   0.022473871
  H    2.921944478   0.519691564   0.749931716
  H   -0.693025855   2.267858213  -0.859118149
  H   -2.164126965   1.592441851  -0.086154956
  H   -0.819709404   2.262491350   0.893020129
  H   -0.867938175  -2.399547101   0.858600348
  H    0.613704261  -1.744371861   0.085984438
  H   -0.746021920  -2.383095387  -0.890808517
  C   -1.083957857   1.709622421  -0.008557060
  N   -0.400602551   0.420704334   0.034699522
  N   -1.152561867  -0.550345744  -0.023644036
  C   -0.469138193  -1.839652599   0.012575254
$end



$rem
N_FROZEN_CORE FC
MEM_TOTAL 3750
MEM_STATIC 1500
AUX_BASIS_CORR rimp2-def2-QZVPPD
method DSD-PBEPBE-D3
GEN_SCFMAN TRUE
UNRESTRICTED True
THRESH  14
SCF_CONVERGENCE 7
SYMMETRY FALSE
SYM_IGNORE TRUE
max_scf_cycles 200
scf_algorithm gdm

XC_GRID 000099000590
NL_GRID 000075000302
BASIS def2-QZVPPD


$end




