$molecule
0 1
  H   -0.140752529   0.906808992  -0.302004039
  H   -4.306846899   1.871875133  -0.618877927
  H   -1.921949148   2.522237598  -0.819399726
  H   -3.096491322  -2.042933425   0.636414597
  H    0.448933170  -1.373301996   0.191030218
  H   -4.872141214  -0.431241708   0.109004331
  H   -0.731739055  -2.544773557   0.550935695
  C   -3.525025742   1.163006428  -0.389414566
  C   -2.186262490   1.523380292  -0.499048840
  C   -1.177670274   0.618582647  -0.206922733
  C   -1.486833219  -0.684885248   0.208514728
  C   -2.837681217  -1.042184641   0.314895852
  C   -3.837608490  -0.128992940   0.018964160
  N   -0.481841056  -1.571490961   0.550083693
$end



$rem
N_FROZEN_CORE FC
MEM_TOTAL 7500
MEM_STATIC 3000
AUX_BASIS_CORR rimp2-def2-QZVPPD
method DSD-PBEPBE-D3
GEN_SCFMAN TRUE
UNRESTRICTED True
THRESH  14
SCF_CONVERGENCE 7
SYMMETRY FALSE
SYM_IGNORE TRUE
max_scf_cycles 200
scf_algorithm gdm

XC_GRID 000099000590
NL_GRID 000075000302
BASIS def2-QZVPPD


$end




