$molecule
0 1
  H   -4.338495316  -0.573249848   0.000000000
  H   -3.303249404   1.958859515   0.000000000
  H   -2.146389969  -2.208498210   0.000000000
  H   -0.577384544   1.578510284   0.000000000
  C   -2.756778737   1.033155952   0.000000000
  C   -3.300249837  -0.294205360   0.000000000
  C   -2.245786627  -1.139701868   0.000000000
  O   -1.079148133  -0.426789268   0.000000000
  C   -1.411360665   0.901890539   0.000000000
$end



$rem
N_FROZEN_CORE FC
MEM_TOTAL 3750
MEM_STATIC 1500
AUX_BASIS_CORR rimp2-def2-QZVPPD
method DSD-PBEPBE-D3
GEN_SCFMAN TRUE
UNRESTRICTED True
THRESH  14
SCF_CONVERGENCE 7
SYMMETRY FALSE
SYM_IGNORE TRUE
max_scf_cycles 200
scf_algorithm gdm

XC_GRID 000099000590
NL_GRID 000075000302
BASIS def2-QZVPPD


$end




