$molecule
0 1
  H   -0.901276063  -0.854945189  -1.266032305
  H   -2.666908487  -0.949468224  -1.261886905
  H   -1.844404926   0.390126807  -2.086643210
  H   -2.558426927   1.196245952   0.000000000
  H   -1.844404926   0.390126807   2.086643210
  H   -0.901276063  -0.854945189   1.266032305
  H   -2.666908487  -0.949468224   1.261886905
  C   -1.812515898  -0.259181040  -1.212798705
  N   -1.784448007   0.546501666   0.000000000
  C   -1.812515898  -0.259181040   1.212798705
$end



$rem
N_FROZEN_CORE FC
MEM_TOTAL 3750
MEM_STATIC 1500
AUX_BASIS_CORR rimp2-def2-QZVPPD
method DSD-PBEPBE-D3
GEN_SCFMAN TRUE
UNRESTRICTED True
THRESH  14
SCF_CONVERGENCE 7
SYMMETRY FALSE
SYM_IGNORE TRUE
max_scf_cycles 200
scf_algorithm gdm

XC_GRID 000099000590
NL_GRID 000075000302
BASIS def2-QZVPPD


$end




