$molecule
0 1
  N    2.602581423   0.000000000  -0.056489743
  H    2.909459809   0.000000000   0.908206573
  H    3.004763436  -0.815286226  -0.501410160
  H    3.004763436   0.815286226  -0.501410160
$end



$rem
N_FROZEN_CORE FC
MEM_TOTAL 3750
MEM_STATIC 1500
AUX_BASIS_CORR rimp2-def2-QZVPPD
method DSD-PBEPBE-D3
GEN_SCFMAN TRUE
UNRESTRICTED True
THRESH  14
SCF_CONVERGENCE 7
SYMMETRY FALSE
SYM_IGNORE TRUE
max_scf_cycles 200
scf_algorithm gdm

XC_GRID 000099000590
NL_GRID 000075000302
BASIS def2-QZVPPD


$end




