$molecule
0 1
  N    2.826717292  -0.007311558   0.229118221
  H    2.006428970  -0.536734886  -0.055669142
  H    3.278900934  -0.523725249   0.972873417
  H    3.468618440   0.003837290  -0.553363664
$end



$rem
N_FROZEN_CORE FC
MEM_TOTAL 3750
MEM_STATIC 1500
AUX_BASIS_CORR rimp2-def2-QZVPPD
method DSD-PBEPBE-D3
GEN_SCFMAN TRUE
UNRESTRICTED True
THRESH  14
SCF_CONVERGENCE 7
SYMMETRY FALSE
SYM_IGNORE TRUE
max_scf_cycles 200
scf_algorithm gdm

XC_GRID 000099000590
NL_GRID 000075000302
BASIS def2-QZVPPD


$end




