$molecule
0 1
  H   -0.164508782  -0.610452712   1.465848174
  H   -4.130340566  -1.616704601   0.184757526
  H   -2.093522798  -2.135434256   1.501159644
  H   -2.272463199   1.985731157  -1.206231423
  H    0.892949901   1.261123557   0.358505613
  H   -4.197174703   0.460185770  -1.169020401
  H    0.044757637   2.311898476  -0.634304596
  C   -3.283138127  -0.947170922   0.168303692
  C   -2.139263344  -1.234316653   0.904916692
  C   -1.048619373  -0.378424218   0.888507753
  C   -1.077489877   0.796076248   0.125337290
  C   -2.231764930   1.080739308  -0.613870099
  C   -3.317098254   0.218377124  -0.589051467
  N   -0.002348280   1.673742573   0.141571963
$end



$rem
N_FROZEN_CORE FC
MEM_TOTAL 7500
MEM_STATIC 3000
AUX_BASIS_CORR rimp2-def2-QZVPPD
method DSD-PBEPBE-D3
GEN_SCFMAN TRUE
UNRESTRICTED True
THRESH  14
SCF_CONVERGENCE 7
SYMMETRY FALSE
SYM_IGNORE TRUE
max_scf_cycles 200
scf_algorithm gdm

XC_GRID 000099000590
NL_GRID 000075000302
BASIS def2-QZVPPD


$end




