$molecule
0 1
  N    3.087161305  -0.736275204   0.000000086
  H    3.121596398  -1.338279163   0.812824872
  H    3.121596484  -1.338279468  -0.812824470
  C    4.216681480   0.204707825  -0.000000011
  H    4.145289798   0.843747042  -0.877562289
  H    5.196986735  -0.278194124   0.000000134
  H    4.145289681   0.843747338   0.877562043
$end



$rem
N_FROZEN_CORE FC
MEM_TOTAL 3750
MEM_STATIC 1500
AUX_BASIS_CORR rimp2-def2-QZVPPD
method DSD-PBEPBE-D3
GEN_SCFMAN TRUE
UNRESTRICTED True
THRESH  14
SCF_CONVERGENCE 7
SYMMETRY FALSE
SYM_IGNORE TRUE
max_scf_cycles 200
scf_algorithm gdm

XC_GRID 000099000590
NL_GRID 000075000302
BASIS def2-QZVPPD


$end




