$molecule
0 1
  H   -0.703100005   1.255852724  -1.204404276
  H   -2.230098406   1.095513205  -0.323205155
  H   -0.904947103   2.071235494   0.343624972
  H   -0.852324107  -0.009798547   1.429852044
  H   -0.479937885  -2.082604462   0.393583764
  H   -0.450060595  -1.283451532  -1.173595810
  H   -1.978181904  -1.410448227  -0.287210776
  C   -1.140557912   1.164502173  -0.210629010
  N   -0.557136904   0.008897020   0.462983168
  C   -0.896799367  -1.257589356  -0.180239316
$end



$rem
N_FROZEN_CORE FC
MEM_TOTAL 3750
MEM_STATIC 1500
AUX_BASIS_CORR rimp2-def2-QZVPPD
method DSD-PBEPBE-D3
GEN_SCFMAN TRUE
UNRESTRICTED True
THRESH  14
SCF_CONVERGENCE 7
SYMMETRY FALSE
SYM_IGNORE TRUE
max_scf_cycles 200
scf_algorithm gdm

XC_GRID 000099000590
NL_GRID 000075000302
BASIS def2-QZVPPD


$end




