$molecule
0 1
  H    1.966674868  -1.808837043  -1.200658320
  H    0.762052524  -0.854194346  -0.405261737
  H    4.211084085  -1.410477705  -1.125318347
  H    4.624083992   0.285855031  -0.803300988
  H    4.621150119  -0.873851704   0.514194035
  O    2.424033277   0.722280014   0.632517787
  C    2.687694408  -0.229269394  -0.089347521
  N    1.731386000  -1.010444916  -0.642749576
  C    4.120038850  -0.594788432  -0.411291284
$end



$rem
N_FROZEN_CORE FC
MEM_TOTAL 3750
MEM_STATIC 1500
AUX_BASIS_CORR rimp2-def2-QZVPPD
method DSD-PBEPBE-D3
GEN_SCFMAN TRUE
UNRESTRICTED True
THRESH  14
SCF_CONVERGENCE 7
SYMMETRY FALSE
SYM_IGNORE TRUE
max_scf_cycles 200
scf_algorithm gdm

XC_GRID 000099000590
NL_GRID 000075000302
BASIS def2-QZVPPD


$end




