$molecule
0 1
  C   -2.096737983   0.009607417  -0.188714070
  O   -1.164862514  -0.101956983  -0.955587264
  O   -1.965109178   0.379851752   1.086066877
  H   -1.012723268   0.534543606   1.284768125
  C   -3.531582904  -0.252574707  -0.555428158
  H   -3.601219772  -0.529474696  -1.601512375
  H   -3.928585334  -1.051706879   0.069402908
  H   -4.130792013   0.635906847  -0.361505273
$end



$rem
N_FROZEN_CORE FC
MEM_TOTAL 3750
SCF_ALGORITHM GDM_QLS
MEM_STATIC 1500
AUX_BASIS_CORR rimp2-def2-QZVPPD
method DSD-PBEPBE-D3
GEN_SCFMAN TRUE
UNRESTRICTED True
THRESH  14
SCF_CONVERGENCE 7
SYMMETRY FALSE
SYM_IGNORE TRUE
max_scf_cycles 200

XC_GRID 000099000590
NL_GRID 000075000302
BASIS def2-QZVPPD


$end




