$molecule
0 1
  H    2.253605454  -2.139210308  -0.138830012
  H    0.462638603  -2.106977653  -0.282302804
  H    1.234345269  -1.750335365   1.280156700
  H    3.955037648   1.498992210   0.142846249
  H    3.665114477   0.218252091  -1.065365856
  H    2.648851822   1.689589670  -1.054297693
  C    1.332043486  -1.665240082   0.198589029
  O    1.300080468  -0.299400693  -0.198824459
  O    2.349678441   0.388367124   0.535466526
  C    3.195302451   0.976189458  -0.436356758
$end



$rem
N_FROZEN_CORE FC
MEM_TOTAL 3750
SCF_ALGORITHM GDM
MEM_STATIC 1500
AUX_BASIS_CORR rimp2-def2-QZVPPD
method DSD-PBEPBE-D3
GEN_SCFMAN TRUE
UNRESTRICTED True
THRESH  14
SCF_CONVERGENCE 7
SYMMETRY FALSE
SYM_IGNORE TRUE
max_scf_cycles 200

XC_GRID 000099000590
NL_GRID 000075000302
BASIS def2-QZVPPD


$end




