$molecule
0 1
  H    3.495592090   0.593418265   1.759151124
  H    4.512774486  -0.604221217   0.925692582
  H    4.292414537   1.018846432   0.226519077
  H    1.943011520  -1.046304723  -1.600988025
  H    3.562079486  -1.611011668  -1.125347529
  H    3.351443212   0.018258706  -1.815152359
  C    3.804133865   0.217002981   0.787868995
  O    2.637872053  -0.234020071   0.120667279
  C    2.897022512  -0.744867831  -1.177110139
$end



$rem
N_FROZEN_CORE FC
MEM_TOTAL 3750
MEM_STATIC 1500
AUX_BASIS_CORR rimp2-def2-QZVPPD
method DSD-PBEPBE-D3
GEN_SCFMAN TRUE
UNRESTRICTED True
THRESH  14
SCF_CONVERGENCE 7
SYMMETRY FALSE
SYM_IGNORE TRUE
max_scf_cycles 200
scf_algorithm gdm

XC_GRID 000099000590
NL_GRID 000075000302
BASIS def2-QZVPPD


$end




