$molecule
0 1
  H   -4.282348714  -0.278603114  -0.617451580
  H   -4.076509711   0.445412962   0.940867420
  H   -2.518956242  -0.686027876  -2.063564620
  H   -1.434267649  -1.627350723  -1.030273543
  H   -0.921515198  -0.051794881  -1.605963297
  O   -1.597482543   0.424442225   0.884641559
  C   -2.325400412   0.006881443  -0.004376500
  N   -3.674720903   0.064147525   0.101968628
  C   -1.781807647  -0.621936011  -1.266426545
$end



$rem
N_FROZEN_CORE FC
MEM_TOTAL 3750
MEM_STATIC 1500
AUX_BASIS_CORR rimp2-def2-QZVPPD
method DSD-PBEPBE-D3
GEN_SCFMAN TRUE
UNRESTRICTED True
THRESH  14
SCF_CONVERGENCE 7
SYMMETRY FALSE
SYM_IGNORE TRUE
max_scf_cycles 200
scf_algorithm gdm

XC_GRID 000099000590
NL_GRID 000075000302
BASIS def2-QZVPPD


$end




