$molecule
0 1
  H    2.803920661  -1.068003061   0.329429209
  H    1.393807559   1.904639899  -0.854483825
  H   -0.260137131   1.379910259  -0.425041894
  H    0.918508471   1.852162284   0.831689787
  O    0.597193070  -1.045018578  -0.217928058
  C    1.262652310  -0.055470740  -0.038292441
  O    2.574043586  -0.129515449   0.286026113
  C    0.785110079   1.362032266  -0.132368030
$end



$rem
N_FROZEN_CORE FC
MEM_TOTAL 3750
MEM_STATIC 1500
AUX_BASIS_CORR rimp2-def2-QZVPPD
method DSD-PBEPBE-D3
GEN_SCFMAN TRUE
UNRESTRICTED True
THRESH  14
SCF_CONVERGENCE 7
SYMMETRY FALSE
SYM_IGNORE TRUE
max_scf_cycles 200
scf_algorithm gdm

XC_GRID 000099000590
NL_GRID 000075000302
BASIS def2-QZVPPD


$end




