$molecule
0 1
  H    2.473788609   1.475428778  -0.228465480
  H    0.915270501   1.375011694  -1.054839553
  H    1.016624209   2.028774962   0.592240329
  H    0.285743325  -0.178810793   0.796489180
  H    1.454818685  -2.083163337   0.113412571
  H    2.745362481  -1.066578998  -0.524565978
  H    1.180694619  -1.108345656  -1.343830013
  C    1.413126773   1.266260678  -0.076820445
  N    1.249599452  -0.045222982   0.520341282
  C    1.668469684  -1.123602312  -0.354634492
$end



$rem
N_FROZEN_CORE FC
MEM_TOTAL 3750
MEM_STATIC 1500
AUX_BASIS_CORR rimp2-def2-QZVPPD
method DSD-PBEPBE-D3
GEN_SCFMAN TRUE
UNRESTRICTED True
THRESH  14
SCF_CONVERGENCE 7
SYMMETRY FALSE
SYM_IGNORE TRUE
max_scf_cycles 200
scf_algorithm gdm

XC_GRID 000099000590
NL_GRID 000075000302
BASIS def2-QZVPPD


$end




