$molecule
0 1
  H    0.757512661  -2.022090054  -0.428332986
  H    1.980773958  -1.217110107   0.578819052
  H    0.272976303  -1.227971715   1.088427310
  H    0.757512661   2.022090054  -0.428332986
  H    1.980773958   1.217110107   0.578819052
  H    0.272976303   1.227971715   1.088427310
  C    0.944760268  -1.174162596   0.226021925
  O    0.712684544   0.000000000  -0.527303503
  C    0.944760268   1.174162596   0.226021925
$end



$rem
N_FROZEN_CORE FC
MEM_TOTAL 3750
MEM_STATIC 1500
AUX_BASIS_CORR rimp2-def2-QZVPPD
method DSD-PBEPBE-D3
GEN_SCFMAN TRUE
UNRESTRICTED True
THRESH  14
SCF_CONVERGENCE 7
SYMMETRY FALSE
SYM_IGNORE TRUE
max_scf_cycles 200
scf_algorithm gdm

XC_GRID 000099000590
NL_GRID 000075000302
BASIS def2-QZVPPD


$end




