$molecule
0 1
  C   -2.103555415   0.058475586  -0.043485058
  O   -1.883751732  -1.106252838  -0.278789624
  O   -1.136739236   0.966317874   0.143715946
  H   -0.263227262   0.524474618   0.049641950
  C   -3.475211271   0.664097252   0.075519336
  H   -4.229591786  -0.100234651  -0.074044808
  H   -3.593156474   1.119637944   1.057804962
  H   -3.593397392   1.455399998  -0.663639830
$end



$rem
N_FROZEN_CORE FC
MEM_TOTAL 3750
SCF_ALGORITHM GDM_QLS
MEM_STATIC 1500
AUX_BASIS_CORR rimp2-def2-QZVPPD
method DSD-PBEPBE-D3
GEN_SCFMAN TRUE
UNRESTRICTED True
THRESH  14
SCF_CONVERGENCE 7
SYMMETRY FALSE
SYM_IGNORE TRUE
max_scf_cycles 200

XC_GRID 000099000590
NL_GRID 000075000302
BASIS def2-QZVPPD


$end




