$molecule
0 1
  H   -1.960731059   2.301499527  -0.422289237
  H   -4.046481900  -1.420772073   0.067011469
  H   -4.075250689   1.011871411  -0.404790589
  H    0.214879094  -1.250171846   0.525146926
  H    1.169021503   0.798987904   0.134980971
  H   -1.887321494  -2.543263622   0.529340633
  C   -3.125808466  -0.856044949   0.059766974
  C   -3.138767628   0.509941491  -0.204469868
  C   -1.960717467   1.240985194  -0.216249632
  C   -0.745761890   0.606714072   0.040177222
  C   -0.725963531  -0.762387406   0.310961072
  C   -1.913533178  -1.483254679   0.317189481
  O    0.381610677   1.361006382   0.016433201
$end



$rem
N_FROZEN_CORE FC
MEM_TOTAL 7500
MEM_STATIC 3000
AUX_BASIS_CORR rimp2-def2-QZVPPD
method DSD-PBEPBE-D3
GEN_SCFMAN TRUE
UNRESTRICTED True
THRESH  14
SCF_CONVERGENCE 7
SYMMETRY FALSE
SYM_IGNORE TRUE
max_scf_cycles 200
scf_algorithm gdm

XC_GRID 000099000590
NL_GRID 000075000302
BASIS def2-QZVPPD


$end




