$molecule
0 1
  H   -3.505033785  -0.314347718  -0.538850345
  H   -3.218527027  -0.146805537   1.207687229
  H   -3.967051794   1.189345538   0.297479063
  H    0.770501498  -1.654510808   0.693862552
  H    0.495447168  -1.776992116  -1.051266264
  H   -0.348417239  -2.894371041   0.057094181
  O   -1.985578937   1.014883285  -0.010728225
  C   -0.881925748   0.279804722  -0.121840356
  O    0.189283308   0.782190086  -0.350686662
  O   -1.111148073  -1.024967638   0.042799848
  C    0.038173057  -1.889966046  -0.072382878
  C   -3.246745734   0.379681605   0.257019578
$end



$rem
N_FROZEN_CORE FC
MEM_TOTAL 3750
MEM_STATIC 1500
AUX_BASIS_CORR rimp2-def2-QZVPPD
method DSD-PBEPBE-D3
GEN_SCFMAN TRUE
UNRESTRICTED True
THRESH  14
SCF_CONVERGENCE 7
SYMMETRY FALSE
SYM_IGNORE TRUE
max_scf_cycles 200
scf_algorithm gdm

XC_GRID 000099000590
NL_GRID 000075000302
BASIS def2-QZVPPD


$end




