$molecule
0 1
  C   -2.942257651  -0.471523277  -0.001467712
  H   -1.902980775  -0.723094487  -0.069449718
  C   -4.098370664  -0.169020571   0.076821865
  H   -5.124749270   0.090823236   0.145323115
$end



$rem
N_FROZEN_CORE FC
MEM_TOTAL 3750
MEM_STATIC 1500
AUX_BASIS_CORR rimp2-def2-QZVPPD
method DSD-PBEPBE-D3
GEN_SCFMAN TRUE
UNRESTRICTED True
THRESH  14
SCF_CONVERGENCE 7
SYMMETRY FALSE
SYM_IGNORE TRUE
max_scf_cycles 200
scf_algorithm gdm

XC_GRID 000099000590
NL_GRID 000075000302
BASIS def2-QZVPPD


$end




