$molecule
0 1
  C    1.958822371   0.063448473   0.000000000
  O    1.374415430   1.134060225   0.000000000
  O    1.357670707  -1.110782181   0.000000000
  H    0.356229651  -1.021533495   0.000000000
  C    3.458528481  -0.051128874   0.000000000
  H    3.907842909   0.935707469   0.000000000
  H    3.782529378  -0.610419823  -0.876633742
  H    3.782529378  -0.610419823   0.876633742
$end



$rem
N_FROZEN_CORE FC
MEM_TOTAL 3750
SCF_ALGORITHM GDM_QLS
MEM_STATIC 1500
AUX_BASIS_CORR rimp2-def2-QZVPPD
method DSD-PBEPBE-D3
GEN_SCFMAN TRUE
UNRESTRICTED True
THRESH  14
SCF_CONVERGENCE 7
SYMMETRY FALSE
SYM_IGNORE TRUE
max_scf_cycles 200

XC_GRID 000099000590
NL_GRID 000075000302
BASIS def2-QZVPPD


$end




