$molecule
0 1
  H    3.412450110   1.633146462   0.443354018
  H    4.495858298   0.801460442  -0.708530257
  H    2.935796147   1.477871044  -1.256801988
  H    0.101488108  -1.777728758   0.023097986
  C    1.601871454  -0.300430471   0.196267249
  O    2.888968451  -0.290843350  -0.158978973
  C    3.464843317   0.997998476  -0.437379750
  C    1.083225570  -1.674656214   0.481025250
  O    0.949910183   0.720954287   0.284170818
  H    0.958253768  -1.776387108   1.559694072
  H    1.767685722  -2.439510327   0.129617666
$end



$rem
N_FROZEN_CORE FC
MEM_TOTAL 3750
MEM_STATIC 1500
AUX_BASIS_CORR rimp2-def2-QZVPPD
method DSD-PBEPBE-D3
GEN_SCFMAN TRUE
UNRESTRICTED True
THRESH  14
SCF_CONVERGENCE 7
SYMMETRY FALSE
SYM_IGNORE TRUE
max_scf_cycles 200
scf_algorithm gdm

XC_GRID 000099000590
NL_GRID 000075000302
BASIS def2-QZVPPD


$end




