$molecule
0 1
  C   -2.075337908   0.074007572   0.047491581
  O   -1.538843278   1.136948072   0.265296312
  O   -1.409896142  -1.063351731  -0.158877881
  H   -0.436366288  -0.910685476  -0.097752306
  C   -3.565718252  -0.124226161  -0.022450769
  H   -4.071912881   0.821916411   0.133743481
  H   -3.876173714  -0.842988496   0.734889600
  H   -3.837883746  -0.539552364  -0.991834701
$end



$rem
N_FROZEN_CORE FC
MEM_TOTAL 3750
SCF_ALGORITHM GDM_QLS
MEM_STATIC 1500
AUX_BASIS_CORR rimp2-def2-QZVPPD
method DSD-PBEPBE-D3
GEN_SCFMAN TRUE
UNRESTRICTED True
THRESH  14
SCF_CONVERGENCE 7
SYMMETRY FALSE
SYM_IGNORE TRUE
max_scf_cycles 200

XC_GRID 000099000590
NL_GRID 000075000302
BASIS def2-QZVPPD


$end




