$molecule
0 1
  N    2.454007545  -0.788140322  -0.020291977
  H    1.621910139  -0.523699452   0.493955136
  H    3.026729220  -1.361070326   0.585585206
  H    2.148845184  -1.370909285  -0.789125544
$end



$rem
N_FROZEN_CORE FC
MEM_TOTAL 3750
MEM_STATIC 1500
AUX_BASIS_CORR rimp2-def2-QZVPPD
method DSD-PBEPBE-D3
GEN_SCFMAN TRUE
UNRESTRICTED True
THRESH  14
SCF_CONVERGENCE 7
SYMMETRY FALSE
SYM_IGNORE TRUE
max_scf_cycles 200
scf_algorithm gdm

XC_GRID 000099000590
NL_GRID 000075000302
BASIS def2-QZVPPD


$end




