$molecule
0 1
  H    2.902878746   0.031088691   1.142152829
  H    2.584642566  -1.493880917   0.388524864
  H   -0.118497199   1.561320634   0.213641224
  H    1.465762093   1.837447797   0.991260260
  H    1.279489944   1.992623182  -0.761440133
  O    0.578808584  -0.724920980  -0.857186252
  C    1.253624586  -0.030126822  -0.115770373
  N    2.333463623  -0.532898114   0.540960901
  C    0.957926703   1.433523490   0.117543645
$end



$rem
N_FROZEN_CORE FC
MEM_TOTAL 3750
MEM_STATIC 1500
AUX_BASIS_CORR rimp2-def2-QZVPPD
method DSD-PBEPBE-D3
GEN_SCFMAN TRUE
UNRESTRICTED True
THRESH  14
SCF_CONVERGENCE 7
SYMMETRY FALSE
SYM_IGNORE TRUE
max_scf_cycles 200
scf_algorithm gdm

XC_GRID 000099000590
NL_GRID 000075000302
BASIS def2-QZVPPD


$end




