$molecule
0 1
  H    4.207745789   0.650112841  -0.887177991
  H    4.341422130  -0.908868351   0.000000000
  H    4.207745789   0.650112841   0.887177991
  C    3.928399771   0.090878234   0.000000000
  N    2.437459346  -0.017322078   0.000000000
  O    1.813341915   1.033836827   0.000000000
  O    1.941268432  -1.125693899   0.000000000
$end



$rem
N_FROZEN_CORE FC
MEM_TOTAL 3750
MEM_STATIC 1500
AUX_BASIS_CORR rimp2-def2-QZVPPD
method DSD-PBEPBE-D3
GEN_SCFMAN TRUE
UNRESTRICTED True
THRESH  14
SCF_CONVERGENCE 7
SYMMETRY FALSE
SYM_IGNORE TRUE
max_scf_cycles 200
scf_algorithm gdm

XC_GRID 000099000590
NL_GRID 000075000302
BASIS def2-QZVPPD


$end




