$molecule
0 1
  C    1.894365514  -1.396902968  -1.191293573
  H    2.396108894  -0.934666886  -2.039874594
  H    2.461801037  -2.262793991  -0.860711377
  H    0.907207643  -1.731994075  -1.507897416
  C    1.710803264  -0.457179854  -0.023876665
  O    1.429528374  -0.852511934   1.097449149
  N    1.837138950   0.867311697  -0.295188464
  H    2.103410295   1.152225076  -1.218771905
  C    1.644401456   1.872975974   0.732694923
  H    2.397748036   1.786094473   1.515243205
  H    0.665536488   1.760577654   1.195304449
  H    1.715194884   2.857658358   0.278425757
$end



$rem
N_FROZEN_CORE FC
MEM_TOTAL 3750
MEM_STATIC 1500
AUX_BASIS_CORR rimp2-def2-QZVPPD
method DSD-PBEPBE-D3
GEN_SCFMAN TRUE
UNRESTRICTED True
THRESH  14
SCF_CONVERGENCE 7
SYMMETRY FALSE
SYM_IGNORE TRUE
max_scf_cycles 200
scf_algorithm gdm

XC_GRID 000099000590
NL_GRID 000075000302
BASIS def2-QZVPPD


$end




