$molecule
0 1
  H    2.190848566   0.102262970   2.101476974
  H    4.781049352  -0.189847670   1.356298304
  H    4.781038772  -0.189880972  -1.356308378
  H    2.190832059   0.102211515  -2.101473900
  N    1.834764032   0.142562322   0.000002429
  C    2.619386493   0.053151409   1.116704968
  C    3.925979593  -0.094207494   0.710379719
  C    3.925974077  -0.094224943  -0.710385387
  C    2.619377762   0.053124018  -1.116704024
  H    0.821953406   0.246554475   0.000004589
$end



$rem
N_FROZEN_CORE FC
MEM_TOTAL 3750
MEM_STATIC 1500
AUX_BASIS_CORR rimp2-def2-QZVPPD
method DSD-PBEPBE-D3
GEN_SCFMAN TRUE
UNRESTRICTED True
THRESH  14
SCF_CONVERGENCE 7
SYMMETRY FALSE
SYM_IGNORE TRUE
max_scf_cycles 200
scf_algorithm gdm

XC_GRID 000099000590
NL_GRID 000075000302
BASIS def2-QZVPPD


$end




