$molecule
0 1
  H    3.613845760   0.112241220  -0.634274685
  H    2.452859748   1.086053083  -1.562031856
  H    3.555318206   1.878219369  -0.408492215
  H   -0.670902638  -1.651843116  -0.672282674
  H    0.425121599  -2.621566059   0.344979367
  H    0.634382090  -2.620295509  -1.428096139
  O    2.031687205   0.902214846   0.473405417
  C    1.150951374  -0.100727608   0.514140795
  O    0.349335266  -0.206233063   1.403708572
  O    1.277488636  -0.933348661  -0.524854688
  C    0.342424812  -2.032400656  -0.564741545
  C    2.969629765   0.987815712  -0.610416302
$end



$rem
N_FROZEN_CORE FC
MEM_TOTAL 3750
MEM_STATIC 1500
AUX_BASIS_CORR rimp2-def2-QZVPPD
method DSD-PBEPBE-D3
GEN_SCFMAN TRUE
UNRESTRICTED True
THRESH  14
SCF_CONVERGENCE 7
SYMMETRY FALSE
SYM_IGNORE TRUE
max_scf_cycles 200
scf_algorithm gdm

XC_GRID 000099000590
NL_GRID 000075000302
BASIS def2-QZVPPD


$end




