$molecule
0 1
  H    0.129445245  -0.804407176   0.876196783
  H   -3.950273214  -1.877162994   0.118814843
  H   -1.656767585  -2.491634641   0.834959417
  H   -2.628680392   2.144536627  -0.545861398
  H    0.832193070   1.390111041   0.084356386
  H   -4.416140832   0.460555263  -0.565644069
  H   -0.283631532   2.584146876  -0.314861870
  C   -3.163789636  -1.137198037   0.129211999
  C   -1.876325820  -1.477925187   0.528755957
  C   -0.863389172  -0.531444900   0.547245522
  C   -1.115394101   0.790025364   0.155071662
  C   -2.414219749   1.127466170  -0.243805948
  C   -3.421221897   0.174528369  -0.253126401
  N   -0.108185810   1.743640625   0.209110527
$end



$rem
N_FROZEN_CORE FC
MEM_TOTAL 7500
MEM_STATIC 3000
AUX_BASIS_CORR rimp2-def2-QZVPPD
method DSD-PBEPBE-D3
GEN_SCFMAN TRUE
UNRESTRICTED True
THRESH  14
SCF_CONVERGENCE 7
SYMMETRY FALSE
SYM_IGNORE TRUE
max_scf_cycles 200
scf_algorithm gdm

XC_GRID 000099000590
NL_GRID 000075000302
BASIS def2-QZVPPD


$end




