$molecule
0 1
  N   -2.215224378  -0.298360416  -0.514556461
  H   -1.330415481  -0.254940679  -1.005862023
  H   -2.947226756  -0.116073706  -1.187460994
  C   -2.243963812   0.684797155   0.566405837
  H   -3.189149747   0.609559802   1.103168998
  H   -2.119627517   1.727213581   0.247710700
  H   -1.449834676   0.459352366   1.277381527
  H    1.264597513  -2.555053642  -0.496712876
  H    1.370116232  -1.920119749   1.178014614
  H   -0.213125666  -2.120167395   0.350958067
  H    1.067566071   2.317091962   0.489361080
  H    1.016547610   1.688719993  -1.188870234
  H    2.572428451   1.937218520  -0.332573981
  C    0.838776070  -1.861245505   0.228225026
  N    0.893572652  -0.521142479  -0.346870830
  N    1.499869344   0.295897702   0.344043623
  C    1.529518849   1.638296928  -0.227778905
$end



$rem
N_FROZEN_CORE FC
MEM_TOTAL 7500
MEM_STATIC 3000
AUX_BASIS_CORR rimp2-def2-QZVPPD
method DSD-PBEPBE-D3
GEN_SCFMAN TRUE
UNRESTRICTED True
THRESH  14
SCF_CONVERGENCE 7
SYMMETRY FALSE
SYM_IGNORE TRUE
max_scf_cycles 200
scf_algorithm gdm

XC_GRID 000099000590
NL_GRID 000075000302
BASIS def2-QZVPPD


$end




