$molecule
0 1
  H   -2.783582757  -1.797826122  -1.302680977
  H   -4.363813842   1.628619183   0.748816989
  H   -4.702814846  -0.356131896  -0.697605792
  H   -0.183834168   0.701583163   0.985287688
  H    0.519698718  -1.130277403  -0.239025033
  H   -2.089847505   2.145587069   1.584395290
  C   -3.528320233   0.997437401   0.483692064
  C   -3.714972220  -0.117636628  -0.327826018
  C   -2.646934098  -0.931190927  -0.672041334
  C   -1.363332560  -0.640956471  -0.204190946
  C   -1.172946652   0.476801276   0.613926782
  C   -2.251843837   1.284904544   0.949647428
  O   -0.354795344  -1.461185755  -0.568765900
$end



$rem
N_FROZEN_CORE FC
MEM_TOTAL 7500
MEM_STATIC 3000
AUX_BASIS_CORR rimp2-def2-QZVPPD
method DSD-PBEPBE-D3
GEN_SCFMAN TRUE
UNRESTRICTED True
THRESH  14
SCF_CONVERGENCE 7
SYMMETRY FALSE
SYM_IGNORE TRUE
max_scf_cycles 200
scf_algorithm gdm

XC_GRID 000099000590
NL_GRID 000075000302
BASIS def2-QZVPPD


$end




