$molecule
0 1
  C    1.912545987  -0.057780332   0.000000000
  O    1.238974174  -1.078933568   0.000000000
  O    1.403277277   1.156430941   0.000000000
  H    0.402636075   1.121789389   0.000000000
  C    3.412740911  -0.073587659   0.000000000
  H    3.775203505  -1.095241731   0.000000000
  H    3.782363765   0.456370691  -0.876751219
  H    3.782363765   0.456370691   0.876751219
  H   -0.402636075  -1.121789389   0.000000000
  H   -3.782363765  -0.456370691   0.876751219
  H   -3.775203505   1.095241731   0.000000000
  H   -3.782363765  -0.456370691  -0.876751219
  O   -1.238974174   1.078933568   0.000000000
  C   -1.912545987   0.057780332   0.000000000
  O   -1.403277277  -1.156430941   0.000000000
  C   -3.412740911   0.073587659   0.000000000
$end



$rem
N_FROZEN_CORE FC
MEM_TOTAL 7500
MEM_STATIC 3000
AUX_BASIS_CORR rimp2-def2-QZVPPD
method DSD-PBEPBE-D3
GEN_SCFMAN TRUE
UNRESTRICTED True
THRESH  14
SCF_CONVERGENCE 7
SYMMETRY FALSE
SYM_IGNORE TRUE
max_scf_cycles 200
scf_algorithm gdm

XC_GRID 000099000590
NL_GRID 000075000302
BASIS def2-QZVPPD


$end




