$molecule
0 1
  H   -1.236825179  -2.144324112   0.878241575
  H   -2.490174188  -1.209948074   0.000000000
  H   -1.236825179  -2.144324112  -0.878241575
  H   -0.392750116   2.434411900  -0.876518679
  H    0.882677312   1.526902814   0.000000000
  H   -0.392750116   2.434411900   0.876518679
  C   -1.449641895  -1.534436086   0.000000000
  N   -0.524767109  -0.404410994   0.000000000
  N   -1.083166310   0.691661104   0.000000000
  C   -0.164439354   1.827480596   0.000000000
$end



$rem
N_FROZEN_CORE FC
MEM_TOTAL 3750
MEM_STATIC 1500
AUX_BASIS_CORR rimp2-def2-QZVPPD
method DSD-PBEPBE-D3
GEN_SCFMAN TRUE
UNRESTRICTED True
THRESH  14
SCF_CONVERGENCE 7
SYMMETRY FALSE
SYM_IGNORE TRUE
max_scf_cycles 200
scf_algorithm gdm

XC_GRID 000099000590
NL_GRID 000075000302
BASIS def2-QZVPPD


$end




