$molecule
0 1
  H   -2.574364806   2.111063339  -1.528101665
  H   -0.716762057   0.529910378  -1.058646141
  C   -3.981011576   0.999579004  -0.330053574
  C   -2.740218187   1.249094499  -0.899030666
  C   -1.701796760   0.364327294  -0.641263007
  N   -1.840234829  -0.716553045   0.128152290
  C   -3.035161601  -0.948825241   0.671219009
  C   -4.133178552  -0.122477184   0.472331513
  H   -3.115996000  -1.832404992   1.291759910
  H   -5.079916213  -0.355849737   0.936694608
  H   -4.812698017   1.666697939  -0.507244869
$end



$rem
N_FROZEN_CORE FC
MEM_TOTAL 3750
MEM_STATIC 1500
AUX_BASIS_CORR rimp2-def2-QZVPPD
method DSD-PBEPBE-D3
GEN_SCFMAN TRUE
UNRESTRICTED True
THRESH  14
SCF_CONVERGENCE 7
SYMMETRY FALSE
SYM_IGNORE TRUE
max_scf_cycles 200
scf_algorithm gdm

XC_GRID 000099000590
NL_GRID 000075000302
BASIS def2-QZVPPD


$end




