$molecule
0 1
  N   -2.320449217  -0.046031921  -0.642205280
  H   -1.489900949  -0.627053754  -0.660175145
  H   -2.995379544  -0.452662257  -1.275481699
  C   -2.857689061   0.020658642   0.715171772
  H   -3.730123742   0.673846404   0.734336621
  H   -3.148625650  -0.945117009   1.145268626
  H   -2.109018004   0.460614784   1.374159785
$end



$rem
N_FROZEN_CORE FC
MEM_TOTAL 3750
MEM_STATIC 1500
AUX_BASIS_CORR rimp2-def2-QZVPPD
method DSD-PBEPBE-D3
GEN_SCFMAN TRUE
UNRESTRICTED True
THRESH  14
SCF_CONVERGENCE 7
SYMMETRY FALSE
SYM_IGNORE TRUE
max_scf_cycles 200
scf_algorithm gdm

XC_GRID 000099000590
NL_GRID 000075000302
BASIS def2-QZVPPD


$end




