$molecule
0 1
  C    1.985749423   0.000000000   0.166495686
  H    0.952555545   0.000000000   0.440031524
  C    3.139871445   0.000000000  -0.150791985
  H    4.164122207   0.000000000  -0.428111631
  H   -1.228444260   2.022108279   0.372356629
  H   -1.127683027   1.229461515  -1.216115145
  H   -2.662459925   1.225955717  -0.314624756
  H   -1.228444260  -2.022108279   0.372356629
  H   -1.127683027  -1.229461515  -1.216115145
  H   -2.662459925  -1.225955717  -0.314624756
  C   -1.573104806   1.176345037  -0.216883180
  O   -1.175953433   0.000000000   0.459040484
  C   -1.573104806  -1.176345037  -0.216883180
$end



$rem
N_FROZEN_CORE FC
MEM_TOTAL 3750
MEM_STATIC 1500
AUX_BASIS_CORR rimp2-def2-QZVPPD
method DSD-PBEPBE-D3
GEN_SCFMAN TRUE
UNRESTRICTED True
THRESH  14
SCF_CONVERGENCE 7
SYMMETRY FALSE
SYM_IGNORE TRUE
max_scf_cycles 200
scf_algorithm gdm

XC_GRID 000099000590
NL_GRID 000075000302
BASIS def2-QZVPPD


$end




