$molecule
0 1
  H   -3.187408008   1.473878839  -0.417662838
  H   -0.942515438   2.396835490   0.096906731
  C   -2.517732556  -0.568827432  -0.246752513
  C   -2.358833965   0.809648260  -0.220028751
  C   -1.102068249   1.325935980   0.068099403
  N   -0.038388220   0.563899258   0.320982589
  C   -0.199344990  -0.760526441   0.293425243
  C   -1.416127791  -1.370632151   0.015102940
  H    0.687320207  -1.345965710   0.503164822
  H   -1.492395092  -2.448055826   0.005401810
  H   -3.480356522  -1.008359229  -0.467185513
$end



$rem
N_FROZEN_CORE FC
MEM_TOTAL 3750
MEM_STATIC 1500
AUX_BASIS_CORR rimp2-def2-QZVPPD
method DSD-PBEPBE-D3
GEN_SCFMAN TRUE
UNRESTRICTED True
THRESH  14
SCF_CONVERGENCE 7
SYMMETRY FALSE
SYM_IGNORE TRUE
max_scf_cycles 200
scf_algorithm gdm

XC_GRID 000099000590
NL_GRID 000075000302
BASIS def2-QZVPPD


$end




