$molecule
0 1
  N   -1.875749101  -0.527593336  -0.507110752
  H   -0.899209159  -0.392815787  -0.754977708
  H   -2.424055453  -0.415062006  -1.348985884
  C   -2.280043739   0.444347452   0.504445077
  H   -3.328104703   0.294754510   0.764568226
  H   -2.153750340   1.496594190   0.217066259
  H   -1.699713716   0.280090518   1.412986256
$end



$rem
N_FROZEN_CORE FC
MEM_TOTAL 3750
MEM_STATIC 1500
AUX_BASIS_CORR rimp2-def2-QZVPPD
method DSD-PBEPBE-D3
GEN_SCFMAN TRUE
UNRESTRICTED True
THRESH  14
SCF_CONVERGENCE 7
SYMMETRY FALSE
SYM_IGNORE TRUE
max_scf_cycles 200
scf_algorithm gdm

XC_GRID 000099000590
NL_GRID 000075000302
BASIS def2-QZVPPD


$end




