$molecule
0 1
  H   -3.959372696  -1.614398856   0.000000000
  H   -3.806679034   2.677238690   0.000000000
  H   -5.118408606   0.573828446   0.000000000
  H   -0.183877782   0.391867706   0.000000000
  H   -0.456340610  -1.926367398   0.000000000
  H   -1.330298696   2.563055300   0.000000000
  C   -3.304116829   1.721109194   0.000000000
  C   -4.037705605   0.538935869   0.000000000
  C   -3.398148147  -0.691216020   0.000000000
  C   -2.004879281  -0.752853442   0.000000000
  C   -1.263283200   0.428830113   0.000000000
  C   -1.916819462   1.654712258   0.000000000
  O   -1.430955865  -1.983180262   0.000000000
$end



$rem
N_FROZEN_CORE FC
MEM_TOTAL 7500
MEM_STATIC 3000
AUX_BASIS_CORR rimp2-def2-QZVPPD
method DSD-PBEPBE-D3
GEN_SCFMAN TRUE
UNRESTRICTED True
THRESH  14
SCF_CONVERGENCE 7
SYMMETRY FALSE
SYM_IGNORE TRUE
max_scf_cycles 200
scf_algorithm gdm

XC_GRID 000099000590
NL_GRID 000075000302
BASIS def2-QZVPPD


$end




