$molecule
0 1
  N   -2.552541320   0.014553820  -0.615264217
  H   -1.616465240  -0.376532866  -0.683394912
  H   -3.168111288  -0.538375051  -1.196012472
  C   -2.996413656  -0.000780988   0.775359844
  H   -3.979880311   0.462856578   0.857744180
  H   -3.054879006  -0.996536852   1.233583262
  H   -2.307079381   0.593965915   1.375006811
$end



$rem
N_FROZEN_CORE FC
MEM_TOTAL 3750
MEM_STATIC 1500
AUX_BASIS_CORR rimp2-def2-QZVPPD
method DSD-PBEPBE-D3
GEN_SCFMAN TRUE
UNRESTRICTED True
THRESH  14
SCF_CONVERGENCE 7
SYMMETRY FALSE
SYM_IGNORE TRUE
max_scf_cycles 200
scf_algorithm gdm

XC_GRID 000099000590
NL_GRID 000075000302
BASIS def2-QZVPPD


$end




