$molecule
0 1
  H   -2.241815177   0.663352809  -2.355844266
  H   -1.538054448  -0.923267918  -1.948680044
  H   -0.644744264   0.578005570  -1.626873856
  H   -2.865369810   1.535654243   1.290971139
  H   -3.274227081   2.064880973  -0.356968136
  C   -1.631222899   0.112784924  -1.638798042
  C   -2.236886374   0.196357070  -0.260143813
  O   -2.486423664  -0.793131783   0.394437955
  C   -2.516358260   1.583550913   0.264038325
  H   -1.614984918   2.193185925   0.202059785
$end



$rem
N_FROZEN_CORE FC
MEM_TOTAL 3750
MEM_STATIC 1500
AUX_BASIS_CORR rimp2-def2-QZVPPD
method DSD-PBEPBE-D3
GEN_SCFMAN TRUE
UNRESTRICTED True
THRESH  14
SCF_CONVERGENCE 7
SYMMETRY FALSE
SYM_IGNORE TRUE
max_scf_cycles 200
scf_algorithm gdm

XC_GRID 000099000590
NL_GRID 000075000302
BASIS def2-QZVPPD


$end




