$molecule
0 1
  H   -2.470596274   1.125458561   1.300716742
  H   -3.966221069   1.807996816   0.645375658
  H   -2.406060886   2.166218711  -0.119276884
  H   -3.400188262   0.481307889  -1.398080303
  H   -4.017950331  -1.647623196  -0.636798010
  H   -3.483574520  -1.213907743   0.986011445
  H   -4.943949939  -0.471957346   0.317435013
  C   -2.986406509   1.390918326   0.377552752
  N   -3.074126162   0.214945399  -0.479364658
  C   -3.933748046  -0.825475591   0.072034143
$end



$rem
N_FROZEN_CORE FC
MEM_TOTAL 3750
MEM_STATIC 1500
AUX_BASIS_CORR rimp2-def2-QZVPPD
method DSD-PBEPBE-D3
GEN_SCFMAN TRUE
UNRESTRICTED True
THRESH  14
SCF_CONVERGENCE 7
SYMMETRY FALSE
SYM_IGNORE TRUE
max_scf_cycles 200
scf_algorithm gdm

XC_GRID 000099000590
NL_GRID 000075000302
BASIS def2-QZVPPD


$end




