$molecule
0 1
  C   -2.498540088   0.314138598   0.003107715
  H   -1.507984959   0.715844514   0.067477482
  C   -3.597164489  -0.156447883  -0.071492992
  H   -4.574158592  -0.565069501  -0.136620036
  H    3.255927639  -0.624556519  -0.190194736
  H    3.043333134   1.092446566  -0.151831240
  H    1.532128707  -2.129170880  -0.092210121
  H   -0.013521597  -1.479948431  -0.677454532
  H    0.308821699  -1.532360946   1.044012340
  O    0.573663832   1.016367465   0.099317346
  C    1.302897850   0.042660507   0.017200771
  N    2.648205436   0.168818433  -0.120134677
  C    0.768746360  -1.371568483   0.070466017
$end



$rem
N_FROZEN_CORE FC
MEM_TOTAL 3750
MEM_STATIC 1500
AUX_BASIS_CORR rimp2-def2-QZVPPD
method DSD-PBEPBE-D3
GEN_SCFMAN TRUE
UNRESTRICTED True
THRESH  14
SCF_CONVERGENCE 7
SYMMETRY FALSE
SYM_IGNORE TRUE
max_scf_cycles 200
scf_algorithm gdm

XC_GRID 000099000590
NL_GRID 000075000302
BASIS def2-QZVPPD


$end




