$molecule
0 1
  N    2.996085791  -0.555457000   0.324906636
  H    2.141921207  -0.853106611  -0.135212830
  H    3.237976922  -1.265300107   1.004574238
  H    3.731035625  -0.551389813  -0.371000210
$end



$rem
N_FROZEN_CORE FC
MEM_TOTAL 3750
MEM_STATIC 1500
AUX_BASIS_CORR rimp2-def2-QZVPPD
method DSD-PBEPBE-D3
GEN_SCFMAN TRUE
UNRESTRICTED True
THRESH  14
SCF_CONVERGENCE 7
SYMMETRY FALSE
SYM_IGNORE TRUE
max_scf_cycles 200
scf_algorithm gdm

XC_GRID 000099000590
NL_GRID 000075000302
BASIS def2-QZVPPD


$end




