$molecule
0 1
  N    1.455090294  -0.012614797   0.000000000
  H    1.665792202   0.977769266   0.000000000
  H    1.896026280  -0.416039530  -0.816838066
  H    1.896026280  -0.416039530   0.816838066
$end



$rem
N_FROZEN_CORE FC
MEM_TOTAL 3750
MEM_STATIC 1500
AUX_BASIS_CORR rimp2-def2-QZVPPD
method DSD-PBEPBE-D3
GEN_SCFMAN TRUE
UNRESTRICTED True
THRESH  14
SCF_CONVERGENCE 7
SYMMETRY FALSE
SYM_IGNORE TRUE
max_scf_cycles 200
scf_algorithm gdm

XC_GRID 000099000590
NL_GRID 000075000302
BASIS def2-QZVPPD


$end




