$molecule
0 1
  O   -3.190759498  -0.052080461   0.234359599
  H   -4.010308467  -0.316365137   0.656477752
  C   -2.959774049  -0.868168396  -0.913485276
  H   -2.004112269  -0.560628960  -1.328190114
  H   -3.736804823  -0.728642949  -1.667819549
  H   -2.895992123  -1.925417600  -0.649322154
$end



$rem
N_FROZEN_CORE FC
MEM_TOTAL 3750
MEM_STATIC 1500
AUX_BASIS_CORR rimp2-def2-QZVPPD
method DSD-PBEPBE-D3
GEN_SCFMAN TRUE
UNRESTRICTED True
THRESH  14
SCF_CONVERGENCE 7
SYMMETRY FALSE
SYM_IGNORE TRUE
max_scf_cycles 200
scf_algorithm gdm

XC_GRID 000099000590
NL_GRID 000075000302
BASIS def2-QZVPPD


$end




