$molecule
0 1
  H    2.767015481  -1.897273929  -0.663201474
  H    1.110680379  -1.871891158  -1.324071545
  H    1.568708294  -3.092554275  -0.106534881
  H    0.730902799   2.123794631  -1.061640536
  H    2.146375720   2.485543612  -0.044078169
  H    2.371351924   2.052634249  -1.763583603
  O    1.278184043  -1.248462159   0.649803668
  C    1.261887937   0.067518240   0.505427680
  O    0.728714247   0.790757358   1.318679742
  O    1.904231620   0.487805401  -0.579152173
  C    1.775008641   1.889524020  -0.872958615
  C    1.716865007  -2.073122812  -0.445260533
$end



$rem
N_FROZEN_CORE FC
MEM_TOTAL 3750
MEM_STATIC 1500
AUX_BASIS_CORR rimp2-def2-QZVPPD
method DSD-PBEPBE-D3
GEN_SCFMAN TRUE
UNRESTRICTED True
THRESH  14
SCF_CONVERGENCE 7
SYMMETRY FALSE
SYM_IGNORE TRUE
max_scf_cycles 200
scf_algorithm gdm

XC_GRID 000099000590
NL_GRID 000075000302
BASIS def2-QZVPPD


$end




