$molecule
0 1
  N   -3.595113002  -0.074407035   0.000000000
  H   -2.719733327   0.443379929   0.000000000
  H   -4.122384425   0.215651098   0.813579457
  H   -4.122384425   0.215651098  -0.813579457
$end



$rem
N_FROZEN_CORE FC
MEM_TOTAL 3750
MEM_STATIC 1500
AUX_BASIS_CORR rimp2-def2-QZVPPD
method DSD-PBEPBE-D3
GEN_SCFMAN TRUE
UNRESTRICTED True
THRESH  14
SCF_CONVERGENCE 7
SYMMETRY FALSE
SYM_IGNORE TRUE
max_scf_cycles 200
scf_algorithm gdm

XC_GRID 000099000590
NL_GRID 000075000302
BASIS def2-QZVPPD


$end




