$molecule
0 1
  H    1.426835701   1.102796307  -1.920698854
  H    1.537378238   2.731622930  -1.189897379
  H    0.373345606   1.535184454  -0.539597075
  C    1.340880294   1.682839014  -1.006813658
  O    2.395085725   1.266287033  -0.073020712
  C    2.449171783   0.019645994   0.193110670
  N    2.531948017  -1.102685415   0.454989601
$end



$rem
N_FROZEN_CORE FC
MEM_TOTAL 3750
MEM_STATIC 1500
AUX_BASIS_CORR rimp2-def2-QZVPPD
method DSD-PBEPBE-D3
GEN_SCFMAN TRUE
UNRESTRICTED True
THRESH  14
SCF_CONVERGENCE 7
SYMMETRY FALSE
SYM_IGNORE TRUE
max_scf_cycles 200
scf_algorithm gdm

XC_GRID 000099000590
NL_GRID 000075000302
BASIS def2-QZVPPD


$end




