$molecule
0 1
  H    0.096926640  -2.102142538   0.000369967
  H    2.701604702  -1.356271212  -0.001019059
  H    2.701604693   1.356271228  -0.001019059
  H    0.096926636   2.102142541   0.000369962
  N   -0.263264501  -0.000000003   0.000889872
  C    0.526675166  -1.116677166   0.000346346
  C    1.841332580  -0.710269941  -0.000492644
  C    1.841332583   0.710269944  -0.000492644
  C    0.526675162   1.116677164   0.000346347
  H   -1.279730288  -0.000000004   0.001289280
  N   -3.312799791   0.000000000  -0.000510853
  H   -3.686752887   0.814714097   0.470363775
  H   -3.684166775   0.000000003  -0.942499068
  H   -3.686752905  -0.814714087   0.470363779
$end



$rem
N_FROZEN_CORE FC
MEM_TOTAL 3750
MEM_STATIC 1500
AUX_BASIS_CORR rimp2-def2-QZVPPD
method DSD-PBEPBE-D3
GEN_SCFMAN TRUE
UNRESTRICTED True
THRESH  14
SCF_CONVERGENCE 7
SYMMETRY FALSE
SYM_IGNORE TRUE
max_scf_cycles 200
scf_algorithm gdm

XC_GRID 000099000590
NL_GRID 000075000302
BASIS def2-QZVPPD


$end




