$molecule
0 1
  H   -3.772379435   0.360512576   0.462773268
  H   -3.137908367  -1.286051202   0.554114917
  H   -2.830858266  -0.131792698   1.867478198
  H   -0.889803167  -0.178560189   0.544678060
  H   -0.745232388   0.396166046  -1.696396523
  H   -2.482392819   0.706801586  -1.742163676
  H   -1.893942521  -0.953993264  -1.608033497
  C   -2.915174353  -0.232605951   0.786281065
  N   -1.708681574   0.263416287   0.149431163
  C   -1.706482844   0.084742526  -1.292309525
$end



$rem
N_FROZEN_CORE FC
MEM_TOTAL 3750
MEM_STATIC 1500
AUX_BASIS_CORR rimp2-def2-QZVPPD
method DSD-PBEPBE-D3
GEN_SCFMAN TRUE
UNRESTRICTED True
THRESH  14
SCF_CONVERGENCE 7
SYMMETRY FALSE
SYM_IGNORE TRUE
max_scf_cycles 200
scf_algorithm gdm

XC_GRID 000099000590
NL_GRID 000075000302
BASIS def2-QZVPPD


$end




