$molecule
0 1
  H    2.786669101   0.054919124  -2.279041156
  H    1.404372943  -0.788687558  -1.517798474
  H    1.476799803   0.972361806  -1.547420057
  H    4.389362872   0.967147955   0.988331063
  H    4.823337145   0.382180759  -0.634137707
  C    2.075122729   0.062600340  -1.455230028
  C    2.775729943   0.097998838  -0.122356622
  O    2.324445696  -0.464973491   0.856590201
  C    4.056278202   0.884757871  -0.041462418
  H    3.921736518   1.875420930  -0.477651902
$end



$rem
N_FROZEN_CORE FC
MEM_TOTAL 3750
MEM_STATIC 1500
AUX_BASIS_CORR rimp2-def2-QZVPPD
method DSD-PBEPBE-D3
GEN_SCFMAN TRUE
UNRESTRICTED True
THRESH  14
SCF_CONVERGENCE 7
SYMMETRY FALSE
SYM_IGNORE TRUE
max_scf_cycles 200
scf_algorithm gdm

XC_GRID 000099000590
NL_GRID 000075000302
BASIS def2-QZVPPD


$end




