$molecule
0 1
  H   -2.850220862  -1.055009071   0.000000000
  H   -1.176861210   1.897496805  -0.877148164
  H    0.294675165   1.409780719   0.000000000
  H   -1.176861210   1.897496805   0.877148164
  O   -0.572088408  -1.024055875   0.000000000
  C   -1.267656643  -0.039600797   0.000000000
  O   -2.616222796  -0.116391086   0.000000000
  C   -0.788946894   1.381484149   0.000000000
$end



$rem
N_FROZEN_CORE FC
MEM_TOTAL 3750
MEM_STATIC 1500
AUX_BASIS_CORR rimp2-def2-QZVPPD
method DSD-PBEPBE-D3
GEN_SCFMAN TRUE
UNRESTRICTED True
THRESH  14
SCF_CONVERGENCE 7
SYMMETRY FALSE
SYM_IGNORE TRUE
max_scf_cycles 200
scf_algorithm gdm

XC_GRID 000099000590
NL_GRID 000075000302
BASIS def2-QZVPPD


$end




