$molecule
0 1
  H    1.520823861  -1.196020415   0.177517404
  H    4.604347302   1.365633861   0.269691193
  H    4.935033959  -0.369320287   0.508157042
  H    4.137842984   0.540058419   1.778702795
  O    2.330736971   0.779407203  -0.730109352
  C    2.899301727   0.102648413   0.104621631
  O    2.394664991  -1.032414656   0.593539446
  C    4.233362368   0.441631103   0.698225819
$end



$rem
N_FROZEN_CORE FC
MEM_TOTAL 3750
MEM_STATIC 1500
AUX_BASIS_CORR rimp2-def2-QZVPPD
method DSD-PBEPBE-D3
GEN_SCFMAN TRUE
UNRESTRICTED True
THRESH  14
SCF_CONVERGENCE 7
SYMMETRY FALSE
SYM_IGNORE TRUE
max_scf_cycles 200
scf_algorithm gdm

XC_GRID 000099000590
NL_GRID 000075000302
BASIS def2-QZVPPD


$end




