$molecule
0 1
  H   -0.158841472  -0.122032381   1.994745684
  H   -2.861075246  -2.581564826  -0.249341208
  H   -1.083339881  -2.340335673   1.463269069
  H   -2.745836012   1.650635612  -0.914178666
  H    0.127531577   2.153326073   1.144972252
  H   -3.691055259  -0.558878066  -1.421046737
  H   -1.020994919   2.877208187   0.186712849
  C   -2.448616415  -1.609774968  -0.022049839
  C   -1.451370258  -1.469993765   0.937326246
  C   -0.922460474  -0.224115836   1.236463397
  C   -1.372015135   0.921868151   0.567672135
  C   -2.382674225   0.776034938  -0.390358061
  C   -2.912372675  -0.472903828  -0.675648218
  N   -0.846871658   2.167418848   0.878925961
$end



$rem
N_FROZEN_CORE FC
MEM_TOTAL 7500
MEM_STATIC 3000
AUX_BASIS_CORR rimp2-def2-QZVPPD
method DSD-PBEPBE-D3
GEN_SCFMAN TRUE
UNRESTRICTED True
THRESH  14
SCF_CONVERGENCE 7
SYMMETRY FALSE
SYM_IGNORE TRUE
max_scf_cycles 200
scf_algorithm gdm

XC_GRID 000099000590
NL_GRID 000075000302
BASIS def2-QZVPPD


$end




