$molecule
0 1
  H    3.279357810   0.961603462  -0.597353285
  H    0.217213017  -1.148883504   0.856559125
  H    1.629002201  -2.033750114   0.212033896
  H    1.777606788  -1.170797306   1.730498527
  O    1.010440632   0.925117630  -0.454360522
  C    1.734001987   0.078197496   0.008584928
  O    3.079417970   0.152358091  -0.106725753
  C    1.298153803  -1.147386756   0.752799685
$end



$rem
N_FROZEN_CORE FC
MEM_TOTAL 3750
MEM_STATIC 1500
AUX_BASIS_CORR rimp2-def2-QZVPPD
method DSD-PBEPBE-D3
GEN_SCFMAN TRUE
UNRESTRICTED True
THRESH  14
SCF_CONVERGENCE 7
SYMMETRY FALSE
SYM_IGNORE TRUE
max_scf_cycles 200
scf_algorithm gdm

XC_GRID 000099000590
NL_GRID 000075000302
BASIS def2-QZVPPD


$end




