$molecule
0 1
  O   -1.381580817   0.540266585  -0.400640626
  H   -0.453659817   0.613664390  -0.105659031
  C   -1.981236071  -0.539769485   0.280588208
  H   -3.016523899  -0.611018642  -0.049777707
  H   -1.490933710  -1.495750111   0.060514036
  H   -1.982737432  -0.398740089   1.367695104
$end



$rem
N_FROZEN_CORE FC
MEM_TOTAL 3750
MEM_STATIC 1500
AUX_BASIS_CORR rimp2-def2-QZVPPD
method DSD-PBEPBE-D3
GEN_SCFMAN TRUE
UNRESTRICTED True
THRESH  14
SCF_CONVERGENCE 7
SYMMETRY FALSE
SYM_IGNORE TRUE
max_scf_cycles 200
scf_algorithm gdm

XC_GRID 000099000590
NL_GRID 000075000302
BASIS def2-QZVPPD


$end




