$molecule
0 1
  H   -3.846646149  -1.674992807   0.000000000
  H   -1.454803454  -2.351395596   0.000000000
  C   -3.371016786   0.429145954   0.000000000
  C   -3.068861934  -0.926050004   0.000000000
  C   -1.735234863  -1.306055118   0.000000000
  N   -0.734075053  -0.425148982   0.000000000
  C   -1.024735679   0.877912953   0.000000000
  C   -2.331084428   1.347354117   0.000000000
  H   -0.171166800   1.542776752   0.000000000
  H   -2.522053727   2.410088189   0.000000000
  H   -4.399277603   0.762124300   0.000000000
$end



$rem
N_FROZEN_CORE FC
MEM_TOTAL 3750
MEM_STATIC 1500
AUX_BASIS_CORR rimp2-def2-QZVPPD
method DSD-PBEPBE-D3
GEN_SCFMAN TRUE
UNRESTRICTED True
THRESH  14
SCF_CONVERGENCE 7
SYMMETRY FALSE
SYM_IGNORE TRUE
max_scf_cycles 200
scf_algorithm gdm

XC_GRID 000099000590
NL_GRID 000075000302
BASIS def2-QZVPPD


$end




