$molecule
0 1
  C   -0.700424167  -0.088425071   0.000000000
  O   -0.200417242  -1.193476359   0.000000000
  O    0.006697308   1.042148336   0.000000000
  H    0.981157633   0.813814638   0.000000000
  C   -2.184085832   0.164587678   0.000000000
  H   -2.720405660  -0.777936826   0.000000000
  H   -2.457236611   0.750352723  -0.876794639
  H   -2.457236611   0.750352723   0.876794639
$end



$rem
N_FROZEN_CORE FC
MEM_TOTAL 3750
MEM_STATIC 1500
AUX_BASIS_CORR rimp2-def2-QZVPPD
method DSD-PBEPBE-D3
GEN_SCFMAN TRUE
UNRESTRICTED True
THRESH  14
SCF_CONVERGENCE 7
SYMMETRY FALSE
SYM_IGNORE TRUE
max_scf_cycles 200
scf_algorithm gdm

XC_GRID 000099000590
NL_GRID 000075000302
BASIS def2-QZVPPD


$end




