$molecule
0 1
  H    0.918667277  -0.815752716   2.049965546
  H    2.727006044   1.143293462   1.544323221
  H    3.027942572   1.203808967  -1.150614053
  H    1.386849133  -0.721003132  -2.128915128
  N    0.926418286  -1.037143281  -0.070971276
  C    1.312306171  -0.467950918   1.112521495
  C    2.222361095   0.523480008   0.824456792
  C    2.380487248   0.554762616  -0.588016005
  C    1.561944217  -0.418759021  -1.112615730
  H    0.189116378  -1.716302609  -0.162586749
$end



$rem
N_FROZEN_CORE FC
MEM_TOTAL 3750
MEM_STATIC 1500
AUX_BASIS_CORR rimp2-def2-QZVPPD
method DSD-PBEPBE-D3
GEN_SCFMAN TRUE
UNRESTRICTED True
THRESH  14
SCF_CONVERGENCE 7
SYMMETRY FALSE
SYM_IGNORE TRUE
max_scf_cycles 200
scf_algorithm gdm

XC_GRID 000099000590
NL_GRID 000075000302
BASIS def2-QZVPPD


$end




