$molecule
0 1
  H    2.772236733  -1.620296751   0.874575483
  H    1.223257065  -1.279068355   0.000000000
  H    2.772236733  -1.620296751  -0.874575483
  C    2.305336881  -1.162647377   0.000000000
  N    2.734732377   0.241418302   0.000000000
  O    1.838279216   1.045370777   0.000000000
$end



$rem
N_FROZEN_CORE FC
MEM_TOTAL 3750
MEM_STATIC 1500
AUX_BASIS_CORR rimp2-def2-QZVPPD
method DSD-PBEPBE-D3
GEN_SCFMAN TRUE
UNRESTRICTED True
THRESH  14
SCF_CONVERGENCE 7
SYMMETRY FALSE
SYM_IGNORE TRUE
max_scf_cycles 200
scf_algorithm gdm

XC_GRID 000099000590
NL_GRID 000075000302
BASIS def2-QZVPPD


$end




