$molecule
0 1
  H   -1.421966272  -1.093598490   1.263126162
  H   -2.872230360  -1.591722877   0.322529171
  H   -3.066977886  -0.608275472   1.800438995
  C   -2.427661039  -0.826684788   0.953955992
  O   -2.372566127   0.430843752   0.198365167
  C   -1.601016922   0.442302712  -0.820712099
  N   -0.922227560   0.505641228  -1.754031161
$end



$rem
N_FROZEN_CORE FC
MEM_TOTAL 3750
MEM_STATIC 1500
AUX_BASIS_CORR rimp2-def2-QZVPPD
method DSD-PBEPBE-D3
GEN_SCFMAN TRUE
UNRESTRICTED True
THRESH  14
SCF_CONVERGENCE 7
SYMMETRY FALSE
SYM_IGNORE TRUE
max_scf_cycles 200
scf_algorithm gdm

XC_GRID 000099000590
NL_GRID 000075000302
BASIS def2-QZVPPD


$end




