$molecule
0 1
  H   -2.486652561   1.098511774  -1.278416863
  H   -0.724688219   0.950434259  -1.251370383
  H   -1.712016863  -0.266892172  -2.081735500
  H   -1.122208145  -1.148965385   0.000000000
  H   -1.712016863  -0.266892172   2.081735500
  H   -2.486652561   1.098511774   1.278416863
  H   -0.724688219   0.950434259   1.251370383
  C   -1.668211310   0.380075321  -1.207384204
  N   -1.812145176  -0.409702860   0.000000000
  C   -1.668211310   0.380075321   1.207384204
$end



$rem
N_FROZEN_CORE FC
MEM_TOTAL 3750
MEM_STATIC 1500
AUX_BASIS_CORR rimp2-def2-QZVPPD
method DSD-PBEPBE-D3
GEN_SCFMAN TRUE
UNRESTRICTED True
THRESH  14
SCF_CONVERGENCE 7
SYMMETRY FALSE
SYM_IGNORE TRUE
max_scf_cycles 200
scf_algorithm gdm

XC_GRID 000099000590
NL_GRID 000075000302
BASIS def2-QZVPPD


$end




