$molecule
0 1
  C   -1.813551523   0.022492537  -0.000000000
  O   -1.462155012   1.183384666  -0.000000000
  O   -0.967624375  -1.003616034   0.000000000
  H   -0.008439257  -0.657019772   0.000000000
  C   -3.254391543  -0.418510872   0.000000000
  H   -3.450971311  -1.034430012   0.876712560
  H   -3.450971311  -1.034430012  -0.876712560
  H   -3.907635096   0.447269711  -0.000000000
$end



$rem
N_FROZEN_CORE FC
MEM_TOTAL 3750
MEM_STATIC 1500
AUX_BASIS_CORR rimp2-def2-QZVPPD
method DSD-PBEPBE-D3
GEN_SCFMAN TRUE
UNRESTRICTED True
THRESH  14
SCF_CONVERGENCE 7
SYMMETRY FALSE
SYM_IGNORE TRUE
max_scf_cycles 200
scf_algorithm gdm

XC_GRID 000099000590
NL_GRID 000075000302
BASIS def2-QZVPPD


$end




