$molecule
0 1
F 0.1179579568 -2.5478170875 0.0000000000
P -0.1538827856 -0.9408588595 0.0000000000
H 0.7686175786 -0.6002143338 1.0258875487
H 0.7686175786 -0.6002143338 -1.0258875487
$end


$rem
N_FROZEN_CORE FC
MEM_TOTAL 3750
MEM_STATIC 1500
AUX_BASIS_CORR rimp2-def2-QZVPPD
SCF_CONVERGENCE 7
SCF_ALGORITHM  GDM
method DSD-PBEPBE-D3
GEN_SCFMAN TRUE
UNRESTRICTED True
THRESH  14
SYMMETRY FALSE
SYM_IGNORE TRUE
max_scf_cycles 200

XC_GRID 000099000590
BASIS DEF2-QZVPPD


$end










