$molecule
0 1
F 0.0675676857 -2.5431424711 0.0000000000
P -0.1093591902 -0.9221647532 0.0000000000
H 0.8284196905 -0.6334291993 1.0277115524
H 0.8284196905 -0.6334291993 -1.0277115524
P 0.0347105753 2.2360244488 0.0000000000
H 0.9246480228 3.3395445858 0.0000000000
H -0.7805012203 2.7443074815 -1.0411471456
H -0.7805012203 2.7443074815 1.0411471456
$end


$rem
N_FROZEN_CORE FC
MEM_TOTAL 3750
MEM_STATIC 1500
AUX_BASIS_CORR rimp2-def2-QZVPPD
SCF_CONVERGENCE 7
SCF_ALGORITHM  GDM
method DSD-PBEPBE-D3
GEN_SCFMAN TRUE
UNRESTRICTED True
THRESH  14
SYMMETRY FALSE
SYM_IGNORE TRUE
max_scf_cycles 200

XC_GRID 000099000590
BASIS DEF2-QZVPPD


$end










