$molecule
0 1
P 1.2456149607 -0.2326605885 0.0169667777
F 2.7801808833 0.2701504569 0.0153550290
H 1.2858214664 -1.0761052819 -1.1156638170
H 1.3564465594 -1.2555075740 0.9868817825
$end


$rem
N_FROZEN_CORE FC
MEM_TOTAL 3750
MEM_STATIC 1500
AUX_BASIS_CORR rimp2-def2-QZVPPD
SCF_CONVERGENCE 7
SCF_ALGORITHM  GDM
method DSD-PBEPBE-D3
GEN_SCFMAN TRUE
UNRESTRICTED True
THRESH  14
SYMMETRY FALSE
SYM_IGNORE TRUE
max_scf_cycles 200

XC_GRID 000099000590
BASIS DEF2-QZVPPD


$end










