$molecule
0 1
P -0.1777516033 1.0684502142 0.0000000000
H -1.5847924558 1.2470775414 0.0000000000
F 0.1542773896 2.0434188088 -1.2086207626
F 0.1542773896 2.0434188088 1.2086207626
$end


$rem
N_FROZEN_CORE FC
MEM_TOTAL 3750
MEM_STATIC 1500
AUX_BASIS_CORR rimp2-def2-QZVPPD
SCF_CONVERGENCE 7
SCF_ALGORITHM  GDM
method DSD-PBEPBE-D3
GEN_SCFMAN TRUE
UNRESTRICTED True
THRESH  14
SYMMETRY FALSE
SYM_IGNORE TRUE
max_scf_cycles 200

XC_GRID 000099000590
BASIS DEF2-QZVPPD


$end










