$molecule
0 1
P 1.3082151022 0.1251605358 0.0000000000
F 2.9114201376 -0.1412285982 0.0000000000
H 1.2603292612 1.0786309546 1.0454398133
H 1.2603292612 1.0786309546 -1.0454398133
P -1.3082151022 -0.1251605358 0.0000000000
F -2.9114201376 0.1412285982 0.0000000000
H -1.2603292612 -1.0786309546 1.0454398133
H -1.2603292612 -1.0786309546 -1.0454398133
$end


$rem
N_FROZEN_CORE FC
MEM_TOTAL 3750
MEM_STATIC 1500
AUX_BASIS_CORR rimp2-def2-QZVPPD
SCF_CONVERGENCE 7
SCF_ALGORITHM  GDM
method DSD-PBEPBE-D3
GEN_SCFMAN TRUE
UNRESTRICTED True
THRESH  14
SYMMETRY FALSE
SYM_IGNORE TRUE
max_scf_cycles 200

XC_GRID 000099000590
BASIS DEF2-QZVPPD


$end










