$molecule
0 1
F -2.8956400467 0.2204597832 0.1521033905
S -1.3492465424 -0.2584754920 -0.1244590748
H -1.1748982649 -0.8258506420 1.0810336674
S 1.3492465424 0.2584754920 -0.1244590748
F 2.8956400467 -0.2204597832 0.1521033905
H 1.1748982649 0.8258506420 1.0810336674
$end


$rem
N_FROZEN_CORE FC
MEM_TOTAL 3750
MEM_STATIC 1500
AUX_BASIS_CORR rimp2-def2-QZVPPD
SCF_CONVERGENCE 7
SCF_ALGORITHM  GDM
method DSD-PBEPBE-D3
GEN_SCFMAN TRUE
UNRESTRICTED True
THRESH  14
SYMMETRY FALSE
SYM_IGNORE TRUE
max_scf_cycles 200

XC_GRID 000099000590
BASIS DEF2-QZVPPD


$end










