$molecule
0 1
F 0.0983280468 -1.8588742407 0.0000000000
P -0.1408947380 -0.2324924187 0.0000000000
H 0.7869526222 0.0611501133 1.0315002990
H 0.7869526222 0.0611501133 -1.0315002990
N 0.0604461079 2.4225089263 0.0000000000
H 0.9588635545 2.8955678417 0.0000000000
H -0.4480216768 2.7548196620 -0.8134336401
H -0.4480216768 2.7548196620 0.8134336401
$end


$rem
N_FROZEN_CORE FC
MEM_TOTAL 3750
MEM_STATIC 1500
AUX_BASIS_CORR rimp2-def2-QZVPPD
SCF_CONVERGENCE 7
SCF_ALGORITHM  GDM
method DSD-PBEPBE-D3
GEN_SCFMAN TRUE
UNRESTRICTED True
THRESH  14
SYMMETRY FALSE
SYM_IGNORE TRUE
max_scf_cycles 200

XC_GRID 000099000590
BASIS DEF2-QZVPPD


$end










