$molecule
0 1
P -1.3295018344 0.0690897806 -0.1434319900
F -2.9205207804 -0.1556261698 0.1160431178
H -0.8650241370 -0.4627226282 1.0904944309
H -1.2537925868 1.4073853970 0.3325945854
$end


$rem
N_FROZEN_CORE FC
MEM_TOTAL 3750
MEM_STATIC 1500
AUX_BASIS_CORR rimp2-def2-QZVPPD
SCF_CONVERGENCE 7
SCF_ALGORITHM  GDM
method DSD-PBEPBE-D3
GEN_SCFMAN TRUE
UNRESTRICTED True
THRESH  14
SYMMETRY FALSE
SYM_IGNORE TRUE
max_scf_cycles 200

XC_GRID 000099000590
BASIS DEF2-QZVPPD


$end










