$molecule
0 1
P -2.1164233468 -0.0283576082 0.0000000000
H -2.5420514765 1.3211577632 0.0000000000
H -2.9784546851 -0.4369362309 -1.0464453124
H -2.9784546851 -0.4369362309 1.0464453124
$end


$rem
N_FROZEN_CORE FC
MEM_TOTAL 3750
MEM_STATIC 1500
AUX_BASIS_CORR rimp2-def2-QZVPPD
SCF_CONVERGENCE 7
SCF_ALGORITHM  GDM
method DSD-PBEPBE-D3
GEN_SCFMAN TRUE
UNRESTRICTED True
THRESH  14
SYMMETRY FALSE
SYM_IGNORE TRUE
max_scf_cycles 200

XC_GRID 000099000590
BASIS DEF2-QZVPPD


$end










