$molecule
0 1
O -1.7272190291 0.6391918274 -0.0982946567
F -2.5862447623 -0.5128747518 -0.0099851229
H -1.9407443114 1.0381253231 0.7614142454
S 0.9283131641 0.0241297698 0.1258266631
F 2.5475918305 -0.1311940759 -0.0972037093
H 0.6319564135 0.1932212208 -1.1725051163
$end


$rem
N_FROZEN_CORE FC
MEM_TOTAL 3750
MEM_STATIC 1500
AUX_BASIS_CORR rimp2-def2-QZVPPD
SCF_CONVERGENCE 7
SCF_ALGORITHM  GDM
method DSD-PBEPBE-D3
GEN_SCFMAN TRUE
UNRESTRICTED True
THRESH  14
SYMMETRY FALSE
SYM_IGNORE TRUE
max_scf_cycles 200

XC_GRID 000099000590
BASIS DEF2-QZVPPD


$end










