$molecule
0 1
S 1.6186369244 0.1341259594 0.0000000000
O 3.0721601398 -0.2343827954 0.0000000000
H 1.3959092881 1.0964731043 -0.9581005008
H 1.3959092881 1.0964731043 0.9581005008
$end


$rem
N_FROZEN_CORE FC
MEM_TOTAL 3750
MEM_STATIC 1500
AUX_BASIS_CORR rimp2-def2-QZVPPD
SCF_CONVERGENCE 7
SCF_ALGORITHM  GDM
method DSD-PBEPBE-D3
GEN_SCFMAN TRUE
UNRESTRICTED True
THRESH  14
SYMMETRY FALSE
SYM_IGNORE TRUE
max_scf_cycles 200

XC_GRID 000099000590
BASIS DEF2-QZVPPD


$end










