$molecule
0 1
F 0.2494313898 -3.1512356921 0.0000000000
S -0.1648660718 -1.5537183774 0.0000000000
H 1.0992751722 -1.1003090907 0.0000000000
S -0.4884877100 1.2676697486 0.0000000000
F 0.3958858535 1.8454954224 -1.2036593675
F 0.3958858535 1.8454954224 1.2036593675
$end


$rem
N_FROZEN_CORE FC
MEM_TOTAL 3750
MEM_STATIC 1500
AUX_BASIS_CORR rimp2-def2-QZVPPD
SCF_CONVERGENCE 7
SCF_ALGORITHM  GDM
method DSD-PBEPBE-D3
GEN_SCFMAN TRUE
UNRESTRICTED True
THRESH  14
SYMMETRY FALSE
SYM_IGNORE TRUE
max_scf_cycles 200

XC_GRID 000099000590
BASIS DEF2-QZVPPD


$end










