$molecule
0 1
S 1.6035739564 0.1118428985 0.0000000000
O 3.0757860284 -0.1747562105 0.0000000000
H 1.3332800946 1.0654549650 -0.9563470989
H 1.3332800946 1.0654549650 0.9563470989
$end


$rem
N_FROZEN_CORE FC
MEM_TOTAL 3750
MEM_STATIC 1500
AUX_BASIS_CORR rimp2-def2-QZVPPD
SCF_CONVERGENCE 7
SCF_ALGORITHM  GDM
method DSD-PBEPBE-D3
GEN_SCFMAN TRUE
UNRESTRICTED True
THRESH  14
SYMMETRY FALSE
SYM_IGNORE TRUE
max_scf_cycles 200

XC_GRID 000099000590
BASIS DEF2-QZVPPD


$end










