$molecule
0 1
N 0.0835357121 1.3373093307 0.0000000000
F -0.0616454005 2.7625224774 0.0000000000
H 0.6946988595 1.1933705370 -0.8050893423
H 0.6946988595 1.1933705370 0.8050893423
$end


$rem
N_FROZEN_CORE FC
MEM_TOTAL 3750
MEM_STATIC 1500
AUX_BASIS_CORR rimp2-def2-QZVPPD
SCF_CONVERGENCE 7
SCF_ALGORITHM  GDM
method DSD-PBEPBE-D3
GEN_SCFMAN TRUE
UNRESTRICTED True
THRESH  14
SYMMETRY FALSE
SYM_IGNORE TRUE
max_scf_cycles 200

XC_GRID 000099000590
BASIS DEF2-QZVPPD


$end










