$molecule
0 1
F -2.5122637008 0.2637784532 0.0000000000
P -0.9411593227 -0.1891393684 0.0000000000
H -0.5083785794 0.6814839860 -1.0318716114
H -0.5083785794 0.6814839860 1.0318716114
$end


$rem
N_FROZEN_CORE FC
MEM_TOTAL 3750
MEM_STATIC 1500
AUX_BASIS_CORR rimp2-def2-QZVPPD
SCF_CONVERGENCE 7
SCF_ALGORITHM  GDM
method DSD-PBEPBE-D3
GEN_SCFMAN TRUE
UNRESTRICTED True
THRESH  14
SYMMETRY FALSE
SYM_IGNORE TRUE
max_scf_cycles 200

XC_GRID 000099000590
BASIS DEF2-QZVPPD


$end










