$molecule
0 1
BI  0.0  0.0  -1.03191358396
H  -0.718721944429  -1.24486292427  -2.05020714963
H  -0.718721944429  1.24486292427  -2.05020714963
H  1.43744388886  0.0  -2.05020714963
BR  0.0  0.0  2.88366084383
H  0.0  0.0  4.29942290643
$end


$rem
N_FROZEN_CORE FC
MEM_TOTAL 3750
MEM_STATIC 1500
AUX_BASIS_CORR rimp2-def2-QZVPPD
SCF_CONVERGENCE 7
SCF_ALGORITHM  GDM
method DSD-PBEPBE-D3
GEN_SCFMAN TRUE
UNRESTRICTED True
THRESH  14
SYMMETRY FALSE
SYM_IGNORE TRUE
max_scf_cycles 200

XC_GRID 000099000590
BASIS DEF2-QZVPPD


$end










