$molecule
0 1
SB  0.0  0.0  0.714709041568
H  0.0  0.0  -2.10600389545
BR  0.0  0.0  -3.52885946218
H  -0.699827054392  -1.21213601472  1.63998499298
H  -0.699827054392  1.21213601472  1.63998499298
H  1.39965410878  0.0  1.63998499298
$end


$rem
N_FROZEN_CORE FC
MEM_TOTAL 3750
MEM_STATIC 1500
AUX_BASIS_CORR rimp2-def2-QZVPPD
SCF_CONVERGENCE 7
SCF_ALGORITHM  GDM
method DSD-PBEPBE-D3
GEN_SCFMAN TRUE
UNRESTRICTED True
THRESH  14
SYMMETRY FALSE
SYM_IGNORE TRUE
max_scf_cycles 200

XC_GRID 000099000590
BASIS DEF2-QZVPPD


$end










