$molecule
0 2 
   P          0.00000000      0.00000000     -1.23728194
   C          0.00000000      1.39110127     -0.03366823
   C          0.00000000     -1.39110127     -0.03366823
   H          0.00000000      2.34369340     -0.56476956
   H          0.88557322      1.35146109      0.60802633
   H         -0.88557322      1.35146109      0.60802633
   H          0.00000000     -2.34369340     -0.56476956
   H          0.88557322     -1.35146109      0.60802633
   H         -0.88557322     -1.35146109      0.60802633
$end


$rem
N_FROZEN_CORE FC
MEM_TOTAL 3750
MEM_STATIC 1500
AUX_BASIS_CORR rimp2-def2-QZVPPD
SCF_CONVERGENCE 7
SCF_ALGORITHM  GDM
method DSD-PBEPBE-D3
GEN_SCFMAN TRUE
UNRESTRICTED True
THRESH  14
SYMMETRY FALSE
SYM_IGNORE TRUE
max_scf_cycles 200

XC_GRID 000099000590
BASIS DEF2-QZVPPD


$end










