$molecule
0 1 
   AS        -1.14975309      0.40381478     -1.02461596
   AS         1.14975309     -0.40381478     -1.02461596
   C         -1.38519845      0.95815602      0.85088482
   C         -1.99493705     -1.36857941     -0.86934660
   C          1.99493705      1.36857941     -0.86934660
   C          1.38519845     -0.95815602      0.85088482
   H         -0.74157234      1.81239619      1.06347521
   H         -1.16379071      0.15068874      1.54840291
   H         -2.42226938      1.27115715      0.98287094
   H         -1.81134748     -1.93237522     -1.78396417
   H         -1.61174631     -1.92861954     -0.01538425
   H         -3.07091236     -1.23270425     -0.75232291
   H          1.81134748      1.93237522     -1.78396417
   H          3.07091236      1.23270425     -0.75232291
   H          1.61174631      1.92861954     -0.01538425
   H          0.74157234     -1.81239619      1.06347521
   H          2.42226938     -1.27115715      0.98287094
   H          1.16379071     -0.15068874      1.54840291
$end


$rem
N_FROZEN_CORE FC
MEM_TOTAL 15000
MEM_STATIC 6000
AUX_BASIS_CORR rimp2-def2-QZVPPD
SCF_CONVERGENCE 7
SCF_ALGORITHM  GDM
method DSD-PBEPBE-D3
GEN_SCFMAN TRUE
UNRESTRICTED True
THRESH  14
SYMMETRY FALSE
SYM_IGNORE TRUE
max_scf_cycles 200

XC_GRID 000099000590
BASIS DEF2-QZVPPD


$end










