$molecule
0 1
SB  -0.043444277587  -1.16929171501  0.0
H  0.714563097239  -2.04845602967  1.21137402049
H  0.714563097239  -2.04845602967  -1.21137402049
H  -1.37647983249  -2.18977737331  0.0
O  0.35810890119  2.63898072088  0.0
H  0.110786320973  1.71030414957  0.0
H  -0.478097306563  3.10669627722  0.0
$end


$rem
N_FROZEN_CORE FC
MEM_TOTAL 3750
MEM_STATIC 1500
AUX_BASIS_CORR rimp2-def2-QZVPPD
SCF_CONVERGENCE 7
SCF_ALGORITHM  GDM
method DSD-PBEPBE-D3
GEN_SCFMAN TRUE
UNRESTRICTED True
THRESH  14
SYMMETRY FALSE
SYM_IGNORE TRUE
max_scf_cycles 200

XC_GRID 000099000590
BASIS DEF2-QZVPPD


$end










