$molecule
0 1
N  0.0  0.0  -0.283245038053
H  -0.468116278566  0.810801178327  0.0944171043624
H  -0.468116278566  -0.810801178327  0.0944171043624
H  0.936232557133  0.0  0.0944171043624
$end


$rem
N_FROZEN_CORE FC
MEM_TOTAL 3750
MEM_STATIC 1500
AUX_BASIS_CORR rimp2-def2-QZVPPD
SCF_CONVERGENCE 7
SCF_ALGORITHM  GDM
method DSD-PBEPBE-D3
GEN_SCFMAN TRUE
UNRESTRICTED True
THRESH  14
SYMMETRY FALSE
SYM_IGNORE TRUE
max_scf_cycles 200

XC_GRID 000099000590
BASIS DEF2-QZVPPD


$end










