$molecule
0 1 
   S         -1.02300517     -0.01199737     -0.46829089
   S          1.02300517      0.01199737     -0.46829089
   H         -1.23548206      0.93135068      0.46829089
   H          1.23548206     -0.93135068      0.46829089
$end


$rem
N_FROZEN_CORE FC
MEM_TOTAL 3750
MEM_STATIC 1500
AUX_BASIS_CORR rimp2-def2-QZVPPD
SCF_CONVERGENCE 7
SCF_ALGORITHM  GDM
method DSD-PBEPBE-D3
GEN_SCFMAN TRUE
UNRESTRICTED True
THRESH  14
SYMMETRY FALSE
SYM_IGNORE TRUE
max_scf_cycles 200

XC_GRID 000099000590
BASIS DEF2-QZVPPD


$end










