$molecule
0 1
SB  0.0  0.0  0.68123836214
H  0.0  0.0  -2.10660444156
CL  0.0  0.0  -3.38689692314
H  -0.700276672958  -1.21291477692  1.603994751
H  -0.700276672958  1.21291477692  1.603994751
H  1.40055334592  0.0  1.603994751
$end


$rem
N_FROZEN_CORE FC
MEM_TOTAL 3750
MEM_STATIC 1500
AUX_BASIS_CORR rimp2-def2-QZVPPD
SCF_CONVERGENCE 7
SCF_ALGORITHM  GDM
method DSD-PBEPBE-D3
GEN_SCFMAN TRUE
UNRESTRICTED True
THRESH  14
SYMMETRY FALSE
SYM_IGNORE TRUE
max_scf_cycles 200

XC_GRID 000099000590
BASIS DEF2-QZVPPD


$end










