$molecule
0 1
BI  0.0  0.0  -0.999930510196
H  -0.718181122995  -1.24392619407  -2.02117984811
H  -0.718181122995  1.24392619407  -2.02117984811
H  1.43636224599  0.0  -2.02117984811
CL  0.0  0.0  2.89558776022
H  0.0  0.0  4.16835966213
$end


$rem
N_FROZEN_CORE FC
MEM_TOTAL 3750
MEM_STATIC 1500
AUX_BASIS_CORR rimp2-def2-QZVPPD
SCF_CONVERGENCE 7
SCF_ALGORITHM  GDM
method DSD-PBEPBE-D3
GEN_SCFMAN TRUE
UNRESTRICTED True
THRESH  14
SYMMETRY FALSE
SYM_IGNORE TRUE
max_scf_cycles 200

XC_GRID 000099000590
BASIS DEF2-QZVPPD


$end










