$molecule
0 1
BI  2.22863501562  0.348918643325  0.0
BI  -2.22863501562  -0.348918643325  0.0
H  3.23478889058  -0.394884305911  1.24306990762
H  1.1880549002  -1.07640380474  0.0
H  3.23478889058  -0.394884305911  -1.24306990762
H  -3.23478889058  0.394884305911  -1.24306990762
H  -1.1880549002  1.07640380474  0.0
H  -3.23478889058  0.394884305911  1.24306990762
$end


$rem
N_FROZEN_CORE FC
MEM_TOTAL 3750
MEM_STATIC 1500
AUX_BASIS_CORR rimp2-def2-QZVPPD
SCF_CONVERGENCE 7
SCF_ALGORITHM  GDM
method DSD-PBEPBE-D3
GEN_SCFMAN TRUE
UNRESTRICTED True
THRESH  14
SYMMETRY FALSE
SYM_IGNORE TRUE
max_scf_cycles 200

XC_GRID 000099000590
BASIS DEF2-QZVPPD


$end










