$molecule
0 2 
   SN         0.00000000      0.00000000     -0.81878088
   C          1.00935545      1.74825492     -0.03895326
   C          1.00935545     -1.74825492     -0.03895326
   C         -2.01871090      0.00000000     -0.03895326
   H          0.98518113      1.70638378      1.05293445
   H          2.04734851      1.77005562     -0.37052712
   H          0.50923888      2.65808363     -0.37052712
   H         -2.55658739      0.88802801     -0.37052712
   H         -2.55658739     -0.88802801     -0.37052712
   H         -1.97036226      0.00000000      1.05293445
   H          0.50923888     -2.65808363     -0.37052712
   H          2.04734851     -1.77005562     -0.37052712
   H          0.98518113     -1.70638378      1.05293445
$end


$rem
N_FROZEN_CORE FC
MEM_TOTAL 3750
MEM_STATIC 1500
AUX_BASIS_CORR rimp2-def2-QZVPPD
SCF_CONVERGENCE 7
SCF_ALGORITHM  GDM
method DSD-PBEPBE-D3
GEN_SCFMAN TRUE
UNRESTRICTED True
THRESH  14
SYMMETRY FALSE
SYM_IGNORE TRUE
max_scf_cycles 200

XC_GRID 000099000590
BASIS DEF2-QZVPPD


$end










