$molecule
0 1
SB  -0.722093571303  1.88481098511  0.0
H  -0.220811227052  2.94853376349  1.2038511735
H  -0.220811227052  2.94853376349  -1.2038511735
H  0.780130417073  1.1211295838  0.0
SB  0.78997551633  -2.07613196307  0.0
H  -0.284379676227  -1.59408851681  1.20212681983
H  0.162369444459  -3.63869909921  0.0
H  -0.284379676227  -1.59408851681  -1.20212681983
$end


$rem
N_FROZEN_CORE FC
MEM_TOTAL 3750
MEM_STATIC 1500
AUX_BASIS_CORR rimp2-def2-QZVPPD
SCF_CONVERGENCE 7
SCF_ALGORITHM  GDM
method DSD-PBEPBE-D3
GEN_SCFMAN TRUE
UNRESTRICTED True
THRESH  14
SYMMETRY FALSE
SYM_IGNORE TRUE
max_scf_cycles 200

XC_GRID 000099000590
BASIS DEF2-QZVPPD


$end










