$molecule
0 1
BI  0.812208453313  1.58085653156  0.0
H  0.246123792469  2.69732390409  1.2429269607
H  0.246123792469  2.69732390409  -1.2429269607
H  -0.767798155468  0.795440445018  0.0
H  0.128290755315  -3.55424250568  0.0
S  0.321476319134  -2.23508296949  0.0
H  -0.986424957232  -1.9816193096  0.0
$end


$rem
N_FROZEN_CORE FC
MEM_TOTAL 3750
MEM_STATIC 1500
AUX_BASIS_CORR rimp2-def2-QZVPPD
SCF_CONVERGENCE 7
SCF_ALGORITHM  GDM
method DSD-PBEPBE-D3
GEN_SCFMAN TRUE
UNRESTRICTED True
THRESH  14
SYMMETRY FALSE
SYM_IGNORE TRUE
max_scf_cycles 200

XC_GRID 000099000590
BASIS DEF2-QZVPPD


$end










