$molecule
0 1 
   SB        -1.33937843      0.44597852     -1.27279684
   SB         1.33937843     -0.44597852     -1.27279684
   C         -1.40429524      1.10441871      0.83468205
   C         -2.16210130     -1.56132398     -0.84717555
   C          2.16210130      1.56132398     -0.84717555
   C          1.40429524     -1.10441871      0.83468205
   H         -0.69918639      1.91987631      1.00872018
   H         -1.16111477      0.29030616      1.51873028
   H         -2.40124532      1.47235562      1.08516843
   H         -2.02002046     -2.22909286     -1.69887295
   H         -1.69052287     -2.01612927      0.02577778
   H         -3.23450854     -1.49489801     -0.65423339
   H          2.02002046      2.22909286     -1.69887295
   H          3.23450854      1.49489801     -0.65423339
   H          1.69052287      2.01612927      0.02577778
   H          0.69918639     -1.91987631      1.00872018
   H          2.40124532     -1.47235562      1.08516843
   H          1.16111477     -0.29030616      1.51873028
$end


$rem
N_FROZEN_CORE FC
MEM_TOTAL 15000
MEM_STATIC 6000
AUX_BASIS_CORR rimp2-def2-QZVPPD
SCF_CONVERGENCE 7
SCF_ALGORITHM  GDM
method DSD-PBEPBE-D3
GEN_SCFMAN TRUE
UNRESTRICTED True
THRESH  14
SYMMETRY FALSE
SYM_IGNORE TRUE
max_scf_cycles 200

XC_GRID 000099000590
BASIS DEF2-QZVPPD


$end










