$molecule
0 1
BI  0.0  0.0  -1.05655136073
H  -0.719706297834  -1.24656787438  -2.07028895009
H  -0.719706297834  1.24656787438  -2.07028895009
H  1.43941259567  0.0  -2.07028895009
I  0.0  0.0  2.83695071652
H  0.0  0.0  4.43070009712
$end


$rem
N_FROZEN_CORE FC
MEM_TOTAL 3750
MEM_STATIC 1500
AUX_BASIS_CORR rimp2-def2-QZVPPD
SCF_CONVERGENCE 7
SCF_ALGORITHM  GDM
method DSD-PBEPBE-D3
GEN_SCFMAN TRUE
UNRESTRICTED True
THRESH  14
SYMMETRY FALSE
SYM_IGNORE TRUE
max_scf_cycles 200

XC_GRID 000099000590
BASIS DEF2-QZVPPD


$end










