$molecule
0 1
SB  -0.0397077127836  -1.34509548931  0.0
H  0.698288974867  -2.24988679783  1.20798234794
H  0.698288974867  -2.24988679783  -1.20798234794
H  -1.39193783118  -2.34188034598  0.0
H  0.80055472713  3.35842575577  0.0
S  -0.500460209572  3.07120380576  0.0
H  -0.26502692333  1.75711986944  0.0
$end


$rem
N_FROZEN_CORE FC
MEM_TOTAL 3750
MEM_STATIC 1500
AUX_BASIS_CORR rimp2-def2-QZVPPD
SCF_CONVERGENCE 7
SCF_ALGORITHM  GDM
method DSD-PBEPBE-D3
GEN_SCFMAN TRUE
UNRESTRICTED True
THRESH  14
SYMMETRY FALSE
SYM_IGNORE TRUE
max_scf_cycles 200

XC_GRID 000099000590
BASIS DEF2-QZVPPD


$end










