$molecule
0 1 
   TE        -0.10416368     -1.34162038     -1.42759098
   TE         0.10416368      1.34162038     -1.42759098
   C         -1.37146053      1.76504571      0.15805956
   C          1.37146053     -1.76504571      0.15805956
   H          2.34228535     -1.34620776     -0.10397606
   H          1.04175917     -1.34975272      1.10962314
   H          1.47226714     -2.84767091      0.26388433
   H         -2.34228535      1.34620776     -0.10397606
   H         -1.04175917      1.34975272      1.10962314
   H         -1.47226714      2.84767091      0.26388433
$end


$rem
N_FROZEN_CORE FC
MEM_TOTAL 3750
MEM_STATIC 1500
AUX_BASIS_CORR rimp2-def2-QZVPPD
SCF_CONVERGENCE 7
SCF_ALGORITHM  GDM
method DSD-PBEPBE-D3
GEN_SCFMAN TRUE
UNRESTRICTED True
THRESH  14
SYMMETRY FALSE
SYM_IGNORE TRUE
max_scf_cycles 200

XC_GRID 000099000590
BASIS DEF2-QZVPPD


$end










