$molecule
0 2 
   AS         0.00000000      0.00000000     -1.33796137
   C          0.00000000      1.45928722     -0.02141334
   C          0.00000000     -1.45928722     -0.02141334
   H          0.00000000      2.42002006     -0.53588157
   H          0.88676891      1.39419248      0.61313780
   H         -0.88676891      1.39419248      0.61313780
   H          0.00000000     -2.42002006     -0.53588157
   H          0.88676891     -1.39419248      0.61313780
   H         -0.88676891     -1.39419248      0.61313780
$end


$rem
N_FROZEN_CORE FC
MEM_TOTAL 3750
MEM_STATIC 1500
AUX_BASIS_CORR rimp2-def2-QZVPPD
SCF_CONVERGENCE 7
SCF_ALGORITHM  GDM
method DSD-PBEPBE-D3
GEN_SCFMAN TRUE
UNRESTRICTED True
THRESH  14
SYMMETRY FALSE
SYM_IGNORE TRUE
max_scf_cycles 200

XC_GRID 000099000590
BASIS DEF2-QZVPPD


$end










