$molecule
0 1
SB  0.797244287328  -1.5319905204  0.0
H  -0.345925746837  -1.31945812715  1.21267804673
H  0.528473844288  -3.20569440925  0.0
H  -0.345925746837  -1.31945812715  -1.21267804673
N  -0.0608435271633  1.57804220118  0.0
H  -0.631187118257  1.7718802232  0.811226294565
H  0.689351125734  2.25479853635  0.0
H  -0.631187118257  1.7718802232  -0.811226294565
$end


$rem
N_FROZEN_CORE FC
MEM_TOTAL 3750
MEM_STATIC 1500
AUX_BASIS_CORR rimp2-def2-QZVPPD
SCF_CONVERGENCE 7
SCF_ALGORITHM  GDM
method DSD-PBEPBE-D3
GEN_SCFMAN TRUE
UNRESTRICTED True
THRESH  14
SYMMETRY FALSE
SYM_IGNORE TRUE
max_scf_cycles 200

XC_GRID 000099000590
BASIS DEF2-QZVPPD


$end










