$molecule
0 1 
   GE         0.00000000      0.00000000     -1.21125710
   GE         0.00000000      0.00000000      1.21125710
   H          1.24828526      0.72069783     -1.74507297
   H          0.00000000     -1.44139566     -1.74507297
   H         -1.24828526      0.72069783     -1.74507297
   H          1.24828526     -0.72069783      1.74507297
   H          0.00000000      1.44139566      1.74507297
   H         -1.24828526     -0.72069783      1.74507297
$end


$rem
N_FROZEN_CORE FC
MEM_TOTAL 3750
MEM_STATIC 1500
AUX_BASIS_CORR rimp2-def2-QZVPPD
SCF_CONVERGENCE 7
SCF_ALGORITHM  GDM
method DSD-PBEPBE-D3
GEN_SCFMAN TRUE
UNRESTRICTED True
THRESH  14
SYMMETRY FALSE
SYM_IGNORE TRUE
max_scf_cycles 200

XC_GRID 000099000590
BASIS DEF2-QZVPPD


$end










