$molecule
0 1 
   P         -1.04057619      0.34984614     -0.90324384
   P          1.04057619     -0.34984614     -0.90324384
   C         -1.35876352      0.92644365      0.81974065
   C         -1.88527284     -1.28746419     -0.85101663
   C          1.88527284      1.28746419     -0.85101663
   C          1.35876352     -0.92644365      0.81974065
   H         -0.74557881      1.80337200      1.03531097
   H         -1.16549421      0.15934320      1.57227073
   H         -2.40523286      1.23173486      0.89326870
   H         -1.66697004     -1.83169100     -1.77086847
   H         -1.58353492     -1.89806548      0.00349968
   H         -2.96413010     -1.12639440     -0.79896179
   H          1.66697004      1.83169100     -1.77086847
   H          2.96413010      1.12639440     -0.79896179
   H          1.58353492      1.89806548      0.00349968
   H          0.74557881     -1.80337200      1.03531097
   H          2.40523286     -1.23173486      0.89326870
   H          1.16549421     -0.15934320      1.57227073
$end


$rem
N_FROZEN_CORE FC
MEM_TOTAL 7500
MEM_STATIC 3000
AUX_BASIS_CORR rimp2-def2-QZVPPD
SCF_CONVERGENCE 7
SCF_ALGORITHM  GDM
method DSD-PBEPBE-D3
GEN_SCFMAN TRUE
UNRESTRICTED True
THRESH  14
SYMMETRY FALSE
SYM_IGNORE TRUE
max_scf_cycles 200

XC_GRID 000099000590
BASIS DEF2-QZVPPD


$end










