$molecule
0 1
PB  0.0  0.0  -2.63536506438
H  0.812191812077  -1.40675748401  -3.20836348016
H  0.812191812077  1.40675748401  -3.20836348016
H  -1.62438362415  0.0  -3.20836348016
H  0.0  0.0  -0.911057712445
BI  0.0  0.0  2.52611194469
H  1.43618946811  0.0  3.54896969556
H  -0.718094734056  1.24377656403  3.54896969556
H  -0.718094734056  -1.24377656403  3.54896969556
$end


$rem
N_FROZEN_CORE FC
MEM_TOTAL 3750
MEM_STATIC 1500
AUX_BASIS_CORR rimp2-def2-QZVPPD
SCF_CONVERGENCE 7
SCF_ALGORITHM  GDM
method DSD-PBEPBE-D3
GEN_SCFMAN TRUE
UNRESTRICTED True
THRESH  14
SYMMETRY FALSE
SYM_IGNORE TRUE
max_scf_cycles 200

XC_GRID 000099000590
BASIS DEF2-QZVPPD


$end










