$molecule
0 1
BI  0.0  0.0  -1.78837893144
H  -0.715983713592  -1.24012016933  -2.82446295921
H  -0.715983713592  1.24012016933  -2.82446295921
H  1.43196742718  0.0  -2.82446295921
N  0.0  0.0  2.28026884789
H  -0.93568120034  0.0  2.66065872006
H  0.46784060017  -0.810323689338  2.66065872006
H  0.46784060017  0.810323689338  2.66065872006
$end


$rem
N_FROZEN_CORE FC
MEM_TOTAL 3750
MEM_STATIC 1500
AUX_BASIS_CORR rimp2-def2-QZVPPD
SCF_CONVERGENCE 7
SCF_ALGORITHM  GDM
method DSD-PBEPBE-D3
GEN_SCFMAN TRUE
UNRESTRICTED True
THRESH  14
SYMMETRY FALSE
SYM_IGNORE TRUE
max_scf_cycles 200

XC_GRID 000099000590
BASIS DEF2-QZVPPD


$end










