$molecule
0 1 
   SN         0.00000000      0.00000000     -1.38556194
   SN         0.00000000      0.00000000      1.38556194
   C          1.76838854     -1.02097960     -2.17248271
   C          0.00000000      2.04195920     -2.17248271
   C         -1.76838854     -1.02097960     -2.17248271
   C          1.76838854      1.02097960      2.17248271
   C          0.00000000     -2.04195920      2.17248271
   C         -1.76838854      1.02097960      2.17248271
   H          1.76822471     -1.02088501     -3.26439100
   H          2.68892699     -0.53574799     -1.84291802
   H          1.80843487     -2.06080508     -1.84291802
   H          0.00000000     -2.04177003      3.26439100
   H         -0.88049212     -2.59655308      1.84291802
   H          0.88049212     -2.59655308      1.84291802
   H         -1.76822471      1.02088501      3.26439100
   H         -1.80843487      2.06080508      1.84291802
   H         -2.68892699      0.53574799      1.84291802
   H         -1.80843487     -2.06080508     -1.84291802
   H         -2.68892699     -0.53574799     -1.84291802
   H         -1.76822471     -1.02088501     -3.26439100
   H          1.76822471      1.02088501      3.26439100
   H          2.68892699      0.53574799      1.84291802
   H          1.80843487      2.06080508      1.84291802
   H         -0.88049212      2.59655308     -1.84291802
   H          0.88049212      2.59655308     -1.84291802
   H          0.00000000      2.04177003     -3.26439100
$end


$rem
N_FROZEN_CORE FC
MEM_TOTAL 30000
MEM_STATIC 8000
AUX_BASIS_CORR rimp2-def2-QZVPPD
SCF_CONVERGENCE 7
SCF_ALGORITHM  GDM
method DSD-PBEPBE-D3
GEN_SCFMAN TRUE
UNRESTRICTED True
THRESH  14
SYMMETRY FALSE
SYM_IGNORE TRUE
max_scf_cycles 200

XC_GRID 000099000590
BASIS DEF2-QZVPPD


$end










