$molecule
0 2 
   TE        -1.88552410     -0.36392563      0.00000000
   C          0.21505371      0.02501088      0.00000000
   H          0.67020122     -0.38555597      0.89706639
   H          0.67020122     -0.38555597     -0.89706639
   H          0.33006795      1.11002669      0.00000000
$end


$rem
N_FROZEN_CORE FC
MEM_TOTAL 3750
MEM_STATIC 1500
AUX_BASIS_CORR rimp2-def2-QZVPPD
SCF_CONVERGENCE 7
SCF_ALGORITHM  GDM
method DSD-PBEPBE-D3
GEN_SCFMAN TRUE
UNRESTRICTED True
THRESH  14
SYMMETRY FALSE
SYM_IGNORE TRUE
max_scf_cycles 200

XC_GRID 000099000590
BASIS DEF2-QZVPPD


$end










