$molecule
0 1 
   PB         0.00000000      0.00000000      1.43749842
   PB         0.00000000      0.00000000     -1.43749842
   C          1.79821215      1.03819827      2.26869728
   C          0.00000000     -2.07639654      2.26869728
   C         -1.79821215      1.03819827      2.26869728
   C          1.79821215     -1.03819827     -2.26869728
   C          0.00000000      2.07639654     -2.26869728
   C         -1.79821215     -1.03819827     -2.26869728
   H          1.74634800      1.00825449      3.35718999
   H          2.70027335      0.53041629      1.92961075
   H          1.80949065      2.07329717      1.92961075
   H          0.00000000      2.01650898     -3.35718999
   H         -0.89078269      2.60371346     -1.92961075
   H          0.89078269      2.60371346     -1.92961075
   H         -1.74634800     -1.00825449     -3.35718999
   H         -1.80949065     -2.07329717     -1.92961075
   H         -2.70027335     -0.53041629     -1.92961075
   H         -1.80949065      2.07329717      1.92961075
   H         -2.70027335      0.53041629      1.92961075
   H         -1.74634800      1.00825449      3.35718999
   H          1.74634800     -1.00825449     -3.35718999
   H          2.70027335     -0.53041629     -1.92961075
   H          1.80949065     -2.07329717     -1.92961075
   H         -0.89078269     -2.60371346      1.92961075
   H          0.89078269     -2.60371346      1.92961075
   H          0.00000000     -2.01650898      3.35718999
$end


$rem
N_FROZEN_CORE FC
MEM_TOTAL 30000
MEM_STATIC 8000
AUX_BASIS_CORR rimp2-def2-QZVPPD
SCF_CONVERGENCE 7
SCF_ALGORITHM  GDM
method DSD-PBEPBE-D3
GEN_SCFMAN TRUE
UNRESTRICTED True
THRESH  14
SYMMETRY FALSE
SYM_IGNORE TRUE
max_scf_cycles 200

XC_GRID 000099000590
BASIS DEF2-QZVPPD


$end










