$molecule
0 1
SB  0.0  0.0  0.754331402778
H  0.0  0.0  -2.10346132189
I  0.0  0.0  -3.70234096006
H  -0.699093924969  -1.21086619731  1.68361283032
H  -0.699093924969  1.21086619731  1.68361283032
H  1.39818784994  0.0  1.68361283032
$end


$rem
N_FROZEN_CORE FC
MEM_TOTAL 3750
MEM_STATIC 1500
AUX_BASIS_CORR rimp2-def2-QZVPPD
SCF_CONVERGENCE 7
SCF_ALGORITHM  GDM
method DSD-PBEPBE-D3
GEN_SCFMAN TRUE
UNRESTRICTED True
THRESH  14
SYMMETRY FALSE
SYM_IGNORE TRUE
max_scf_cycles 200

XC_GRID 000099000590
BASIS DEF2-QZVPPD


$end










