$molecule
0 2 
   PB         0.00000000      0.00000000     -0.89598774
   C          1.04599722      1.81172033     -0.03444459
   C          1.04599722     -1.81172033     -0.03444459
   C         -2.09199444      0.00000000     -0.03444459
   H          0.99493455      1.72327720      1.05244521
   H          2.08477979      1.82447397     -0.35966902
   H          0.53765091      2.71770924     -0.35966902
   H         -2.62243070      0.89323528     -0.35966902
   H         -2.62243070     -0.89323528     -0.35966902
   H         -1.98986911      0.00000000      1.05244521
   H          0.53765091     -2.71770924     -0.35966902
   H          2.08477979     -1.82447397     -0.35966902
   H          0.99493455     -1.72327720      1.05244521
$end


$rem
N_FROZEN_CORE FC
MEM_TOTAL 3750
MEM_STATIC 1500
AUX_BASIS_CORR rimp2-def2-QZVPPD
SCF_CONVERGENCE 7
SCF_ALGORITHM  GDM
method DSD-PBEPBE-D3
GEN_SCFMAN TRUE
UNRESTRICTED True
THRESH  14
SYMMETRY FALSE
SYM_IGNORE TRUE
max_scf_cycles 200

XC_GRID 000099000590
BASIS DEF2-QZVPPD


$end










