$molecule
0 1
TE  0.852186042563  -1.6337060798  0.0
H  0.889520099615  -3.27710349945  0.0
H  -0.77666747719  -1.67466030513  0.0
N  -0.174753824911  1.37089818118  0.0
H  -0.718273810161  1.62733435948  -0.812259571169
H  -0.718273810161  1.62733435948  0.812259571169
H  0.646262780245  1.95990298425  0.0
$end


$rem
N_FROZEN_CORE FC
MEM_TOTAL 3750
MEM_STATIC 1500
AUX_BASIS_CORR rimp2-def2-QZVPPD
SCF_CONVERGENCE 7
SCF_ALGORITHM  GDM
method DSD-PBEPBE-D3
GEN_SCFMAN TRUE
UNRESTRICTED True
THRESH  14
SYMMETRY FALSE
SYM_IGNORE TRUE
max_scf_cycles 200

XC_GRID 000099000590
BASIS DEF2-QZVPPD


$end










