$molecule
0 1
SB  0.0  0.0  -0.709625951
H  -0.695221112742  -1.20415828976  0.236547116001
H  -0.695221112742  1.20415828976  0.236547116001
H  1.39044222548  0.0  0.236547116001
$end


$rem
N_FROZEN_CORE FC
MEM_TOTAL 3750
MEM_STATIC 1500
AUX_BASIS_CORR rimp2-def2-QZVPPD
SCF_CONVERGENCE 7
SCF_ALGORITHM  GDM
method DSD-PBEPBE-D3
GEN_SCFMAN TRUE
UNRESTRICTED True
THRESH  14
SYMMETRY FALSE
SYM_IGNORE TRUE
max_scf_cycles 200

XC_GRID 000099000590
BASIS DEF2-QZVPPD


$end










