$molecule
0 2 
   SB         0.00000000      0.00000000     -1.48798718
   C          0.00000000      1.57249924     -0.00586473
   C          0.00000000     -1.57249924     -0.00586473
   H          0.00000000      2.54639293     -0.49456005
   H          0.88804758      1.48501362      0.62220918
   H         -0.88804758      1.48501362      0.62220918
   H          0.00000000     -2.54639293     -0.49456005
   H          0.88804758     -1.48501362      0.62220918
   H         -0.88804758     -1.48501362      0.62220918
$end


$rem
N_FROZEN_CORE FC
MEM_TOTAL 3750
MEM_STATIC 1500
AUX_BASIS_CORR rimp2-def2-QZVPPD
SCF_CONVERGENCE 7
SCF_ALGORITHM  GDM
method DSD-PBEPBE-D3
GEN_SCFMAN TRUE
UNRESTRICTED True
THRESH  14
SYMMETRY FALSE
SYM_IGNORE TRUE
max_scf_cycles 200

XC_GRID 000099000590
BASIS DEF2-QZVPPD


$end










