$molecule
0 1 
   SE        -1.16279769     -0.01650541     -0.51675339
   SE         1.16279769      0.01650541     -0.51675339
   H         -1.34411166      1.01683049      0.51675339
   H          1.34411166     -1.01683049      0.51675339
$end


$rem
N_FROZEN_CORE FC
MEM_TOTAL 3750
MEM_STATIC 1500
AUX_BASIS_CORR rimp2-def2-QZVPPD
SCF_CONVERGENCE 7
SCF_ALGORITHM  GDM
method DSD-PBEPBE-D3
GEN_SCFMAN TRUE
UNRESTRICTED True
THRESH  14
SYMMETRY FALSE
SYM_IGNORE TRUE
max_scf_cycles 200

XC_GRID 000099000590
BASIS DEF2-QZVPPD


$end










