$molecule
0 1
O  0.95045418 -0.16625563 -0.01472215
C  2.15587076 -0.10550064  0.03048498
O  2.96328449 -0.9420262  -0.64595025
C  2.27013084 -1.91763892 -1.42969707
C  2.95495505  0.87845305  0.82036831
H  3.04089399 -2.50775638 -1.90751692
H  1.64449762 -1.4305287  -2.17009547
H  1.64883088 -2.53929854 -0.79376635
H  2.2856959   1.5397438   1.35504465
H  3.59190447  1.45065659  0.15274145
H  3.59629182  0.35022157  1.51930881
$end


$rem
N_FROZEN_CORE FC
MEM_TOTAL 7500
MEM_STATIC 3000
AUX_BASIS_CORR rimp2-def2-QZVPPD
SCF_CONVERGENCE 7
SCF_ALGORITHM  GDM
method DSD-PBEPBE-D3
GEN_SCFMAN TRUE
UNRESTRICTED True
THRESH  14
SYMMETRY FALSE
SYM_IGNORE TRUE
max_scf_cycles 200

XC_GRID 000099000590
BASIS AUG-PC-3


$end





$multipole_field
X -0.004
Y 0.0
Z 0.0
$end




