$molecule
0 1
F  2.14903846 -0.01539399 -0.00189132
C  0.80245371 -0.00678492 -0.00114258
C  0.14525078  1.20692726 -0.00114949
C  -1.24244568  1.20754796 -0.00069725
C  -1.94575327  0.01078573 -0.00048836
C  -1.25780565 -1.19487131 -0.00077994
C  0.12978557 -1.21199454 -0.00101923
H  0.71584031  2.12051875 -0.00141496
H  -1.7721232   2.14697096 -0.00059739
H  -3.02360544  0.01767763 -0.00018429
H  -1.79945077 -2.1274454  -0.00063595
H  0.68864518 -2.13280813 -0.00122924
$end


$rem
N_FROZEN_CORE FC
MEM_TOTAL 15000
MEM_STATIC 6000
AUX_BASIS_CORR rimp2-def2-QZVPPD
SCF_CONVERGENCE 7
SCF_ALGORITHM  GDM
method DSD-PBEPBE-D3
GEN_SCFMAN TRUE
UNRESTRICTED True
THRESH  14
SYMMETRY FALSE
SYM_IGNORE TRUE
max_scf_cycles 200

XC_GRID 000099000590
BASIS AUG-PC-3


$end





$multipole_field
X 0.0
Y 0.0
Z -0.004
$end




