$molecule
0 1
C  1.0086231  -0.02939205  0.09253605
F  2.39340893 -0.02939099  0.09253419
H  0.66071725  0.29165663  1.06853341
H  0.66071645 -1.03515486 -0.11742525
H  0.66071427  0.65532128 -0.67349839
$end


$rem
N_FROZEN_CORE FC
MEM_TOTAL 3750
MEM_STATIC 1500
AUX_BASIS_CORR rimp2-def2-QZVPPD
SCF_CONVERGENCE 7
SCF_ALGORITHM  GDM
method DSD-PBEPBE-D3
GEN_SCFMAN TRUE
UNRESTRICTED True
THRESH  14
SYMMETRY FALSE
SYM_IGNORE TRUE
max_scf_cycles 200

XC_GRID 000099000590
BASIS AUG-PC-3


$end





$multipole_field
X 0.0
Y 0.004
Z 0.0
$end




