$molecule
0 1
N  1.20240823 -0.06704291 -0.00088958
C  2.36697681 -0.06704126 -0.00088332
C  3.81582004 -0.06703932 -0.00087572
H  4.18773462  0.6257631  -0.74820966
H  4.18773412 -1.06065165 -0.22718993
H  4.18772619  0.23377205  0.97277822
$end


$rem
N_FROZEN_CORE FC
MEM_TOTAL 3750
MEM_STATIC 1500
AUX_BASIS_CORR rimp2-def2-QZVPPD
SCF_CONVERGENCE 7
SCF_ALGORITHM  GDM
method DSD-PBEPBE-D3
GEN_SCFMAN TRUE
UNRESTRICTED True
THRESH  14
SYMMETRY FALSE
SYM_IGNORE TRUE
max_scf_cycles 200

XC_GRID 000099000590
BASIS AUG-PC-3


$end





$multipole_field
X -0.004
Y 0.0
Z 0.0
$end




