$molecule
0 1
C  1.07495083 -0.07384216 -0.00702766
C  2.59194309 -0.04826719 -0.02946002
C  3.12938451  1.01928861 -0.96428854
H  0.69571966 -0.84061413  0.66441512
H  0.6793117  -0.27227335 -1.00156822
H  0.6793442   0.88581268  0.32095744
H  2.96832001 -1.02374527 -0.3356292
H  2.96835227  0.12644752  0.97788678
H  2.78415503  0.84768503 -1.98231852
H  4.21670492  1.03284119 -0.97618782
H  2.78419378  2.00576708 -0.65978936
$end


$rem
N_FROZEN_CORE FC
MEM_TOTAL 7500
MEM_STATIC 3000
AUX_BASIS_CORR rimp2-def2-QZVPPD
SCF_CONVERGENCE 7
SCF_ALGORITHM  GDM
method DSD-PBEPBE-D3
GEN_SCFMAN TRUE
UNRESTRICTED True
THRESH  14
SYMMETRY FALSE
SYM_IGNORE TRUE
max_scf_cycles 200

XC_GRID 000099000590
BASIS AUG-PC-3


$end





$multipole_field
X -0.004
Y 0.0
Z 0.0
$end




