$molecule
0 1
O  2.76955048 -0.58923815 -0.81058585
C  2.23194066  0.11774678  0.00179064
O  2.85490749  0.89296103  0.89265344
C  4.28541489  0.83272777  0.8226615
H  1.15462343  0.22497014  0.12524013
H  4.64284177  1.50263483  1.5927712
H  4.62542789  1.15385421 -0.15597918
H  4.62602338 -0.18082661  1.00476811
$end


$rem
N_FROZEN_CORE FC
MEM_TOTAL 3750
MEM_STATIC 1500
AUX_BASIS_CORR rimp2-def2-QZVPPD
SCF_CONVERGENCE 7
SCF_ALGORITHM  GDM
method DSD-PBEPBE-D3
GEN_SCFMAN TRUE
UNRESTRICTED True
THRESH  14
SYMMETRY FALSE
SYM_IGNORE TRUE
max_scf_cycles 200

XC_GRID 000099000590
BASIS AUG-PC-3


$end





$multipole_field
X 0.0
Y 0.0
Z -0.004
$end




