$molecule
0 1
O  1.02303542 -0.07485048 -0.09622962
C  2.23195484 -0.01129234 -0.07201421
C  3.00798813  1.17866229  0.38095287
H  2.83658093 -0.87119086 -0.39938203
H  2.34259313  1.9782107   0.68531409
H  3.65478025  1.51425458 -0.42788516
H  3.65478731  0.89145611  1.20820406
$end


$rem
N_FROZEN_CORE FC
MEM_TOTAL 3750
MEM_STATIC 1500
AUX_BASIS_CORR rimp2-def2-QZVPPD
SCF_CONVERGENCE 7
SCF_ALGORITHM  GDM
method DSD-PBEPBE-D3
GEN_SCFMAN TRUE
UNRESTRICTED True
THRESH  14
SYMMETRY FALSE
SYM_IGNORE TRUE
max_scf_cycles 200

XC_GRID 000099000590
BASIS AUG-PC-3


$end





$multipole_field
X 0.0
Y -0.004
Z 0.0
$end




