$molecule
0 1
C  -0.32116264  1.04508104  0.0050153
N  -1.16963138  0.03840734  0.00486654
C  -0.39441468 -1.08749027  0.00272132
C  0.93714631 -0.75800292  0.00114513
N  0.96382872  0.60780198  0.00285092
H  -0.57627613  2.08732739  0.00639821
H  -0.82650572 -2.06914707  0.00218499
H  1.8297864  -1.35084928 -0.00083165
H  1.78493912  1.18454178  0.00242924
$end


$rem
N_FROZEN_CORE FC
MEM_TOTAL 7500
MEM_STATIC 3000
AUX_BASIS_CORR rimp2-def2-QZVPPD
SCF_CONVERGENCE 7
SCF_ALGORITHM  GDM
method DSD-PBEPBE-D3
GEN_SCFMAN TRUE
UNRESTRICTED True
THRESH  14
SYMMETRY FALSE
SYM_IGNORE TRUE
max_scf_cycles 200

XC_GRID 000099000590
BASIS AUG-PC-3


$end





$multipole_field
X -0.004
Y 0.0
Z 0.0
$end




