$molecule
0 1
O  -0.6275657   1.20221791 -0.00003863
C  -0.08603043  0.12473904  0.00036566
O  -0.77736083 -1.03736801  0.00005887
C  1.38431026 -0.12210636  0.00001754
H  -1.71290553 -0.7910214  -0.00023296
H  1.91073463  0.82275887 -0.00007848
H  1.65443871 -0.70268604 -0.8768827
H  1.6545569  -0.70266001  0.8768707
$end


$rem
N_FROZEN_CORE FC
MEM_TOTAL 3750
MEM_STATIC 1500
AUX_BASIS_CORR rimp2-def2-QZVPPD
SCF_CONVERGENCE 7
SCF_ALGORITHM  GDM
method DSD-PBEPBE-D3
GEN_SCFMAN TRUE
UNRESTRICTED True
THRESH  14
SYMMETRY FALSE
SYM_IGNORE TRUE
max_scf_cycles 200

XC_GRID 000099000590
BASIS AUG-PC-3


$end





$multipole_field
X 0.0
Y 0.0
Z -0.004
$end




