$molecule
0 1
C  1.42111901  0.6104868  -0.82069441
C  2.26292821  0.09848395  0.07340864
C  3.04493209  0.89150453  1.05890662
C  4.54658183  0.73859011  0.8598976
C  5.34164376  1.51736388  1.8903788
H  0.89488269 -0.01634355 -1.52271948
H  1.24165299  1.67453446 -0.86596352
H  2.417889   -0.9736459   0.08667459
H  2.79365086  0.57075536  2.07258667
H  2.77104922  1.94494886  0.97932091
H  4.80339147  1.07406906 -0.14487767
H  4.8065565  -0.31942531  0.91258048
H  5.10484073  2.57839159  1.83776426
H  6.41224074  1.40435196  1.73764321
H  5.1076909   1.1743242   2.8965633
$end


$rem
N_FROZEN_CORE FC
MEM_TOTAL 15000
MEM_STATIC 6000
AUX_BASIS_CORR rimp2-def2-QZVPPD
SCF_CONVERGENCE 7
SCF_ALGORITHM  GDM
method DSD-PBEPBE-D3
GEN_SCFMAN TRUE
UNRESTRICTED True
THRESH  14
SYMMETRY FALSE
SYM_IGNORE TRUE
max_scf_cycles 200

XC_GRID 000099000590
BASIS AUG-PC-3


$end





$multipole_field
X 0.0
Y -0.004
Z 0.0
$end




