$molecule
0 1
C  0.10761959  1.23139428 -0.0048569
C  1.37677543  0.71040094  0.00135506
C  1.38126564 -0.6963471   0.00116129
C  0.11546025 -1.22543002 -0.00492785
S  -1.07151429 -0.00079329 -0.01095225
H  -0.18618551  2.26388671 -0.00626019
H  2.26184419  1.32247177  0.00571211
H  2.27022343 -1.30275667  0.0053927
H  -0.17174873 -2.25977663 -0.00639397
$end


$rem
N_FROZEN_CORE FC
MEM_TOTAL 7500
MEM_STATIC 3000
AUX_BASIS_CORR rimp2-def2-QZVPPD
SCF_CONVERGENCE 7
SCF_ALGORITHM  GDM
method DSD-PBEPBE-D3
GEN_SCFMAN TRUE
UNRESTRICTED True
THRESH  14
SYMMETRY FALSE
SYM_IGNORE TRUE
max_scf_cycles 200

XC_GRID 000099000590
BASIS AUG-PC-3


$end





$multipole_field
X 0.0
Y -0.004
Z 0.0
$end




