$molecule
0 1
C  0.92604603 -0.0605547   0.0270454
O  2.33235556 -0.06921654  0.01275899
C  2.81687497 -0.75375569 -1.11623736
H  0.6115237   0.47750951  0.91446365
H  0.52631488 -1.07718219  0.0617459
H  0.52631447  0.44028485 -0.85833304
H  3.90016096 -0.72814506 -1.07399878
H  2.48114951 -0.27638157 -2.04031686
H  2.48114993 -1.7938486  -1.1202379
$end


$rem
N_FROZEN_CORE FC
MEM_TOTAL 3750
MEM_STATIC 1500
AUX_BASIS_CORR rimp2-def2-QZVPPD
SCF_CONVERGENCE 7
SCF_ALGORITHM  GDM
method DSD-PBEPBE-D3
GEN_SCFMAN TRUE
UNRESTRICTED True
THRESH  14
SYMMETRY FALSE
SYM_IGNORE TRUE
max_scf_cycles 200

XC_GRID 000099000590
BASIS AUG-PC-3


$end





$multipole_field
X 0.004
Y 0.0
Z 0.0
$end




