$molecule
0 1
C  -0.19694782  1.09336665 -0.00507341
C  1.08334475  0.63545111  0.00521764
C  0.99692619 -0.78064084  0.00578179
C  -0.32954879 -1.07948322 -0.00418215
O  -1.06853634  0.056083   -0.01074216
H  -0.63418614  2.07219634 -0.00930222
H  1.96972313  1.23902355  0.01151652
H  1.80333319 -1.48751231  0.01260183
H  -0.88256816 -1.99788428 -0.00763784
$end


$rem
N_FROZEN_CORE FC
MEM_TOTAL 7500
MEM_STATIC 3000
AUX_BASIS_CORR rimp2-def2-QZVPPD
SCF_CONVERGENCE 7
SCF_ALGORITHM  GDM
method DSD-PBEPBE-D3
GEN_SCFMAN TRUE
UNRESTRICTED True
THRESH  14
SYMMETRY FALSE
SYM_IGNORE TRUE
max_scf_cycles 200

XC_GRID 000099000590
BASIS AUG-PC-3


$end





$multipole_field
X 0.0
Y 0.004
Z 0.0
$end




