$molecule
0 1
C  1.0509495   0.04023172  0.09127779
N  2.4958446   0.04601388  0.10855093
C  2.98562897  1.37683753  0.38617175
C  2.98612349 -0.88264258  1.10116235
H  0.69025393  0.72323487 -0.6738401
H  0.62454021  0.34625337  1.05864663
H  0.6906221  -0.95873473 -0.14159606
H  2.63220262  2.06486367 -0.37783733
H  4.07275774  1.37787083  0.37392553
H  2.64923889  1.74504953  1.36726209
H  2.63306815 -1.88507677  0.87208241
H  2.64975565 -0.61956205  2.11552024
H  4.07325415 -0.89009926  1.09160377
$end


$rem
N_FROZEN_CORE FC
MEM_TOTAL 15000
MEM_STATIC 6000
AUX_BASIS_CORR rimp2-def2-QZVPPD
SCF_CONVERGENCE 7
SCF_ALGORITHM  GDM
method DSD-PBEPBE-D3
GEN_SCFMAN TRUE
UNRESTRICTED True
THRESH  14
SYMMETRY FALSE
SYM_IGNORE TRUE
max_scf_cycles 200

XC_GRID 000099000590
BASIS AUG-PC-3


$end










