$molecule
0 1
C  1.01570256  0.02684731 -0.09633148
C  2.34432744  0.02684735 -0.09633156
H  0.45633603 -0.81633974 -0.46704441
H  0.45633603  0.87003241  0.27438591
H  2.90369397 -0.81633968 -0.46704455
H  2.90369397  0.87003233  0.27438609
$end


$rem
N_FROZEN_CORE FC
MEM_TOTAL 3750
MEM_STATIC 1500
AUX_BASIS_CORR rimp2-def2-QZVPPD
SCF_CONVERGENCE 7
SCF_ALGORITHM  GDM
method DSD-PBEPBE-D3
GEN_SCFMAN TRUE
UNRESTRICTED True
THRESH  14
SYMMETRY FALSE
SYM_IGNORE TRUE
max_scf_cycles 200

XC_GRID 000099000590
BASIS AUG-PC-3


$end










