$molecule
0 1
C  1.37647492 -0.22087975  0.00549481
C  0.50414453 -1.30106573 -0.00873896
C  -0.86754801 -1.08567651 -0.01380631
C  -1.36691314  0.20989751 -0.00447375
C  -0.49458453  1.29008104  0.00984377
C  0.87711104  1.07469311  0.014733
H  2.44218034 -0.3882235   0.00935174
H  0.89211697 -2.30763017 -0.01596626
H  -1.5452865  -1.92489923 -0.02487762
H  -2.43261927  0.37723611 -0.00835707
H  -0.8825517   2.29664783  0.01702795
H  1.55484535  1.91391929  0.0257987
$end


$rem
N_FROZEN_CORE FC
MEM_TOTAL 15000
MEM_STATIC 6000
AUX_BASIS_CORR rimp2-def2-QZVPPD
SCF_CONVERGENCE 7
SCF_ALGORITHM  GDM
method DSD-PBEPBE-D3
GEN_SCFMAN TRUE
UNRESTRICTED True
THRESH  14
SYMMETRY FALSE
SYM_IGNORE TRUE
max_scf_cycles 200

XC_GRID 000099000590
BASIS AUG-PC-3


$end





$multipole_field
X -0.004
Y 0.0
Z 0.0
$end




