$molecule
0 1
C  1.01315711 -0.06946223  0.04296442
O  2.43139472 -0.09766985  0.04159937
H  0.61639953  0.46395944 -0.81953758
H  0.61639471  0.37793515  0.95306339
H  0.68188018 -1.10017943 -0.00705718
H  2.74804375  0.80625692  0.08546756
$end


$rem
N_FROZEN_CORE FC
MEM_TOTAL 3750
MEM_STATIC 1500
AUX_BASIS_CORR rimp2-def2-QZVPPD
SCF_CONVERGENCE 7
SCF_ALGORITHM  GDM
method DSD-PBEPBE-D3
GEN_SCFMAN TRUE
UNRESTRICTED True
THRESH  14
SYMMETRY FALSE
SYM_IGNORE TRUE
max_scf_cycles 200

XC_GRID 000099000590
BASIS AUG-PC-3


$end





$multipole_field
X 0.004
Y 0.0
Z 0.0
$end




