$molecule
0 1
C  0.96913007  0.00806582  0.09377975
N  2.41653222 -0.05428216  0.09642423
C  2.9260764  -0.57629129  1.34811845
H  0.62028441  0.4709815  -0.82477869
H  0.55445978  0.56113068  0.94496325
H  0.57111035 -1.0037306   0.12990401
H  2.79235089  0.86995304 -0.05933398
H  2.62503789 -1.61704695  1.4464045
H  2.557057   -0.0368581   2.22856269
H  4.01168099 -0.54171194  1.34899579
$end


$rem
N_FROZEN_CORE FC
MEM_TOTAL 3750
MEM_STATIC 1500
AUX_BASIS_CORR rimp2-def2-QZVPPD
SCF_CONVERGENCE 7
SCF_ALGORITHM  GDM
method DSD-PBEPBE-D3
GEN_SCFMAN TRUE
UNRESTRICTED True
THRESH  14
SYMMETRY FALSE
SYM_IGNORE TRUE
max_scf_cycles 200

XC_GRID 000099000590
BASIS AUG-PC-3


$end





$multipole_field
X 0.0
Y 0.004
Z 0.0
$end




