$molecule
0 1
C  1.17984774  0.00787643 -0.03852812
S  2.96807664  0.1006588   0.12128803
C  3.38992089 -0.77672886 -1.39005266
H  0.74739189  0.50755814  0.82219783
H  0.85135715 -1.02713765 -0.05011142
H  0.8513543   0.51104019 -0.94307921
H  4.47240734 -0.81487176 -1.45575835
H  3.00004585 -0.25177383 -2.25706711
H  3.00004819 -1.78995147 -1.36409899
$end


$rem
N_FROZEN_CORE FC
MEM_TOTAL 3750
MEM_STATIC 1500
AUX_BASIS_CORR rimp2-def2-QZVPPD
SCF_CONVERGENCE 7
SCF_ALGORITHM  GDM
method DSD-PBEPBE-D3
GEN_SCFMAN TRUE
UNRESTRICTED True
THRESH  14
SYMMETRY FALSE
SYM_IGNORE TRUE
max_scf_cycles 200

XC_GRID 000099000590
BASIS AUG-PC-3


$end










