$molecule
0 1
C  1.21460857 -0.2152308   0.00000208
C  -0.08231969  0.5461369  -0.00000031
O  -1.13686557 -0.41013204  0.00001774
H  2.05593726  0.47323378 -0.00001821
H  1.27906164 -0.84627811 -0.88189593
H  1.27907824 -0.84624712  0.88192094
H  -0.14627626  1.18269384 -0.88408047
H  -0.14626661  1.18271683  0.8840639
H  -1.97272959  0.06169271  0.00002827
$end


$rem
N_FROZEN_CORE FC
MEM_TOTAL 3750
MEM_STATIC 1500
AUX_BASIS_CORR rimp2-def2-QZVPPD
SCF_CONVERGENCE 7
SCF_ALGORITHM  GDM
method DSD-PBEPBE-D3
GEN_SCFMAN TRUE
UNRESTRICTED True
THRESH  14
SYMMETRY FALSE
SYM_IGNORE TRUE
max_scf_cycles 200

XC_GRID 000099000590
BASIS AUG-PC-3


$end





$multipole_field
X -0.004
Y 0.0
Z 0.0
$end




