$molecule
0 1
C  -0.31075127  1.1230602   0.00130042
C  0.99972138  0.69911495  0.00043164
C  0.98921596 -0.71084579  0.00030817
C  -0.32742864 -1.11521673  0.00028411
N  -1.09873331  0.00973077  0.0009629
H  -0.73726111  2.10765267  0.00188994
H  1.86162499  1.33905496  0.00028878
H  1.84148814 -1.36355794 -0.00002911
H  -0.76856271 -2.09334457  0.00001673
H  -2.10140341  0.01720149  0.00124644
$end


$rem
N_FROZEN_CORE FC
MEM_TOTAL 7500
MEM_STATIC 3000
AUX_BASIS_CORR rimp2-def2-QZVPPD
SCF_CONVERGENCE 7
SCF_ALGORITHM  GDM
method DSD-PBEPBE-D3
GEN_SCFMAN TRUE
UNRESTRICTED True
THRESH  14
SYMMETRY FALSE
SYM_IGNORE TRUE
max_scf_cycles 200

XC_GRID 000099000590
BASIS AUG-PC-3


$end





$multipole_field
X -0.004
Y 0.0
Z 0.0
$end




