$molecule
0 1
O  2.26395246  0.02916076  0.01225257
C  0.90005412 -0.01230517  0.00702328
C  0.18540704 -1.20191971  0.00159656
C  -1.20217366 -1.17506907 -0.00360495
C  -1.88035521  0.03469549 -0.00344093
C  -1.15684381  1.22033342  0.00208746
C  0.22843979  1.20179142  0.00729648
H  2.60139476 -0.87155379  0.01144778
H  0.70976816 -2.14678592  0.00136476
H  -1.75070185 -2.10399755 -0.0078781
H  -2.95802531  0.0553982  -0.00753403
H  -1.67146742  2.16846951  0.00226377
H  0.80325094  2.1137724   0.01152536
$end


$rem
N_FROZEN_CORE FC
MEM_TOTAL 15000
MEM_STATIC 6000
AUX_BASIS_CORR rimp2-def2-QZVPPD
SCF_CONVERGENCE 7
SCF_ALGORITHM  GDM
method DSD-PBEPBE-D3
GEN_SCFMAN TRUE
UNRESTRICTED True
THRESH  14
SYMMETRY FALSE
SYM_IGNORE TRUE
max_scf_cycles 200

XC_GRID 000099000590
BASIS AUG-PC-3


$end





$multipole_field
X 0.0
Y 0.004
Z 0.0
$end




