$molecule
0 1
Si 1.05538617 -0.06158617  0.05603192
H  2.53068041 -0.06159104  0.05603269
H  0.56362585  1.03468542 -0.80003685
H  0.56362075  0.13165827  1.43346312
H  0.56361682 -1.35109648 -0.46533089
$end


$rem
N_FROZEN_CORE FC
MEM_TOTAL 3750
MEM_STATIC 1500
AUX_BASIS_CORR rimp2-def2-QZVPPD
SCF_CONVERGENCE 7
SCF_ALGORITHM  GDM
method DSD-PBEPBE-D3
GEN_SCFMAN TRUE
UNRESTRICTED True
THRESH  14
SYMMETRY FALSE
SYM_IGNORE TRUE
max_scf_cycles 200

XC_GRID 000099000590
BASIS AUG-PC-3


$end










