$molecule
0 1
   N         -0.17184112     -0.55707404      0.30027257
   N          1.20115329     -0.58382423     -0.10374620
   N         -0.75671527      0.76298616      0.15935504
   H         -1.28142531      0.84592998     -0.71555242
   H         -1.41634923      0.87959036      0.92732319
   H          1.34067837      0.03520591     -0.91080201
   H          1.72995729     -0.17035158      0.66351983
   H         -0.64545801     -1.21246256     -0.32036999
$end


$rem
N_FROZEN_CORE FC
MEM_TOTAL 3750
MEM_STATIC 1500
AUX_BASIS_CORR rimp2-def2-QZVPPD
SCF_CONVERGENCE 7
SCF_ALGORITHM  GDM
method DSD-PBEPBE-D3
GEN_SCFMAN TRUE
UNRESTRICTED True
THRESH  14
SYMMETRY FALSE
SYM_IGNORE TRUE
max_scf_cycles 200

XC_GRID 000099000590
BASIS DEF2-QZVPPD


$end










