$molecule
0 1
   SI         1.91873897     -1.10778446      0.38779602
   SI         1.91873897      1.10778446     -0.38779602
   SI         0.00000000      2.21556892      0.38779602
   SI        -1.91873897      1.10778446     -0.38779602
   SI        -1.91873897     -1.10778446      0.38779602
   SI         0.00000000     -2.21556892     -0.38779602
   H          1.89826779     -1.09596542      1.87596105
   H          3.15145900     -1.81949570     -0.04784335
   H          3.15145900      1.81949570      0.04784335
   H          1.89826779      1.09596542     -1.87596105
   H          0.00000000      3.63899140     -0.04784335
   H          0.00000000      2.19193084      1.87596105
   H         -3.15145900      1.81949570      0.04784335
   H         -1.89826779      1.09596542     -1.87596105
   H         -3.15145900     -1.81949570     -0.04784335
   H         -1.89826779     -1.09596542      1.87596105
   H          0.00000000     -2.19193084     -1.87596105
   H          0.00000000     -3.63899140      0.04784335
$end


$rem
N_FROZEN_CORE FC
MEM_TOTAL 15000
MEM_STATIC 6000
AUX_BASIS_CORR rimp2-def2-QZVPPD
SCF_CONVERGENCE 7
SCF_ALGORITHM  GDM
method DSD-PBEPBE-D3
GEN_SCFMAN TRUE
UNRESTRICTED True
THRESH  14
SYMMETRY FALSE
SYM_IGNORE TRUE
max_scf_cycles 200

XC_GRID 000099000590
BASIS DEF2-QZVPPD


$end










