$molecule
0 1
   S         -2.36730975      0.15912572      0.00000000
   S         -1.42716773     -0.51183801     -1.72709297
   S         -0.03391897      0.93067379     -2.15245000
   S          1.85110297      0.02650546     -1.71991323
   S          1.58727721     -1.04980822      0.00000000
   S          1.85110297      0.02650546      1.71991323
   S         -0.03391897      0.93067379      2.15245000
   S         -1.42716773     -0.51183801      1.72709297
$end


$rem
N_FROZEN_CORE FC
MEM_TOTAL 3750
MEM_STATIC 1500
AUX_BASIS_CORR rimp2-def2-QZVPPD
SCF_CONVERGENCE 7
SCF_ALGORITHM  GDM
method DSD-PBEPBE-D3
GEN_SCFMAN TRUE
UNRESTRICTED True
THRESH  14
SYMMETRY FALSE
SYM_IGNORE TRUE
max_scf_cycles 200

XC_GRID 000099000590
BASIS DEF2-QZVPPD


$end










