$molecule
0 1
   O         -1.91840367      0.19998510      0.00000000
   S         -1.32245423     -0.36733302     -1.47185555
   O         -0.00713321      0.65483762     -1.66061440
   S          1.55660614      0.01258458     -1.47076583
   O          1.46436627     -0.80016345      0.00000000
   S          1.55660614      0.01258458      1.47076583
   O         -0.00713321      0.65483762      1.66061440
   S         -1.32245423     -0.36733302      1.47185555
$end


$rem
N_FROZEN_CORE FC
MEM_TOTAL 3750
MEM_STATIC 1500
AUX_BASIS_CORR rimp2-def2-QZVPPD
SCF_CONVERGENCE 7
SCF_ALGORITHM  GDM
method DSD-PBEPBE-D3
GEN_SCFMAN TRUE
UNRESTRICTED True
THRESH  14
SYMMETRY FALSE
SYM_IGNORE TRUE
max_scf_cycles 200

XC_GRID 000099000590
BASIS DEF2-QZVPPD


$end










