$molecule
0 1
   O         -1.72343769     -1.30912299      0.48350889
   S         -1.53520809      0.24396861      0.17220872
   O         -2.42759105      0.64613872     -0.87222356
   O         -1.41356005      0.89035686      1.43698347
   O         -0.06586720      0.24573953     -0.59351787
   S          1.36137596      0.12591622      0.27091158
   O          2.27548608     -0.13523733     -1.00931930
   O          1.65008964      1.41502733      0.82289528
   O          1.33946097     -1.08526604      1.02361624
   H         -1.98448233     -1.76592022     -0.34043223
   H          2.52373377      0.72839930     -1.39463122
$end


$rem
N_FROZEN_CORE FC
MEM_TOTAL 7500
MEM_STATIC 3000
AUX_BASIS_CORR rimp2-def2-QZVPPD
SCF_CONVERGENCE 7
SCF_ALGORITHM  GDM
method DSD-PBEPBE-D3
GEN_SCFMAN TRUE
UNRESTRICTED True
THRESH  14
SYMMETRY FALSE
SYM_IGNORE TRUE
max_scf_cycles 200

XC_GRID 000099000590
BASIS DEF2-QZVPPD


$end










