$molecule
0 1
   O         -2.19295200      0.62684476     -0.92850834
   S         -1.26210570     -0.30855216     -0.04450021
   O         -1.03795246      0.29959206      1.25082562
   O         -1.75626085     -1.63296059     -0.19472255
   O          0.11654403     -0.10789624     -0.91318750
   S          1.60009692     -0.36655700     -0.13981114
   O          1.61686029      0.86635260      0.85542567
   O          1.49345586     -1.60323615      0.57240287
   O          2.55438785     -0.10150256     -1.16106689
   H         -1.97235642      1.56419594     -0.75763447
   H          0.84028248      0.76371933      1.46077695
$end


$rem
N_FROZEN_CORE FC
MEM_TOTAL 7500
MEM_STATIC 3000
AUX_BASIS_CORR rimp2-def2-QZVPPD
SCF_CONVERGENCE 7
SCF_ALGORITHM  GDM
method DSD-PBEPBE-D3
GEN_SCFMAN TRUE
UNRESTRICTED True
THRESH  14
SYMMETRY FALSE
SYM_IGNORE TRUE
max_scf_cycles 200

XC_GRID 000099000590
BASIS DEF2-QZVPPD


$end










