$molecule
0 1
   N         -0.36120484     -0.92429803      0.27257660
   N          1.02247060     -1.25862078      0.17701934
   H          1.59670310     -0.40904371      0.11357548
   H          1.13377768     -1.75855802     -0.70395977
   H         -0.50225869     -0.62945487      1.24604677
   N         -0.74206979      0.14702554     -0.61853552
   N         -0.42150018      1.48198064     -0.19308732
   H         -1.75800424      0.09952159     -0.67804120
   H         -0.51640901      1.58409122      0.82511497
   H          0.54849537      1.66735642     -0.44070935
$end


$rem
N_FROZEN_CORE FC
MEM_TOTAL 3750
MEM_STATIC 1500
AUX_BASIS_CORR rimp2-def2-QZVPPD
SCF_CONVERGENCE 7
SCF_ALGORITHM  GDM
method DSD-PBEPBE-D3
GEN_SCFMAN TRUE
UNRESTRICTED True
THRESH  14
SYMMETRY FALSE
SYM_IGNORE TRUE
max_scf_cycles 200

XC_GRID 000099000590
BASIS DEF2-QZVPPD


$end










