$molecule
0 1
   SI         0.95111717     -2.34248323      0.00000000
   SI         2.89848985     -1.03325876      0.00000000
   SI        -0.99433708     -1.00453120      0.00000000
   SI        -0.50864801      1.29196677      0.00000000
   SI        -2.47062147      2.57854369      0.00000000
   H          0.94975038     -3.21957328     -1.20217863
   H          0.94975038     -3.21957328      1.20217863
   H         -1.81620882     -1.31657238      1.20081987
   H         -1.81620882     -1.31657238     -1.20081987
   H          0.30852143      1.61775107     -1.20050887
   H          0.30852143      1.61775107      1.20050887
   H         -2.17074349      4.03381275      0.00000000
   H         -3.27850228      2.26099322     -1.20543585
   H         -3.27850228      2.26099322      1.20543585
   H          4.11885639     -1.88075049      0.00000000
   H          2.92438262     -0.16424840     -1.20428156
   H          2.92438262     -0.16424840      1.20428156
$end


$rem
N_FROZEN_CORE FC
MEM_TOTAL 7500
MEM_STATIC 3000
AUX_BASIS_CORR rimp2-def2-QZVPPD
SCF_CONVERGENCE 7
SCF_ALGORITHM  GDM
method DSD-PBEPBE-D3
GEN_SCFMAN TRUE
UNRESTRICTED True
THRESH  14
SYMMETRY FALSE
SYM_IGNORE TRUE
max_scf_cycles 200

XC_GRID 000099000590
BASIS DEF2-QZVPPD


$end










