$molecule
0 1
   O         -2.08938271      0.82426315     -0.79451875
   S         -1.20395695     -0.20237954      0.03793684
   O         -0.96936483      0.41469892      1.31835902
   O         -1.72815681     -1.52556412     -0.09889423
   O          0.16734080     -0.06823650     -0.84156961
   S          1.65770905     -0.26432717     -0.05362682
   O          1.66402544      1.02817621      0.85675061
   O          1.55993090     -1.45589929      0.73334280
   O          2.60689562     -0.06331648     -1.09423768
   H         -2.53817447      0.33875104     -1.51496149
   H          0.87313394      0.97383379      1.45141931
$end


$rem
N_FROZEN_CORE FC
MEM_TOTAL 7500
MEM_STATIC 3000
AUX_BASIS_CORR rimp2-def2-QZVPPD
SCF_CONVERGENCE 7
SCF_ALGORITHM  GDM
method DSD-PBEPBE-D3
GEN_SCFMAN TRUE
UNRESTRICTED True
THRESH  14
SYMMETRY FALSE
SYM_IGNORE TRUE
max_scf_cycles 200

XC_GRID 000099000590
BASIS DEF2-QZVPPD


$end










