$molecule
0 1
   N         -0.01234627     -0.59896192      0.85529092
   N          1.40057789     -0.67279174      0.69167556
   H          1.79109995      0.27896721      0.69866684
   H          1.54441784     -1.03380871     -0.25061935
   H         -0.15705127     -0.36055947      1.84025932
   N         -0.53592587      0.61236963      0.14949390
   N         -0.56764650      0.25608390     -1.24106417
   H         -1.49741565      0.67903911      0.50796923
   H         -0.56243275      1.12334217     -1.77149744
   H         -1.40327738     -0.28368017     -1.48017482
$end


$rem
N_FROZEN_CORE FC
MEM_TOTAL 3750
MEM_STATIC 1500
AUX_BASIS_CORR rimp2-def2-QZVPPD
SCF_CONVERGENCE 7
SCF_ALGORITHM  GDM
method DSD-PBEPBE-D3
GEN_SCFMAN TRUE
UNRESTRICTED True
THRESH  14
SYMMETRY FALSE
SYM_IGNORE TRUE
max_scf_cycles 200

XC_GRID 000099000590
BASIS DEF2-QZVPPD


$end










