$molecule
0 1
   N         -0.79328369     -1.37400766     -0.32036436
   P         -1.76898046      0.00000000      0.03727417
   N         -0.79328369      1.37400766     -0.32036436
   P          0.88449023      1.53198202      0.03727417
   N          1.58656739      0.00000000     -0.32036436
   P          0.88449023     -1.53198202      0.03727417
   H         -1.08668589     -1.88219517     -1.14115553
   H         -1.47492030      0.00000000      1.42424573
   H         -1.08668589      1.88219517     -1.14115553
   H          0.73746015      1.27731845      1.42424573
   H          2.17337177      0.00000000     -1.14115553
   H          0.73746015     -1.27731845      1.42424573
$end


$rem
N_FROZEN_CORE FC
MEM_TOTAL 3750
MEM_STATIC 1500
AUX_BASIS_CORR rimp2-def2-QZVPPD
SCF_CONVERGENCE 7
SCF_ALGORITHM  GDM
method DSD-PBEPBE-D3
GEN_SCFMAN TRUE
UNRESTRICTED True
THRESH  14
SYMMETRY FALSE
SYM_IGNORE TRUE
max_scf_cycles 200

XC_GRID 000099000590
BASIS DEF2-QZVPPD


$end










