$molecule
0 1
   N         -1.20191411     -0.75939405      0.00000000
   P         -1.05835407      0.12455110     -1.47716751
   N          0.58567944      0.70758372     -1.37545632
   P          1.60012828      0.48099719      0.00000000
   N          0.58567944      0.70758372      1.37545632
   P         -1.05835407      0.12455110      1.47716751
   H         -0.68479837     -1.62767732      0.00000000
   H         -0.84723388     -1.04883155     -2.25457079
   H          0.68270745      1.63664799     -1.76047085
   H          1.56098630     -0.93382834      0.00000000
   H          0.68270745      1.63664799      1.76047085
   H         -0.84723388     -1.04883155      2.25457079
$end


$rem
N_FROZEN_CORE FC
MEM_TOTAL 3750
MEM_STATIC 1500
AUX_BASIS_CORR rimp2-def2-QZVPPD
SCF_CONVERGENCE 7
SCF_ALGORITHM  GDM
method DSD-PBEPBE-D3
GEN_SCFMAN TRUE
UNRESTRICTED True
THRESH  14
SYMMETRY FALSE
SYM_IGNORE TRUE
max_scf_cycles 200

XC_GRID 000099000590
BASIS DEF2-QZVPPD


$end










