$molecule
0 1
   N         -0.77907197      0.10994832      0.00000000
   N         -0.03149962      0.01698457      1.22272462
   N         -0.03149962      0.01698457     -1.22272462
   H          0.73807619     -0.65953384     -1.13084901
   H          0.38903766      0.93051636     -1.38896889
   H          0.73807619     -0.65953384      1.13084901
   H          0.38903766      0.93051636      1.38896889
   H         -1.41215648     -0.68588250      0.00000000
$end


$rem
N_FROZEN_CORE FC
MEM_TOTAL 3750
MEM_STATIC 1500
AUX_BASIS_CORR rimp2-def2-QZVPPD
SCF_CONVERGENCE 7
SCF_ALGORITHM  GDM
method DSD-PBEPBE-D3
GEN_SCFMAN TRUE
UNRESTRICTED True
THRESH  14
SYMMETRY FALSE
SYM_IGNORE TRUE
max_scf_cycles 200

XC_GRID 000099000590
BASIS DEF2-QZVPPD


$end










