$molecule
0 1
   SI         0.67139927      0.96171872      1.80521348
   SI        -0.67139927     -0.96171872      1.80521348
   SI         0.00000000     -2.31395795      0.00000000
   SI         0.67139927     -0.96171872     -1.80521348
   SI        -0.67139927      0.96171872     -1.80521348
   SI         0.00000000      2.31395795      0.00000000
   H          2.08573887      0.54782614      1.59489390
   H          0.59761219      1.71115483      3.08849794
   H         -0.59761219     -1.71115483      3.08849794
   H         -2.08573887     -0.54782614      1.59489390
   H         -1.12581429     -3.18741508     -0.42917386
   H          1.12581429     -3.18741508      0.42917386
   H          2.08573887     -0.54782614     -1.59489390
   H          0.59761219     -1.71115483     -3.08849794
   H         -2.08573887      0.54782614     -1.59489390
   H         -0.59761219      1.71115483     -3.08849794
   H         -1.12581429      3.18741508      0.42917386
   H          1.12581429      3.18741508     -0.42917386
$end


$rem
N_FROZEN_CORE FC
MEM_TOTAL 15000
MEM_STATIC 6000
AUX_BASIS_CORR rimp2-def2-QZVPPD
SCF_CONVERGENCE 7
SCF_ALGORITHM  GDM
method DSD-PBEPBE-D3
GEN_SCFMAN TRUE
UNRESTRICTED True
THRESH  14
SYMMETRY FALSE
SYM_IGNORE TRUE
max_scf_cycles 200

XC_GRID 000099000590
BASIS DEF2-QZVPPD


$end










