$molecule
0 1
   N          0.26705172      0.69636738     -0.56173710
   N          1.35510702      0.81253986      0.35870941
   H          1.84787308     -0.08681106      0.41533588
   H          0.95114425      1.00024418      1.27451809
   H          0.69417443      0.79066305     -1.48682628
   N         -0.26705172     -0.69636738     -0.56173710
   N         -1.35510702     -0.81253986      0.35870941
   H         -0.69417443     -0.79066305     -1.48682628
   H         -0.95114425     -1.00024418      1.27451809
   H         -1.84787308      0.08681106      0.41533588
$end


$rem
N_FROZEN_CORE FC
MEM_TOTAL 3750
MEM_STATIC 1500
AUX_BASIS_CORR rimp2-def2-QZVPPD
SCF_CONVERGENCE 7
SCF_ALGORITHM  GDM
method DSD-PBEPBE-D3
GEN_SCFMAN TRUE
UNRESTRICTED True
THRESH  14
SYMMETRY FALSE
SYM_IGNORE TRUE
max_scf_cycles 200

XC_GRID 000099000590
BASIS DEF2-QZVPPD


$end










