$molecule
0 1
   SI         0.00000000      1.94735480     -0.86167314
   SI         0.00000000      0.00000000      0.44778746
   SI         0.00000000     -1.94735480     -0.86167314
   SI         0.00000000     -3.87997284      0.46994748
   H          1.20207106      1.94015138     -1.73916028
   H         -1.20207106      1.94015138     -1.73916028
   SI         0.00000000      3.87997284      0.46994748
   H          1.20053481      0.00000000      1.32789750
   H         -1.20053481      0.00000000      1.32789750
   H          1.20207106     -1.94015138     -1.73916028
   H         -1.20207106     -1.94015138     -1.73916028
   H          0.00000000     -5.11417962     -0.35778141
   H          1.20544277     -3.89160768      1.33801820
   H         -1.20544277     -3.89160768      1.33801820
   H          0.00000000      5.11417962     -0.35778141
   H         -1.20544277      3.89160768      1.33801820
   H          1.20544277      3.89160768      1.33801820
$end


$rem
N_FROZEN_CORE FC
MEM_TOTAL 7500
MEM_STATIC 3000
AUX_BASIS_CORR rimp2-def2-QZVPPD
SCF_CONVERGENCE 7
SCF_ALGORITHM  GDM
method DSD-PBEPBE-D3
GEN_SCFMAN TRUE
UNRESTRICTED True
THRESH  14
SYMMETRY FALSE
SYM_IGNORE TRUE
max_scf_cycles 200

XC_GRID 000099000590
BASIS DEF2-QZVPPD


$end










