$molecule
0 1
   O         -2.53820248     -0.08771520     -1.02724234
   P         -1.35941727     -0.07970400      0.02969318
   O         -1.27738380     -1.25285556      0.93417310
   O          0.00000000      0.00000000     -0.87883739
   P          1.35941727      0.07970400      0.02969318
   O          1.27738380      1.25285556      0.93417310
   O          1.49416219     -1.36283276      0.64970831
   O          2.53820248      0.08771520     -1.02724234
   O         -1.49416219      1.36283276      0.64970831
   H         -2.91545388     -0.97873665     -1.12334103
   H          0.59640375     -1.64077375      0.97642748
   H          2.91545388      0.97873665     -1.12334103
   H         -0.59640375      1.64077375      0.97642748
$end


$rem
N_FROZEN_CORE FC
MEM_TOTAL 7500
MEM_STATIC 3000
AUX_BASIS_CORR rimp2-def2-QZVPPD
SCF_CONVERGENCE 7
SCF_ALGORITHM  GDM
method DSD-PBEPBE-D3
GEN_SCFMAN TRUE
UNRESTRICTED True
THRESH  14
SYMMETRY FALSE
SYM_IGNORE TRUE
max_scf_cycles 200

XC_GRID 000099000590
BASIS DEF2-QZVPPD


$end










