$molecule
0 1
   SI         0.00000000     -2.06141387     -0.87292226
   SI         0.00000000      0.00000000     -2.02977282
   SI         0.00000000      2.06141387     -0.87292226
   SI         0.00000000      2.04066436      1.47296712
   SI         0.00000000     -2.04066436      1.47296712
   H          1.19799593     -2.82548452     -1.31822012
   H         -1.19799593     -2.82548452     -1.31822012
   H         -1.19676843      0.00000000     -2.91518357
   H          1.19676843      0.00000000     -2.91518357
   H          1.19799593      2.82548452     -1.31822012
   H         -1.19799593      2.82548452     -1.31822012
   H          0.00000000      3.44041450      1.97229570
   H         -1.20608553      1.35278084      1.99746897
   H          1.20608553      1.35278084      1.99746897
   H          0.00000000     -3.44041450      1.97229570
   H          1.20608553     -1.35278084      1.99746897
   H         -1.20608553     -1.35278084      1.99746897
$end


$rem
N_FROZEN_CORE FC
MEM_TOTAL 7500
MEM_STATIC 3000
AUX_BASIS_CORR rimp2-def2-QZVPPD
SCF_CONVERGENCE 7
SCF_ALGORITHM  GDM
method DSD-PBEPBE-D3
GEN_SCFMAN TRUE
UNRESTRICTED True
THRESH  14
SYMMETRY FALSE
SYM_IGNORE TRUE
max_scf_cycles 200

XC_GRID 000099000590
BASIS DEF2-QZVPPD


$end










