$molecule
0 1
   N         -0.45451522      0.21870193      0.00000000
   N          0.37232336      0.19757915      1.17353971
   N          0.37232336      0.19757915     -1.17353971
   H          0.50266120     -0.75195487     -1.53082191
   H         -0.11089378      0.74253907     -1.88459933
   H          0.50266120     -0.75195487      1.53082191
   H         -0.11089378      0.74253907      1.88459933
   H         -1.07366634     -0.59502865      0.00000000
$end


$rem
N_FROZEN_CORE FC
MEM_TOTAL 3750
MEM_STATIC 1500
AUX_BASIS_CORR rimp2-def2-QZVPPD
SCF_CONVERGENCE 7
SCF_ALGORITHM  GDM
method DSD-PBEPBE-D3
GEN_SCFMAN TRUE
UNRESTRICTED True
THRESH  14
SYMMETRY FALSE
SYM_IGNORE TRUE
max_scf_cycles 200

XC_GRID 000099000590
BASIS DEF2-QZVPPD


$end










