$molecule
0 1
C  0.0  1.4217607268  0.00687456664826
C  0.0  0.696641783968  -1.19545229031
C  0.0  -0.696641783968  -1.19545229031
C  0.0  -1.4217607268  0.00687456664826
C  0.0  -0.699210478709  1.20456487486
C  0.0  0.699210478709  1.20456487486
C  0.0  2.92839548976  -0.000875716832108
C  0.0  -2.92839548976  -0.000875716832108
H  0.0  1.23615387647  -2.14539262188
H  0.0  -1.23615387647  -2.14539262188
H  0.0  -1.24021748851  2.15334672896
H  0.0  1.24021748851  2.15334672896
H  0.0  3.32970773719  1.02169808105
H  -0.885590372232  3.3232207271  -0.522381811245
H  0.885590372232  3.3232207271  -0.522381811245
H  0.0  -3.32970773719  1.02169808105
H  -0.885590372232  -3.3232207271  -0.522381811245
H  0.885590372232  -3.3232207271  -0.522381811245
$end


$rem
N_FROZEN_CORE FC
MEM_TOTAL 15000
MEM_STATIC 6000
AUX_BASIS_CORR rimp2-def2-QZVPPD
SCF_CONVERGENCE 7
SCF_ALGORITHM  GDM
method DSD-PBEPBE-D3
GEN_SCFMAN TRUE
UNRESTRICTED True
THRESH  14
SYMMETRY FALSE
SYM_IGNORE TRUE
max_scf_cycles 200

XC_GRID 000099000590
BASIS DEF2-QZVPPD


$end










