$molecule
0 1
C  -1.39370892193  -2.33772851645  1.81573265762
C  -0.697520962905  -3.45600918903  2.27580488709
C  0.697520962905  -3.45600918903  2.27580488709
C  1.39370892193  -2.33772851645  1.81573265762
C  0.701228716322  -1.22202514527  1.34910913985
C  -0.701228716322  -1.22202514527  1.34910913985
C  1.38857636335  0.0  0.804732744945
C  -1.38857636335  0.0  0.804732744945
C  -0.701228716322  1.22202514527  1.34910913985
C  0.701228716322  1.22202514527  1.34910913985
C  -1.39370892193  2.33772851645  1.81573265762
C  1.39370892193  2.33772851645  1.81573265762
C  -0.697520962905  3.45600918903  2.27580488709
C  0.697520962905  3.45600918903  2.27580488709
C  -1.39370892193  2.33772851645  -1.81573265762
C  -0.697520962905  3.45600918903  -2.27580488709
C  0.697520962905  3.45600918903  -2.27580488709
C  1.39370892193  2.33772851645  -1.81573265762
C  0.701228716322  1.22202514527  -1.34910913985
C  -0.701228716322  1.22202514527  -1.34910913985
C  1.38857636335  0.0  -0.804732744945
C  -1.38857636335  0.0  -0.804732744945
C  -0.701228716322  -1.22202514527  -1.34910913985
C  0.701228716322  -1.22202514527  -1.34910913985
C  -1.39370892193  -2.33772851645  -1.81573265762
C  1.39370892193  -2.33772851645  -1.81573265762
C  -0.697520962905  -3.45600918903  -2.27580488709
C  0.697520962905  -3.45600918903  -2.27580488709
H  -2.47672283675  -2.33198391329  1.81707488592
H  -1.23953116009  -4.31875310344  2.63685665101
H  1.23953116009  -4.31875310344  2.63685665101
H  2.47672283675  -2.33198391329  1.81707488592
H  2.43320831856  0.0  1.11849812588
H  -2.43320831856  0.0  1.11849812588
H  -2.47672283675  2.33198391329  1.81707488592
H  2.47672283675  2.33198391329  1.81707488592
H  -1.23953116009  4.31875310344  2.63685665101
H  1.23953116009  4.31875310344  2.63685665101
H  -2.47672283675  2.33198391329  -1.81707488592
H  -1.23953116009  4.31875310344  -2.63685665101
H  1.23953116009  4.31875310344  -2.63685665101
H  2.47672283675  2.33198391329  -1.81707488592
H  2.43320831856  0.0  -1.11849812588
H  -2.43320831856  0.0  -1.11849812588
H  -2.47672283675  -2.33198391329  -1.81707488592
H  2.47672283675  -2.33198391329  -1.81707488592
H  -1.23953116009  -4.31875310344  -2.63685665101
H  1.23953116009  -4.31875310344  -2.63685665101
$end


$rem
N_FROZEN_CORE FC
MEM_TOTAL 240000
MEM_STATIC 8000
AUX_BASIS_CORR rimp2-def2-QZVPPD
SCF_CONVERGENCE 7
SCF_ALGORITHM  GDM
method DSD-PBEPBE-D3
GEN_SCFMAN TRUE
UNRESTRICTED True
THRESH  14
SYMMETRY FALSE
SYM_IGNORE TRUE
max_scf_cycles 200

XC_GRID 000099000590
BASIS DEF2-QZVPPD


$end










