$molecule
0 1
C  -0.648663844392  1.2210931082  1.5426096449
C  -1.4116149752  0.0532999014623  1.39458626857
C  -0.745014585869  -1.1704265834  1.54726246439
C  0.648663844392  -1.2210931082  1.5426096449
C  1.4116149752  -0.0532999014623  1.39458626857
C  2.79287224841  -0.119653813873  0.793624964745
C  -2.79287224841  0.119653813873  0.793624964745
C  2.79287224841  0.119653813873  -0.793624964745
C  -2.79287224841  -0.119653813873  -0.793624964745
C  1.4116149752  0.0532999014623  -1.39458626857
C  0.745014585869  -1.1704265834  -1.54726246439
C  -0.648663844392  -1.2210931082  -1.5426096449
C  -1.4116149752  -0.0532999014623  -1.39458626857
C  -0.745014585869  1.1704265834  -1.54726246439
C  0.648663844392  1.2210931082  -1.5426096449
C  0.745014585869  1.1704265834  1.54726246439
H  -1.14940406868  2.19096305814  1.50473773885
H  -1.31521987159  -2.10138823974  1.51415071541
H  1.14940406868  -2.19096305814  1.50473773885
H  3.45996766711  0.629923268461  1.24374326437
H  3.22779696018  -1.10941243498  0.992316468965
H  -3.22779696018  1.10941243498  0.992316468965
H  -3.45996766711  -0.629923268461  1.24374326437
H  3.22779696018  1.10941243498  -0.992316468965
H  3.45996766711  -0.629923268461  -1.24374326437
H  -3.45996766711  0.629923268461  -1.24374326437
H  -3.22779696018  -1.10941243498  -0.992316468965
H  1.31521987159  -2.10138823974  -1.51415071541
H  -1.14940406868  -2.19096305814  -1.50473773885
H  -1.31521987159  2.10138823974  -1.51415071541
H  1.14940406868  2.19096305814  -1.50473773885
H  1.31521987159  2.10138823974  1.51415071541
$end


$rem
N_FROZEN_CORE FC
MEM_TOTAL 60000
MEM_STATIC 8000
AUX_BASIS_CORR rimp2-def2-QZVPPD
SCF_CONVERGENCE 7
SCF_ALGORITHM  GDM
method DSD-PBEPBE-D3
GEN_SCFMAN TRUE
UNRESTRICTED True
THRESH  14
SYMMETRY FALSE
SYM_IGNORE TRUE
max_scf_cycles 200

XC_GRID 000099000590
BASIS DEF2-QZVPPD


$end










