$molecule
1 1
  C    0.000143402   0.716618420   2.902324524
  C    0.000211565   1.134698481   1.610513358
  N    0.000054914   0.007390289   0.820776427
  H    0.000057187  -0.006175457  -0.220847748
  C   -0.000106124  -1.070701780   1.590383280
  N   -0.000054205  -0.662015785   2.861054136
  H    0.000216886   1.264568788   3.824906052
  H    0.000355036   2.123748309   1.194201101
  H   -0.000252805  -2.090885866   1.254167652
  H   -0.000146573  -1.273936361   3.661761919
$end


$rem
N_FROZEN_CORE FC
MEM_TOTAL 3750
MEM_STATIC 1500
AUX_BASIS_CORR rimp2-def2-QZVPPD
SCF_CONVERGENCE 7
SCF_ALGORITHM  GDM
method DSD-PBEPBE-D3
GEN_SCFMAN TRUE
UNRESTRICTED True
THRESH  14
SYMMETRY FALSE
SYM_IGNORE TRUE
max_scf_cycles 200

XC_GRID 000099000590
BASIS DEF2-QZVPPD


$end










