$molecule
-1 1
  C   -0.331988513  -0.042671541  -2.668716895
  C   -0.112786644   0.151183458  -1.150358556
  O   -0.420965265  -0.850720835  -0.444080391
  O    0.335151041   1.248307138  -0.767981294
  H   -1.386360416  -0.251257953  -2.859764012
  H    0.233919669  -0.910222328  -3.012793884
  H   -0.027740964   0.840013371  -3.228963067
$end


$rem
N_FROZEN_CORE FC
MEM_TOTAL 3750
MEM_STATIC 1500
AUX_BASIS_CORR rimp2-def2-QZVPPD
SCF_CONVERGENCE 7
SCF_ALGORITHM  GDM
method DSD-PBEPBE-D3
GEN_SCFMAN TRUE
UNRESTRICTED True
THRESH  14
SYMMETRY FALSE
SYM_IGNORE TRUE
max_scf_cycles 200

XC_GRID 000099000590
BASIS DEF2-QZVPPD


$end










