$molecule
1 1
  N   -0.005156717   0.027401505   2.669644732
  H   -0.003019297   0.057513514   1.594149372
  H    0.822944025   0.490411135   3.040976543
  H   -0.003677188  -0.946025893   2.972823075
  H   -0.836842838   0.486776067   3.037470832
$end


$rem
N_FROZEN_CORE FC
MEM_TOTAL 3750
MEM_STATIC 1500
AUX_BASIS_CORR rimp2-def2-QZVPPD
SCF_CONVERGENCE 7
SCF_ALGORITHM  GDM
method DSD-PBEPBE-D3
GEN_SCFMAN TRUE
UNRESTRICTED True
THRESH  14
SYMMETRY FALSE
SYM_IGNORE TRUE
max_scf_cycles 200

XC_GRID 000099000590
BASIS DEF2-QZVPPD


$end










