$molecule
0 1
  C    1.104710407  -0.400343921  -0.015744828
  O    0.698586684  -1.523372021  -0.250774055
  O    0.381432798   0.675215139   0.148506994
  H   -0.686716691   0.563026453   0.069119192
  C    2.593893917  -0.105478830   0.121727587
  H    3.170886390  -1.014945375  -0.020066651
  H    2.891546464   0.641775758  -0.614122034
  H    2.797463442   0.313521037   1.107368931
$end


$rem
N_FROZEN_CORE FC
MEM_TOTAL 3750
MEM_STATIC 1500
AUX_BASIS_CORR rimp2-def2-QZVPPD
SCF_CONVERGENCE 7
SCF_ALGORITHM  GDM
method DSD-PBEPBE-D3
GEN_SCFMAN TRUE
UNRESTRICTED True
THRESH  14
SYMMETRY FALSE
SYM_IGNORE TRUE
max_scf_cycles 200

XC_GRID 000099000590
BASIS DEF2-QZVPPD


$end










