$molecule
-1 1
  N    0.066115294   0.593487048   0.561515220
  O   -0.275554437  -0.616008134   0.379462018
  O    0.484336147   1.266689159  -0.402196248
  O   -0.023000248   1.087219276   1.703399596
$end


$rem
N_FROZEN_CORE FC
MEM_TOTAL 3750
MEM_STATIC 1500
AUX_BASIS_CORR rimp2-def2-QZVPPD
SCF_CONVERGENCE 7
SCF_ALGORITHM  GDM
method DSD-PBEPBE-D3
GEN_SCFMAN TRUE
UNRESTRICTED True
THRESH  14
SYMMETRY FALSE
SYM_IGNORE TRUE
max_scf_cycles 200

XC_GRID 000099000590
BASIS DEF2-QZVPPD


$end










