$molecule
-1 1
  N   -2.481705223   0.850745382   1.192190285
  O   -2.441394621  -0.075354120   0.316035599
  O   -3.570782943   1.371654864   1.470608479
  O   -1.423443515   1.213117310   1.747137982
$end


$rem
N_FROZEN_CORE FC
MEM_TOTAL 3750
MEM_STATIC 1500
AUX_BASIS_CORR rimp2-def2-QZVPPD
SCF_CONVERGENCE 7
SCF_ALGORITHM  GDM
method DSD-PBEPBE-D3
GEN_SCFMAN TRUE
UNRESTRICTED True
THRESH  14
SYMMETRY FALSE
SYM_IGNORE TRUE
max_scf_cycles 200

XC_GRID 000099000590
BASIS DEF2-QZVPPD


$end










