$molecule
0 1
  N   -1.568832222   4.286467343   0.387366758
  H   -1.193492076   3.569273049  -0.241343928
  H   -1.378923015   3.867019176   1.293387299
  H   -2.576783041   4.242000738   0.277819100
$end


$rem
N_FROZEN_CORE FC
MEM_TOTAL 3750
MEM_STATIC 1500
AUX_BASIS_CORR rimp2-def2-QZVPPD
SCF_CONVERGENCE 7
SCF_ALGORITHM  GDM
method DSD-PBEPBE-D3
GEN_SCFMAN TRUE
UNRESTRICTED True
THRESH  14
SYMMETRY FALSE
SYM_IGNORE TRUE
max_scf_cycles 200

XC_GRID 000099000590
BASIS DEF2-QZVPPD


$end










