$molecule
-1 1
  C   -0.168656404  -1.877297200  -2.379191662
  C   -0.077422311  -0.887101505  -1.189952982
  O   -0.182082341  -1.414589827  -0.050965861
  O    0.088040927   0.319970760  -1.465065981
  H    0.613099556  -2.633562933  -2.284662127
  H   -0.067177066  -1.364016160  -3.334518018
  H   -1.126408120  -2.400380850  -2.344684651
$end


$rem
N_FROZEN_CORE FC
MEM_TOTAL 3750
MEM_STATIC 1500
AUX_BASIS_CORR rimp2-def2-QZVPPD
SCF_CONVERGENCE 7
SCF_ALGORITHM  GDM
method DSD-PBEPBE-D3
GEN_SCFMAN TRUE
UNRESTRICTED True
THRESH  14
SYMMETRY FALSE
SYM_IGNORE TRUE
max_scf_cycles 200

XC_GRID 000099000590
BASIS DEF2-QZVPPD


$end










