$molecule
0 1
  H   -0.001058198  -1.001725191  -4.949018752
  H    0.887394427   0.533370404  -4.923136232
  H   -0.886804640   0.534932673  -4.923005118
  C   -0.000134423   0.016099890  -4.562894718
  C   -0.000056564  -0.008220757  -3.113840154
  N   -0.000033111  -0.027116587  -1.967714477
$end


$rem
N_FROZEN_CORE FC
MEM_TOTAL 3750
MEM_STATIC 1500
AUX_BASIS_CORR rimp2-def2-QZVPPD
SCF_CONVERGENCE 7
SCF_ALGORITHM  GDM
method DSD-PBEPBE-D3
GEN_SCFMAN TRUE
UNRESTRICTED True
THRESH  14
SYMMETRY FALSE
SYM_IGNORE TRUE
max_scf_cycles 200

XC_GRID 000099000590
BASIS DEF2-QZVPPD


$end










