$molecule
0 1
  O    0.679371003  -1.382309636   0.100133184
  H    0.571468069  -0.383993132   0.078073590
  C   -0.607682953  -1.927592746   0.024192146
  H   -0.539829132  -2.958594595  -0.338375073
  H   -1.116979480  -1.951922504   1.000111086
  H   -1.251750787  -1.366055671  -0.662977985
$end


$rem
N_FROZEN_CORE FC
MEM_TOTAL 3750
MEM_STATIC 1500
AUX_BASIS_CORR rimp2-def2-QZVPPD
SCF_CONVERGENCE 7
SCF_ALGORITHM  GDM
method DSD-PBEPBE-D3
GEN_SCFMAN TRUE
UNRESTRICTED True
THRESH  14
SYMMETRY FALSE
SYM_IGNORE TRUE
max_scf_cycles 200

XC_GRID 000099000590
BASIS DEF2-QZVPPD


$end










