$molecule
1 1
  C   -3.167180575  -0.588273807  -0.772306193
  C   -1.851108021  -0.774012663  -1.050491518
  N   -1.134380285  -0.085828452  -0.098201041
  H   -0.094331637  -0.016480546  -0.014375535
  C   -1.971762638   0.505347377   0.740634761
  N   -3.214108972   0.213109063   0.349185427
  H   -4.052671449  -0.946703307  -1.261019126
  H   -1.376351158  -1.330951994  -1.835176159
  H   -1.697491389   1.110898374   1.584423744
  H   -4.052201635   0.532899629   0.808414803
$end


$rem
N_FROZEN_CORE FC
MEM_TOTAL 3750
MEM_STATIC 1500
AUX_BASIS_CORR rimp2-def2-QZVPPD
SCF_CONVERGENCE 7
SCF_ALGORITHM  GDM
method DSD-PBEPBE-D3
GEN_SCFMAN TRUE
UNRESTRICTED True
THRESH  14
SYMMETRY FALSE
SYM_IGNORE TRUE
max_scf_cycles 200

XC_GRID 000099000590
BASIS DEF2-QZVPPD


$end










