$molecule
0 1
  H    0.584554180  -0.494460851   4.256615987
  H    0.664822553   1.239469666   4.090012114
  H    1.873168388   0.225393535   3.243923180
  H   -1.166029970   0.306965615   2.627213668
  C    0.835251132   0.303100941   3.552428451
  C   -0.090256447   0.234866453   2.396717004
  O    0.267118181   0.107016050   1.240300416
$end


$rem
N_FROZEN_CORE FC
MEM_TOTAL 3750
MEM_STATIC 1500
AUX_BASIS_CORR rimp2-def2-QZVPPD
SCF_CONVERGENCE 7
SCF_ALGORITHM  GDM
method DSD-PBEPBE-D3
GEN_SCFMAN TRUE
UNRESTRICTED True
THRESH  14
SYMMETRY FALSE
SYM_IGNORE TRUE
max_scf_cycles 200

XC_GRID 000099000590
BASIS DEF2-QZVPPD


$end










