$molecule
0 1
  O   -0.416065911   1.263364664  -3.837673656
  H   -0.387869382   1.170602736  -2.851271626
  C    0.416057207   0.261513143  -4.373417995
  H    0.006342764  -0.072122424  -5.333316212
  H    1.435549952   0.632295940  -4.562665090
  H    0.489646125  -0.596890578  -3.701451459
$end


$rem
N_FROZEN_CORE FC
MEM_TOTAL 3750
MEM_STATIC 1500
AUX_BASIS_CORR rimp2-def2-QZVPPD
SCF_CONVERGENCE 7
SCF_ALGORITHM  GDM
method DSD-PBEPBE-D3
GEN_SCFMAN TRUE
UNRESTRICTED True
THRESH  14
SYMMETRY FALSE
SYM_IGNORE TRUE
max_scf_cycles 200

XC_GRID 000099000590
BASIS DEF2-QZVPPD


$end










