$molecule
1 1
  N    0.000001655   0.000001458   2.921046025
  H    0.000001416   0.000000806   1.835940144
  H    0.958437807   0.000001146   3.267461025
  H   -0.479215840  -0.830028562   3.267461882
  H   -0.479215984   0.830031278   3.267461868
$end


$rem
N_FROZEN_CORE FC
MEM_TOTAL 3750
MEM_STATIC 1500
AUX_BASIS_CORR rimp2-def2-QZVPPD
SCF_CONVERGENCE 7
SCF_ALGORITHM  GDM
method DSD-PBEPBE-D3
GEN_SCFMAN TRUE
UNRESTRICTED True
THRESH  14
SYMMETRY FALSE
SYM_IGNORE TRUE
max_scf_cycles 200

XC_GRID 000099000590
BASIS DEF2-QZVPPD


$end










