$molecule
0 1
  H    1.010600782   0.550461831   4.285073411
  H   -0.558748391  -0.278122735   4.393633830
  H    0.930255057  -1.221299217   4.160255034
  C    0.144017848  -0.097324311   1.369896757
  N    0.268333474  -0.183257300   2.513739892
  C    0.422109745  -0.289620647   3.925566730
$end


$rem
N_FROZEN_CORE FC
MEM_TOTAL 3750
MEM_STATIC 1500
AUX_BASIS_CORR rimp2-def2-QZVPPD
SCF_CONVERGENCE 7
SCF_ALGORITHM  GDM
method DSD-PBEPBE-D3
GEN_SCFMAN TRUE
UNRESTRICTED True
THRESH  14
SYMMETRY FALSE
SYM_IGNORE TRUE
max_scf_cycles 200

XC_GRID 000099000590
BASIS DEF2-QZVPPD


$end










