$molecule
1 1
  N   -2.132812305   0.442491127  -0.199753587
  C   -2.402596161  -0.803755983   0.169873633
  N   -1.396226795  -1.620635958   0.457018582
  N   -3.666282178  -1.228156300   0.253930360
  H   -1.162902778   0.731089719  -0.261802695
  H   -2.861106695   1.091311128  -0.434284223
  H   -0.448347621  -1.270398784   0.375023274
  H   -1.553146251  -2.571480807   0.735681802
  H   -4.436157561  -0.619843315   0.042159745
  H   -3.883720033  -2.167646522   0.532638697
$end


$rem
N_FROZEN_CORE FC
MEM_TOTAL 3750
MEM_STATIC 1500
AUX_BASIS_CORR rimp2-def2-QZVPPD
SCF_CONVERGENCE 7
SCF_ALGORITHM  GDM
method DSD-PBEPBE-D3
GEN_SCFMAN TRUE
UNRESTRICTED True
THRESH  14
SYMMETRY FALSE
SYM_IGNORE TRUE
max_scf_cycles 200

XC_GRID 000099000590
BASIS DEF2-QZVPPD


$end










