$molecule
0 1
  H   -0.692958950   0.610258653   3.777513027
  H    0.723591231   1.586726176   3.475740645
  H    0.926080389  -0.200311747   3.699161675
  C    0.295008122   0.595137561   3.310797478
  N    0.071634283   0.476681406   1.878906687
  O    0.616458079  -0.473262259   1.362262909
$end


$rem
N_FROZEN_CORE FC
MEM_TOTAL 3750
MEM_STATIC 1500
AUX_BASIS_CORR rimp2-def2-QZVPPD
SCF_CONVERGENCE 7
SCF_ALGORITHM  GDM
method DSD-PBEPBE-D3
GEN_SCFMAN TRUE
UNRESTRICTED True
THRESH  14
SYMMETRY FALSE
SYM_IGNORE TRUE
max_scf_cycles 200

XC_GRID 000099000590
BASIS DEF2-QZVPPD


$end










