$molecule
0 1
  C    3.755731830  -0.940607550   0.039806116
  O    3.614006326  -0.914256298   1.248939312
  O    2.862841721  -0.618955711  -0.858060317
  H    1.905231997  -0.323266571  -0.481378789
  C    5.066462187  -1.379547067  -0.600170572
  H    5.798266000  -1.616075190   0.167043244
  H    4.891768375  -2.253368636  -1.228055777
  H    5.446487099  -0.588681445  -1.246929774
$end


$rem
N_FROZEN_CORE FC
MEM_TOTAL 3750
MEM_STATIC 1500
AUX_BASIS_CORR rimp2-def2-QZVPPD
SCF_CONVERGENCE 7
SCF_ALGORITHM  GDM
method DSD-PBEPBE-D3
GEN_SCFMAN TRUE
UNRESTRICTED True
THRESH  14
SYMMETRY FALSE
SYM_IGNORE TRUE
max_scf_cycles 200

XC_GRID 000099000590
BASIS DEF2-QZVPPD


$end










