$molecule
0 1
  N   -0.449046620   0.118595431   1.910229443
  H   -1.069111059  -0.610845709   2.245337241
  H   -0.886713301   0.990920802   2.186557440
  C    0.868529823  -0.006962053   2.574820624
  H    1.521826314   0.792139197   2.231793361
  H    0.802923990   0.044993296   3.660669215
  H    1.318779317  -0.958964795   2.303150837
$end


$rem
N_FROZEN_CORE FC
MEM_TOTAL 3750
MEM_STATIC 1500
AUX_BASIS_CORR rimp2-def2-QZVPPD
SCF_CONVERGENCE 7
SCF_ALGORITHM  GDM
method DSD-PBEPBE-D3
GEN_SCFMAN TRUE
UNRESTRICTED True
THRESH  14
SYMMETRY FALSE
SYM_IGNORE TRUE
max_scf_cycles 200

XC_GRID 000099000590
BASIS DEF2-QZVPPD


$end










