$molecule
0 1
  H    4.955450910   0.940646750   0.398699491
  H    4.688883388   0.096336744   1.939987786
  H    4.970001347  -0.836280211   0.453124759
  C    1.983416397   0.027348281   0.407616169
  N    3.118591661   0.042866839   0.614102195
  C    4.519323424   0.062059777   0.866931124
$end


$rem
N_FROZEN_CORE FC
MEM_TOTAL 3750
MEM_STATIC 1500
AUX_BASIS_CORR rimp2-def2-QZVPPD
SCF_CONVERGENCE 7
SCF_ALGORITHM  GDM
method DSD-PBEPBE-D3
GEN_SCFMAN TRUE
UNRESTRICTED True
THRESH  14
SYMMETRY FALSE
SYM_IGNORE TRUE
max_scf_cycles 200

XC_GRID 000099000590
BASIS DEF2-QZVPPD


$end










