$molecule
0 1
  H    1.801140888   0.012289167   1.829138234
  H    0.957720430   0.585482778   3.269059868
  H    1.138863371   1.652145010   1.867537506
  H   -1.036863285   0.739224459   1.872537137
  H   -1.568528422  -1.547092102   1.632798441
  H    0.157722578  -1.929666674   1.686710627
  H   -0.651423027  -1.315878848   3.129574705
  C    0.970040445   0.623357918   2.178080334
  N   -0.283803246   0.122777323   1.588204947
  C   -0.607864073  -1.241166385   2.041298667
$end


$rem
N_FROZEN_CORE FC
MEM_TOTAL 3750
MEM_STATIC 1500
AUX_BASIS_CORR rimp2-def2-QZVPPD
SCF_CONVERGENCE 7
SCF_ALGORITHM  GDM
method DSD-PBEPBE-D3
GEN_SCFMAN TRUE
UNRESTRICTED True
THRESH  14
SYMMETRY FALSE
SYM_IGNORE TRUE
max_scf_cycles 200

XC_GRID 000099000590
BASIS DEF2-QZVPPD


$end










