$molecule
1 1
  C    0.929048510  -1.190929560  -2.140703908
  N   -0.107011514  -0.183477542  -1.775867337
  H   -0.074781141  -0.050508839  -0.743449558
  C    0.174920201   1.146316869  -2.391004161
  C   -1.481661611  -0.660692668  -2.105905192
  H    1.903008141  -0.821162226  -1.835994944
  H    0.912436370  -1.345768733  -3.215695095
  H    0.709461226  -2.123156572  -1.629921265
  H    1.162373180   1.474013966  -2.082295085
  H   -0.571587939   1.854806411  -2.047608933
  H    0.134122355   1.053332250  -3.472476366
  H   -1.658174263  -1.602696327  -1.596782893
  H   -1.561987008  -0.796795659  -3.180574081
  H   -2.198592900   0.079996407  -1.767497333
$end


$rem
N_FROZEN_CORE FC
MEM_TOTAL 3750
MEM_STATIC 1500
AUX_BASIS_CORR rimp2-def2-QZVPPD
SCF_CONVERGENCE 7
SCF_ALGORITHM  GDM
method DSD-PBEPBE-D3
GEN_SCFMAN TRUE
UNRESTRICTED True
THRESH  14
SYMMETRY FALSE
SYM_IGNORE TRUE
max_scf_cycles 200

XC_GRID 000099000590
BASIS DEF2-QZVPPD


$end










