$molecule
0 1
  N   -1.310918316   3.185548960   0.254764294
  H   -0.969764711   2.646200090  -0.552684681
  H   -0.918223695   2.557446092   0.968522390
  H   -2.306494690   2.974871234   0.276112173
$end


$rem
N_FROZEN_CORE FC
MEM_TOTAL 3750
MEM_STATIC 1500
AUX_BASIS_CORR rimp2-def2-QZVPPD
SCF_CONVERGENCE 7
SCF_ALGORITHM  GDM
method DSD-PBEPBE-D3
GEN_SCFMAN TRUE
UNRESTRICTED True
THRESH  14
SYMMETRY FALSE
SYM_IGNORE TRUE
max_scf_cycles 200

XC_GRID 000099000590
BASIS DEF2-QZVPPD


$end










