$molecule
1 1
  N   -2.041123496   1.328285495  -2.089030747
  H   -1.459924376   2.156768699  -2.198412099
  H   -2.152529334   0.878229328  -2.995399263
  H   -2.957531985   1.608053495  -1.744930148
  H   -1.568140965   0.635238385  -1.379955620
$end


$rem
N_FROZEN_CORE FC
MEM_TOTAL 3750
MEM_STATIC 1500
AUX_BASIS_CORR rimp2-def2-QZVPPD
SCF_CONVERGENCE 7
SCF_ALGORITHM  GDM
method DSD-PBEPBE-D3
GEN_SCFMAN TRUE
UNRESTRICTED True
THRESH  14
SYMMETRY FALSE
SYM_IGNORE TRUE
max_scf_cycles 200

XC_GRID 000099000590
BASIS DEF2-QZVPPD


$end










