$molecule
-1 1
  N    0.591596245  -0.696197655   0.815278101
  O   -0.646892830  -0.415996192   0.808536300
  O    1.352606283  -0.143805922  -0.008935388
  O    1.028094496  -1.518325919   1.641960553
$end


$rem
N_FROZEN_CORE FC
MEM_TOTAL 3750
MEM_STATIC 1500
AUX_BASIS_CORR rimp2-def2-QZVPPD
SCF_CONVERGENCE 7
SCF_ALGORITHM  GDM
method DSD-PBEPBE-D3
GEN_SCFMAN TRUE
UNRESTRICTED True
THRESH  14
SYMMETRY FALSE
SYM_IGNORE TRUE
max_scf_cycles 200

XC_GRID 000099000590
BASIS DEF2-QZVPPD


$end










