$molecule
1 1
  N   -1.171055239   0.883129879  -0.190652445
  C   -1.704290407  -0.334625344  -0.191792459
  N   -0.921194994  -1.395663920  -0.039211169
  N   -3.021699643  -0.488814065  -0.345769017
  H   -0.167974861   1.014121178  -0.074331560
  H   -1.747525618   1.697143282  -0.304753574
  H    0.082349306  -1.283235598   0.078306946
  H   -1.301823063  -2.324766949  -0.036922587
  H   -3.630755306   0.300698603  -0.462391235
  H   -3.444135661  -1.399647346  -0.349245911
  H    2.975843054   2.022395857   1.142243941
  H    3.189254903   1.930297224  -0.593961391
  H    3.908963914   0.635893956   0.446820802
  C    3.079704481   1.324435925   0.308373842
  N    1.807005519   0.624512752   0.189058605
  O    1.871800154  -0.576062053   0.260688454
$end


$rem
N_FROZEN_CORE FC
MEM_TOTAL 7500
MEM_STATIC 3000
AUX_BASIS_CORR rimp2-def2-QZVPPD
SCF_CONVERGENCE 7
SCF_ALGORITHM  GDM
method DSD-PBEPBE-D3
GEN_SCFMAN TRUE
UNRESTRICTED True
THRESH  14
SYMMETRY FALSE
SYM_IGNORE TRUE
max_scf_cycles 200

XC_GRID 000099000590
BASIS DEF2-QZVPPD


$end










