$molecule
1 1
  N    2.231143973   0.276883603   0.009597670
  H    1.142933021   0.144899817   0.004738936
  H    2.624771614  -0.011497764  -0.884633725
  H    2.650232365  -0.282448762   0.750712995
  H    2.466361632   1.255068860   0.169281120
$end


$rem
N_FROZEN_CORE FC
MEM_TOTAL 3750
MEM_STATIC 1500
AUX_BASIS_CORR rimp2-def2-QZVPPD
SCF_CONVERGENCE 7
SCF_ALGORITHM  GDM
method DSD-PBEPBE-D3
GEN_SCFMAN TRUE
UNRESTRICTED True
THRESH  14
SYMMETRY FALSE
SYM_IGNORE TRUE
max_scf_cycles 200

XC_GRID 000099000590
BASIS DEF2-QZVPPD


$end










