$molecule
0 1
  H   -1.120795091  -0.374550344   1.532828578
  H    0.093921493  -1.850146516   3.498516290
  H    2.613937650  -2.324395522   2.587993638
  H    2.753821875  -1.116358961   0.157205514
  N    0.739736946  -0.571364763   0.564864947
  C   -0.125907820  -0.779096767   1.592351951
  C    0.517690796  -1.524195920   2.563038967
  C    1.834848578  -1.772559995   2.088074335
  C    1.931562536  -1.166522302   0.849409007
  H    0.499083290  -0.030246327  -0.304008844
$end


$rem
N_FROZEN_CORE FC
MEM_TOTAL 3750
MEM_STATIC 1500
AUX_BASIS_CORR rimp2-def2-QZVPPD
SCF_CONVERGENCE 7
SCF_ALGORITHM  GDM
method DSD-PBEPBE-D3
GEN_SCFMAN TRUE
UNRESTRICTED True
THRESH  14
SYMMETRY FALSE
SYM_IGNORE TRUE
max_scf_cycles 200

XC_GRID 000099000590
BASIS DEF2-QZVPPD


$end










