$molecule
0 1
  H    4.207005654   0.964248791  -0.955092891
  H    4.399528745  -0.389859002   0.174877134
  H    4.163675835   1.255774790   0.794377708
  C    3.891657392   0.557861881   0.004377079
  C    2.457063572   0.352813809   0.003090022
  N    1.321871591   0.190658975   0.002204737
$end


$rem
N_FROZEN_CORE FC
MEM_TOTAL 3750
MEM_STATIC 1500
AUX_BASIS_CORR rimp2-def2-QZVPPD
SCF_CONVERGENCE 7
SCF_ALGORITHM  GDM
method DSD-PBEPBE-D3
GEN_SCFMAN TRUE
UNRESTRICTED True
THRESH  14
SYMMETRY FALSE
SYM_IGNORE TRUE
max_scf_cycles 200

XC_GRID 000099000590
BASIS DEF2-QZVPPD


$end










