$molecule
1 1
  N   -0.148694578  -3.409567599   0.000000000
  H   -0.087922926  -2.332489211   0.000000000
  H    0.789060482  -3.807883208   0.000000000
  H   -0.645553072  -3.729173637  -0.829916654
  H   -0.645553072  -3.729173637   0.829916654
  H   -1.180310283   2.173523774   0.900143993
  H   -0.083380542   3.266202304   0.000000000
  H   -1.180310283   2.173523774  -0.900143993
  C   -0.590786840   2.311126999   0.000000000
  O    0.508282108   1.317081192   0.000000000
  C    0.215150620   0.094950368   0.000000000
  N    0.009350269  -1.040867194   0.000000000
$end


$rem
N_FROZEN_CORE FC
MEM_TOTAL 3750
MEM_STATIC 1500
AUX_BASIS_CORR rimp2-def2-QZVPPD
SCF_CONVERGENCE 7
SCF_ALGORITHM  GDM
method DSD-PBEPBE-D3
GEN_SCFMAN TRUE
UNRESTRICTED True
THRESH  14
SYMMETRY FALSE
SYM_IGNORE TRUE
max_scf_cycles 200

XC_GRID 000099000590
BASIS DEF2-QZVPPD


$end










