$molecule
-1 1
  C   -0.313090648   2.280859521  -0.000249007
  C    0.040978085   0.764513376   0.000848184
  O   -0.948417325  -0.008500964   0.002959398
  O    1.257135750   0.473407056  -0.000620861
  H   -0.919280145   2.512387289  -0.878903952
  H    0.581977244   2.902727358  -0.000722776
  H   -0.919547765   2.513846076   0.877822131
$end


$rem
N_FROZEN_CORE FC
MEM_TOTAL 3750
MEM_STATIC 1500
AUX_BASIS_CORR rimp2-def2-QZVPPD
SCF_CONVERGENCE 7
SCF_ALGORITHM  GDM
method DSD-PBEPBE-D3
GEN_SCFMAN TRUE
UNRESTRICTED True
THRESH  14
SYMMETRY FALSE
SYM_IGNORE TRUE
max_scf_cycles 200

XC_GRID 000099000590
BASIS DEF2-QZVPPD


$end










