$molecule
0 1
  N   -0.000030746   2.442408530   0.000009941
  H   -0.468013888   2.831866918  -0.811926306
  H   -0.469199550   2.831862021   0.811263730
  H    0.937117504   2.831867982   0.000695298
$end


$rem
N_FROZEN_CORE FC
MEM_TOTAL 3750
MEM_STATIC 1500
AUX_BASIS_CORR rimp2-def2-QZVPPD
SCF_CONVERGENCE 7
SCF_ALGORITHM  GDM
method DSD-PBEPBE-D3
GEN_SCFMAN TRUE
UNRESTRICTED True
THRESH  14
SYMMETRY FALSE
SYM_IGNORE TRUE
max_scf_cycles 200

XC_GRID 000099000590
BASIS DEF2-QZVPPD


$end










