$molecule
0 1
  C   -0.692989737   0.163102537  -0.097061858
  H   -0.159641596   1.107726916  -0.020169545
  C    0.052919851  -1.007735710   0.004544526
  H    1.120271860  -0.902870022   0.154179578
  C   -0.574843107  -2.245012710  -0.086221998
  H    0.006677878  -3.155072026  -0.006985714
  C   -1.952170181  -2.320232197  -0.279125400
  H   -2.440442693  -3.284055917  -0.349734296
  C   -2.699916333  -1.152111305  -0.380987613
  H   -3.770916880  -1.207214399  -0.530978405
  C   -2.068194350   0.085909826  -0.289663283
  H   -2.652270713   0.994131355  -0.369216530
$end


$rem
N_FROZEN_CORE FC
MEM_TOTAL 3750
MEM_STATIC 1500
AUX_BASIS_CORR rimp2-def2-QZVPPD
SCF_CONVERGENCE 7
SCF_ALGORITHM  GDM
method DSD-PBEPBE-D3
GEN_SCFMAN TRUE
UNRESTRICTED True
THRESH  14
SYMMETRY FALSE
SYM_IGNORE TRUE
max_scf_cycles 200

XC_GRID 000099000590
BASIS DEF2-QZVPPD


$end










