$molecule
-1 1
  N   -1.283355997   0.114112445   0.070608761
  O   -0.484380846  -0.042716693  -0.899350404
  O   -0.829942191   0.183921351   1.235305799
  O   -2.509381591   0.196972069  -0.145205942
$end


$rem
N_FROZEN_CORE FC
MEM_TOTAL 3750
MEM_STATIC 1500
AUX_BASIS_CORR rimp2-def2-QZVPPD
SCF_CONVERGENCE 7
SCF_ALGORITHM  GDM
method DSD-PBEPBE-D3
GEN_SCFMAN TRUE
UNRESTRICTED True
THRESH  14
SYMMETRY FALSE
SYM_IGNORE TRUE
max_scf_cycles 200

XC_GRID 000099000590
BASIS DEF2-QZVPPD


$end










