$molecule
0 1
  N   -1.043610918   0.386555372   1.163729680
  H   -0.740667234  -0.166071488   0.351452759
  H   -0.769963039  -0.162777701   1.970056154
  C   -0.283092987   1.633039383   1.157198301
  H   -0.523496760   2.233947829   2.039455852
  H    0.806542127   1.501732798   1.117668308
  H   -0.563746445   2.216492118   0.279289536
$end


$rem
N_FROZEN_CORE FC
MEM_TOTAL 3750
MEM_STATIC 1500
AUX_BASIS_CORR rimp2-def2-QZVPPD
SCF_CONVERGENCE 7
SCF_ALGORITHM  GDM
method DSD-PBEPBE-D3
GEN_SCFMAN TRUE
UNRESTRICTED True
THRESH  14
SYMMETRY FALSE
SYM_IGNORE TRUE
max_scf_cycles 200

XC_GRID 000099000590
BASIS DEF2-QZVPPD


$end










