$molecule
0 1
  H    0.876949172   0.141570135  -2.886403071
  H   -0.865519769   0.143725264  -2.889663531
  H    0.002769056  -1.295930326  -2.270171674
  H    0.003886921   1.516355336  -0.963077968
  C    0.004233979  -0.212287678  -2.330581632
  C    0.002489355   0.415707479  -0.993322912
  O   -0.000371403  -0.214054866   0.053436712
$end


$rem
N_FROZEN_CORE FC
MEM_TOTAL 3750
MEM_STATIC 1500
AUX_BASIS_CORR rimp2-def2-QZVPPD
SCF_CONVERGENCE 7
SCF_ALGORITHM  GDM
method DSD-PBEPBE-D3
GEN_SCFMAN TRUE
UNRESTRICTED True
THRESH  14
SYMMETRY FALSE
SYM_IGNORE TRUE
max_scf_cycles 200

XC_GRID 000099000590
BASIS DEF2-QZVPPD


$end










