$molecule
-2 1
  C    0.065793499   0.150113546   0.008591980
  O   -0.123732431   0.781619189  -1.072434290
  O   -0.035289788   0.633750872   1.174180479
  C    0.452974782  -1.360770313  -0.106249025
  O    1.683194539  -1.626550906  -0.173792838
  O   -0.501411506  -2.184712607  -0.121325007
$end


$rem
N_FROZEN_CORE FC
MEM_TOTAL 3750
MEM_STATIC 1500
AUX_BASIS_CORR rimp2-def2-QZVPPD
SCF_CONVERGENCE 7
SCF_ALGORITHM  GDM
method DSD-PBEPBE-D3
GEN_SCFMAN TRUE
UNRESTRICTED True
THRESH  14
SYMMETRY FALSE
SYM_IGNORE TRUE
max_scf_cycles 200

XC_GRID 000099000590
BASIS DEF2-QZVPPD


$end










