$molecule
0 1
  H    4.261274185   1.494087134   1.123694871
  H    4.650161568   0.029804615   0.194590815
  H    4.335173416   1.560279422  -0.651843099
  C    1.559305917   0.359808095   0.078172634
  N    2.682737553   0.622774070   0.134846530
  C    4.067158545   0.947174199   0.204694073
$end


$rem
N_FROZEN_CORE FC
MEM_TOTAL 3750
MEM_STATIC 1500
AUX_BASIS_CORR rimp2-def2-QZVPPD
SCF_CONVERGENCE 7
SCF_ALGORITHM  GDM
method DSD-PBEPBE-D3
GEN_SCFMAN TRUE
UNRESTRICTED True
THRESH  14
SYMMETRY FALSE
SYM_IGNORE TRUE
max_scf_cycles 200

XC_GRID 000099000590
BASIS DEF2-QZVPPD


$end










