$molecule
1 1
  N   -1.929133822   0.459037490  -0.609948850
  C   -2.197525229  -0.837009658  -0.489162129
  N   -1.234922594  -1.664072962  -0.094592791
  N   -3.417540928  -1.301795048  -0.760570169
  H   -0.998437116   0.793712358  -0.399728528
  H   -2.628612518   1.115653749  -0.905286395
  H   -0.315785310  -1.293907653   0.106887082
  H   -1.397721425  -2.649144974   0.009146280
  H   -4.155607783  -0.689903545  -1.059605365
  H   -3.636180469  -2.278200056  -0.674506750
$end


$rem
N_FROZEN_CORE FC
MEM_TOTAL 3750
MEM_STATIC 1500
AUX_BASIS_CORR rimp2-def2-QZVPPD
SCF_CONVERGENCE 7
SCF_ALGORITHM  GDM
method DSD-PBEPBE-D3
GEN_SCFMAN TRUE
UNRESTRICTED True
THRESH  14
SYMMETRY FALSE
SYM_IGNORE TRUE
max_scf_cycles 200

XC_GRID 000099000590
BASIS DEF2-QZVPPD


$end










