$molecule
-1 1
  C   -1.319058717   1.445986259  -1.779501340
  H   -0.774039998   0.850829593  -1.042771288
  H   -0.616043508   2.003778256  -2.398497574
  H   -1.981623665   2.147627014  -1.272324581
  H   -1.913877877   0.791735033  -2.417190808
  C    0.244404523  -0.266709593   0.332171186
  N    0.828541162  -0.908783626   1.115209559
$end


$rem
N_FROZEN_CORE FC
MEM_TOTAL 3750
INTERNAL_STABILITY TRUE
MEM_STATIC 1500
AUX_BASIS_CORR rimp2-def2-QZVPPD
SCF_CONVERGENCE 7
SCF_ALGORITHM  GDM
method DSD-PBEPBE-D3
GEN_SCFMAN TRUE
UNRESTRICTED True
THRESH  14
SYMMETRY FALSE
SYM_IGNORE TRUE
max_scf_cycles 200

XC_GRID 000099000590
BASIS DEF2-QZVPPD


$end










