$molecule
-1 1
  H    1.522103724   0.965415335   1.673467140
  H    1.373392111   1.456151161  -0.022743118
  H    2.085283590  -0.113160783   0.382507302
  H   -0.079615452  -0.582150378  -0.353430462
  H   -2.012319786   0.316365905   0.598123232
  H   -1.107379052   1.240920607   1.811944898
  H   -1.037278444   1.708899642   0.104270647
  C    1.296726124   0.586839770   0.663516641
  N    0.023776053  -0.079751707   0.610135817
  C   -1.071234704   0.835039313   0.788192247
  O   -0.286042666  -1.474970337  -2.495819157
  H   -0.380581486  -2.426404584  -2.394252210
$end


$rem
N_FROZEN_CORE FC
MEM_TOTAL 3750
MEM_STATIC 1500
AUX_BASIS_CORR rimp2-def2-QZVPPD
SCF_CONVERGENCE 7
SCF_ALGORITHM  GDM
method DSD-PBEPBE-D3
GEN_SCFMAN TRUE
UNRESTRICTED True
THRESH  14
SYMMETRY FALSE
SYM_IGNORE TRUE
max_scf_cycles 200

XC_GRID 000099000590
BASIS DEF2-QZVPPD


$end










