$molecule
1 1
  C   -2.788826418  -0.106968193  -1.724400596
  C   -1.607361032   0.066753093  -1.078892525
  N   -1.875420468   0.000184021   0.271149080
  H   -1.165323455   0.101694354   1.018054655
  C   -3.171333065  -0.207255995   0.458218754
  N   -3.745225617  -0.275418296  -0.743998668
  H   -3.028364012  -0.127293195  -2.770201886
  H   -0.612087910   0.218954864  -1.450583339
  H   -3.671258045  -0.304779627   1.404061234
  H   -4.728783543  -0.428646997  -0.902716887
$end


$rem
N_FROZEN_CORE FC
MEM_TOTAL 3750
MEM_STATIC 1500
AUX_BASIS_CORR rimp2-def2-QZVPPD
SCF_CONVERGENCE 7
SCF_ALGORITHM  GDM
method DSD-PBEPBE-D3
GEN_SCFMAN TRUE
UNRESTRICTED True
THRESH  14
SYMMETRY FALSE
SYM_IGNORE TRUE
max_scf_cycles 200

XC_GRID 000099000590
BASIS DEF2-QZVPPD


$end










