$molecule
-1 1
  H    1.606413607   1.654006642   1.919815060
  H    1.414907764   1.694147413   0.157543133
  H    2.179090900   0.300129971   0.935033450
  H   -0.002185192  -0.301214723   0.423422865
  H   -1.935443196   0.710399715   1.211019727
  H   -0.982683281   1.912170861   2.093484080
  H   -1.021777929   1.937116471   0.320987065
  C    1.382042244   1.035472146   1.043392696
  N    0.116054793   0.355230138   1.210080029
  C   -1.002199784   1.273212070   1.203319831
  C   -0.178658487  -1.093163557  -1.034682877
  N   -0.297098235  -1.598285687  -2.080039600
$end


$rem
N_FROZEN_CORE FC
MEM_TOTAL 3750
MEM_STATIC 1500
AUX_BASIS_CORR rimp2-def2-QZVPPD
SCF_CONVERGENCE 7
SCF_ALGORITHM  GDM
method DSD-PBEPBE-D3
GEN_SCFMAN TRUE
UNRESTRICTED True
THRESH  14
SYMMETRY FALSE
SYM_IGNORE TRUE
max_scf_cycles 200

XC_GRID 000099000590
BASIS DEF2-QZVPPD


$end










