$molecule
0 1
  H   -1.155353460   1.443895779   2.719814091
  H    1.629517039  -1.195972892   1.570352588
  H    1.983481623  -0.109621751   2.935975577
  H    0.833441311  -1.412646444   3.148432227
  O   -0.291272729   0.392132251   0.869301002
  C    0.101536230   0.225367651   2.014244122
  O   -0.444586520   0.866895293   3.036591264
  C    1.209915903  -0.685787883   2.429913475
$end


$rem
N_FROZEN_CORE FC
MEM_TOTAL 3750
MEM_STATIC 1500
AUX_BASIS_CORR rimp2-def2-QZVPPD
SCF_CONVERGENCE 7
SCF_ALGORITHM  GDM
method DSD-PBEPBE-D3
GEN_SCFMAN TRUE
UNRESTRICTED True
THRESH  14
SYMMETRY FALSE
SYM_IGNORE TRUE
max_scf_cycles 200

XC_GRID 000099000590
BASIS DEF2-QZVPPD


$end










