$molecule
0 1
  H   -0.616913525   1.960557820  -0.354568490
  H   -0.991047728   3.263628929  -1.646266499
  H   -0.367718513   1.625863212  -3.390821524
  H   -0.016705554   0.383351094  -2.034194078
  C   -0.667906519   2.257008926  -1.398052674
  C   -0.333411387   1.378075539  -2.334044992
$end


$rem
N_FROZEN_CORE FC
MEM_TOTAL 3750
MEM_STATIC 1500
AUX_BASIS_CORR rimp2-def2-QZVPPD
SCF_CONVERGENCE 7
SCF_ALGORITHM  GDM
method DSD-PBEPBE-D3
GEN_SCFMAN TRUE
UNRESTRICTED True
THRESH  14
SYMMETRY FALSE
SYM_IGNORE TRUE
max_scf_cycles 200

XC_GRID 000099000590
BASIS DEF2-QZVPPD


$end










