$molecule
1 1
  N   -1.575919306   0.806143489  -0.107755840
  C   -1.977733354  -0.459476553  -0.099443963
  N   -1.063197673  -1.419310999  -0.025236019
  N   -3.276083718  -0.760941045  -0.164383235
  H   -0.582797541   0.999148534  -0.057007990
  H   -2.226620324   1.567989364  -0.162465017
  H   -0.086486150  -1.154690177   0.022760173
  H   -1.314616855  -2.390658002  -0.015614980
  H   -3.976362429  -0.043666761  -0.220856824
  H   -3.591566931  -1.714095309  -0.159012349
$end


$rem
N_FROZEN_CORE FC
MEM_TOTAL 3750
MEM_STATIC 1500
AUX_BASIS_CORR rimp2-def2-QZVPPD
SCF_CONVERGENCE 7
SCF_ALGORITHM  GDM
method DSD-PBEPBE-D3
GEN_SCFMAN TRUE
UNRESTRICTED True
THRESH  14
SYMMETRY FALSE
SYM_IGNORE TRUE
max_scf_cycles 200

XC_GRID 000099000590
BASIS DEF2-QZVPPD


$end










