$molecule
-1 1
  O   -0.191375339  -1.365037704  -1.407361054
  H   -0.103609683  -0.590928264  -0.786452397
  H   -0.135943946  -2.113683698  -0.810934482
  C    0.192839222   1.320457657   1.427471290
  N    0.070583765   0.622288025   0.499236875
$end


$rem
N_FROZEN_CORE FC
MEM_TOTAL 3750
MEM_STATIC 1500
AUX_BASIS_CORR rimp2-def2-QZVPPD
SCF_CONVERGENCE 7
SCF_ALGORITHM  GDM
method DSD-PBEPBE-D3
GEN_SCFMAN TRUE
UNRESTRICTED True
THRESH  14
SYMMETRY FALSE
SYM_IGNORE TRUE
max_scf_cycles 200

XC_GRID 000099000590
BASIS DEF2-QZVPPD


$end










