$molecule
-1 1
  O    0.631224225  -0.629608001  -0.039153587
  C   -0.274628124   0.179539116  -0.386963966
  O   -0.905833865   0.969996134   0.336697547
  C   -0.624859248   0.173680279  -1.879673536
  C   -1.609912676   1.026336549  -2.373369450
  C   -1.935494200   1.029512231  -3.724285057
  C   -1.276237566   0.175214856  -4.602986337
  C   -0.291142982  -0.679695345  -4.118763225
  C    0.030205500  -0.678374042  -2.766359942
  H   -2.105170912   1.678599428  -1.668611258
  H   -2.703075316   1.697171727  -4.095114433
  H   -1.528058940   0.175809770  -5.655772140
  H    0.225387269  -1.346760175  -4.797510206
  H    0.790864083  -1.332179702  -2.365438003
$end


$rem
N_FROZEN_CORE FC
MEM_TOTAL 7500
MEM_STATIC 3000
AUX_BASIS_CORR rimp2-def2-QZVPPD
SCF_CONVERGENCE 7
SCF_ALGORITHM  GDM
method DSD-PBEPBE-D3
GEN_SCFMAN TRUE
UNRESTRICTED True
THRESH  14
SYMMETRY FALSE
SYM_IGNORE TRUE
max_scf_cycles 200

XC_GRID 000099000590
BASIS DEF2-QZVPPD


$end










