$molecule
0 1
  H    1.396210082  -2.253354132   0.729908158
  H    2.467342223  -0.681152138  -3.107384123
  H    1.949999569  -2.609458331  -1.643189040
  H    1.906792577   1.969805860   0.209564180
  H    1.351818523  -0.680737237   2.564419411
  H    2.459895318   1.607403806  -2.162743648
  H    1.547643586   0.937638241   2.364996136
  C    2.223420039  -0.523549646  -2.067617766
  C    1.932209383  -1.605495479  -1.244966944
  C    1.623597544  -1.407460385   0.094634572
  C    1.610366241  -0.118328935   0.619610538
  C    1.910742683   0.967460532  -0.197990882
  C    2.218355859   0.761015011  -1.536546920
  N    1.152699067   0.101478417   1.954149485
$end


$rem
N_FROZEN_CORE FC
MEM_TOTAL 7500
MEM_STATIC 3000
AUX_BASIS_CORR rimp2-def2-QZVPPD
SCF_CONVERGENCE 7
SCF_ALGORITHM  GDM
method DSD-PBEPBE-D3
GEN_SCFMAN TRUE
UNRESTRICTED True
THRESH  14
SYMMETRY FALSE
SYM_IGNORE TRUE
max_scf_cycles 200

XC_GRID 000099000590
BASIS DEF2-QZVPPD


$end










