$molecule
0 1
  H   -1.027331172  -0.000000325  -2.851392952
  H    0.513662788   0.889693020  -2.851393898
  H    0.513662852  -0.889693652  -2.851394448
  C    0.000000145  -0.000000669   0.079758713
  N   -0.000000597  -0.000000754  -1.071799412
  C   -0.000001537  -0.000000464  -2.496709906
$end


$rem
N_FROZEN_CORE FC
MEM_TOTAL 3750
MEM_STATIC 1500
AUX_BASIS_CORR rimp2-def2-QZVPPD
SCF_CONVERGENCE 7
SCF_ALGORITHM  GDM
method DSD-PBEPBE-D3
GEN_SCFMAN TRUE
UNRESTRICTED True
THRESH  14
SYMMETRY FALSE
SYM_IGNORE TRUE
max_scf_cycles 200

XC_GRID 000099000590
BASIS DEF2-QZVPPD


$end










