$molecule
0 1
  H    2.975843054   2.022395857   1.142243941
  H    3.189254903   1.930297224  -0.593961391
  H    3.908963914   0.635893956   0.446820802
  C    3.079704481   1.324435925   0.308373842
  N    1.807005519   0.624512752   0.189058605
  O    1.871800154  -0.576062053   0.260688454
$end


$rem
N_FROZEN_CORE FC
MEM_TOTAL 3750
MEM_STATIC 1500
AUX_BASIS_CORR rimp2-def2-QZVPPD
SCF_CONVERGENCE 7
SCF_ALGORITHM  GDM
method DSD-PBEPBE-D3
GEN_SCFMAN TRUE
UNRESTRICTED True
THRESH  14
SYMMETRY FALSE
SYM_IGNORE TRUE
max_scf_cycles 200

XC_GRID 000099000590
BASIS DEF2-QZVPPD


$end










