$molecule
-1 1
  H   -0.616913525   1.960557820  -0.354568490
  H   -0.991047728   3.263628929  -1.646266499
  H   -0.367718513   1.625863212  -3.390821524
  H   -0.016705554   0.383351094  -2.034194078
  C   -0.667906519   2.257008926  -1.398052674
  C   -0.333411387   1.378075539  -2.334044992
  C    0.477467267  -1.859689957   1.889134656
  C    0.223617847  -0.775013170   0.804494064
  O   -0.158365128   0.343769281   1.220790144
  O    0.409934371  -1.146305947  -0.378559535
  H    0.571242440  -1.417464003   2.880850588
  H    1.370849177  -2.437332455   1.647545941
  H   -0.367472314  -2.553134532   1.895514948
$end


$rem
N_FROZEN_CORE FC
MEM_TOTAL 3750
MEM_STATIC 1500
AUX_BASIS_CORR rimp2-def2-QZVPPD
SCF_CONVERGENCE 7
SCF_ALGORITHM  GDM
method DSD-PBEPBE-D3
GEN_SCFMAN TRUE
UNRESTRICTED True
THRESH  14
SYMMETRY FALSE
SYM_IGNORE TRUE
max_scf_cycles 200

XC_GRID 000099000590
BASIS DEF2-QZVPPD


$end










