$molecule
-1 1
  C   -1.548665996   2.054002106  -2.838034723
  C   -1.084314638   1.243083970  -1.609998566
  O    0.110669204   0.825492991  -1.670785336
  O   -1.896682097   1.068042606  -0.684417620
  H   -1.461036584   1.439036288  -3.735447397
  H   -0.894342284   2.916659657  -2.975012169
  H   -2.577889236   2.389181602  -2.723395346
$end


$rem
N_FROZEN_CORE FC
MEM_TOTAL 3750
MEM_STATIC 1500
AUX_BASIS_CORR rimp2-def2-QZVPPD
SCF_CONVERGENCE 7
SCF_ALGORITHM  GDM
method DSD-PBEPBE-D3
GEN_SCFMAN TRUE
UNRESTRICTED True
THRESH  14
SYMMETRY FALSE
SYM_IGNORE TRUE
max_scf_cycles 200

XC_GRID 000099000590
BASIS DEF2-QZVPPD


$end










