$molecule
0 1
  N   -1.616937694   2.084062706  -1.212227733
  H   -0.951789432   1.617028760  -0.573061380
  H   -2.501427567   2.106033197  -0.716748279
  H   -1.751591421   1.438566987  -1.982493316
$end


$rem
N_FROZEN_CORE FC
MEM_TOTAL 3750
MEM_STATIC 1500
AUX_BASIS_CORR rimp2-def2-QZVPPD
SCF_CONVERGENCE 7
SCF_ALGORITHM  GDM
method DSD-PBEPBE-D3
GEN_SCFMAN TRUE
UNRESTRICTED True
THRESH  14
SYMMETRY FALSE
SYM_IGNORE TRUE
max_scf_cycles 200

XC_GRID 000099000590
BASIS DEF2-QZVPPD


$end










