$molecule
-2 1
  O   -0.545165845  -2.952028234  -1.200939738
  H   -0.454201379  -2.059658579  -1.607994472
  H   -0.407250553  -2.604918400  -0.289487970
  C   -0.021227622  -0.114781559  -0.046662323
  O   -0.156687671  -0.217926076  -1.302608167
  O   -0.082593198  -1.077050610   0.775916246
  C    0.242080393   1.310661482   0.533163380
  O   -0.774725025   1.983256943   0.849004311
  O    1.447758802   1.660463629   0.633194192
$end


$rem
N_FROZEN_CORE FC
MEM_TOTAL 3750
MEM_STATIC 1500
AUX_BASIS_CORR rimp2-def2-QZVPPD
SCF_CONVERGENCE 7
SCF_ALGORITHM  GDM
method DSD-PBEPBE-D3
GEN_SCFMAN TRUE
UNRESTRICTED True
THRESH  14
SYMMETRY FALSE
SYM_IGNORE TRUE
max_scf_cycles 200

XC_GRID 000099000590
BASIS DEF2-QZVPPD


$end










