$molecule
-1 1
  N    0.548704883  -0.415647689   0.469133418
  O   -0.298618193   0.406888108   0.904730697
  O    0.625597941  -0.637660402  -0.764648217
  O    1.312125740  -1.010101040   1.265700583
$end


$rem
N_FROZEN_CORE FC
MEM_TOTAL 3750
MEM_STATIC 1500
AUX_BASIS_CORR rimp2-def2-QZVPPD
SCF_CONVERGENCE 7
SCF_ALGORITHM  GDM
method DSD-PBEPBE-D3
GEN_SCFMAN TRUE
UNRESTRICTED True
THRESH  14
SYMMETRY FALSE
SYM_IGNORE TRUE
max_scf_cycles 200

XC_GRID 000099000590
BASIS DEF2-QZVPPD


$end










