$molecule
0 1
  N    2.878249139   0.132419162   0.159356036
  H    3.258952258  -0.499847631  -0.537018830
  H    3.379742592   1.007326082   0.041118932
  H    3.161779584  -0.227771088   1.064622411
$end


$rem
N_FROZEN_CORE FC
MEM_TOTAL 3750
MEM_STATIC 1500
AUX_BASIS_CORR rimp2-def2-QZVPPD
SCF_CONVERGENCE 7
SCF_ALGORITHM  GDM
method DSD-PBEPBE-D3
GEN_SCFMAN TRUE
UNRESTRICTED True
THRESH  14
SYMMETRY FALSE
SYM_IGNORE TRUE
max_scf_cycles 200

XC_GRID 000099000590
BASIS DEF2-QZVPPD


$end










