$molecule
-1 1
  H    0.002027204  -0.021501461   0.397373489
  H    0.093119714   1.859969407   0.187761670
  H    0.091226432   1.684002001  -2.252452858
  H    0.006302505  -0.150743010  -2.115377480
  C    0.048938457   0.876570562  -0.279744921
  C    0.049426579   0.808806882  -1.608707632
  O   -0.072415358  -1.337356970   1.578994901
  H   -0.214607204  -2.214401829   1.208381275
$end


$rem
N_FROZEN_CORE FC
MEM_TOTAL 3750
MEM_STATIC 1500
AUX_BASIS_CORR rimp2-def2-QZVPPD
SCF_CONVERGENCE 7
SCF_ALGORITHM  GDM
method DSD-PBEPBE-D3
GEN_SCFMAN TRUE
UNRESTRICTED True
THRESH  14
SYMMETRY FALSE
SYM_IGNORE TRUE
max_scf_cycles 200

XC_GRID 000099000590
BASIS DEF2-QZVPPD


$end










