$molecule
-1 1
  C   -3.761113154   1.155518113   1.941748415
  C   -2.444237190   0.848201934   1.204280384
  O   -1.925599183  -0.269735457   1.506408113
  O   -2.012085693   1.691139540   0.401203841
  H   -4.491714933   0.374875759   1.724203918
  H   -4.159856192   2.123922639   1.646381643
  H   -3.587829054   1.141803710   3.018905267
$end


$rem
N_FROZEN_CORE FC
MEM_TOTAL 3750
MEM_STATIC 1500
AUX_BASIS_CORR rimp2-def2-QZVPPD
SCF_CONVERGENCE 7
SCF_ALGORITHM  GDM
method DSD-PBEPBE-D3
GEN_SCFMAN TRUE
UNRESTRICTED True
THRESH  14
SYMMETRY FALSE
SYM_IGNORE TRUE
max_scf_cycles 200

XC_GRID 000099000590
BASIS DEF2-QZVPPD


$end










