$molecule
-1 1
  C    0.370582650  -1.837427018  -1.980333205
  C    0.080290667  -0.735487922  -0.927243011
  O   -0.160267873  -1.161923891   0.232637903
  O    0.106765515   0.448519750  -1.323305830
  H   -0.516095802  -2.463885810  -2.099547123
  H    1.175160900  -2.484249679  -1.625423137
  H    0.640806387  -1.407384166  -2.944051316
$end


$rem
N_FROZEN_CORE FC
MEM_TOTAL 3750
MEM_STATIC 1500
AUX_BASIS_CORR rimp2-def2-QZVPPD
SCF_CONVERGENCE 7
SCF_ALGORITHM  GDM
method DSD-PBEPBE-D3
GEN_SCFMAN TRUE
UNRESTRICTED True
THRESH  14
SYMMETRY FALSE
SYM_IGNORE TRUE
max_scf_cycles 200

XC_GRID 000099000590
BASIS DEF2-QZVPPD


$end










