$molecule
-1 1
  N    0.299087948  -0.724051383  -0.954196035
  O   -0.902127799  -0.588798012  -0.587027965
  O    0.556679947  -1.271680323  -2.046534305
  O    1.224692421  -0.306504676  -0.216835298
$end


$rem
N_FROZEN_CORE FC
MEM_TOTAL 3750
MEM_STATIC 1500
AUX_BASIS_CORR rimp2-def2-QZVPPD
SCF_CONVERGENCE 7
SCF_ALGORITHM  GDM
method DSD-PBEPBE-D3
GEN_SCFMAN TRUE
UNRESTRICTED True
THRESH  14
SYMMETRY FALSE
SYM_IGNORE TRUE
max_scf_cycles 200

XC_GRID 000099000590
BASIS DEF2-QZVPPD


$end










