$molecule
-1 1 
O          2.19829       -0.03184       -1.73615
S          1.20024        0.00791       -2.85660
C          2.28235        0.02537       -4.41650
O          0.39149       -1.22135       -2.94330
O          0.43030        1.26468       -2.88490
F          1.50161        0.02304       -5.52456
F          3.06534        1.13253       -4.44250
F          3.08168       -1.06964       -4.44764
$end


$rem
N_FROZEN_CORE FC
MEM_TOTAL 3750
MEM_STATIC 1500
AUX_BASIS_CORR rimp2-def2-QZVPPD
SCF_CONVERGENCE 7
SCF_ALGORITHM  GDM
method DSD-PBEPBE-D3
GEN_SCFMAN TRUE
UNRESTRICTED True
THRESH  14
SYMMETRY FALSE
SYM_IGNORE TRUE
max_scf_cycles 200

XC_GRID 000099000590
BASIS DEF2-QZVPPD


$end










