$molecule
-1 1 
O          2.59639        0.51211        1.05973
Cl         1.95096        0.92671        2.34949
O          2.89233        0.83017        3.45533
O          1.40416        2.29118        2.20006
O          0.78307       -0.02337        2.59336
$end


$rem
N_FROZEN_CORE FC
MEM_TOTAL 3750
MEM_STATIC 1500
AUX_BASIS_CORR rimp2-def2-QZVPPD
SCF_CONVERGENCE 7
SCF_ALGORITHM  GDM
method DSD-PBEPBE-D3
GEN_SCFMAN TRUE
UNRESTRICTED True
THRESH  14
SYMMETRY FALSE
SYM_IGNORE TRUE
max_scf_cycles 200

XC_GRID 000099000590
BASIS DEF2-QZVPPD


$end










