$molecule
-1 1 
O          2.58081       -2.06857        0.95054
C          3.23450       -1.47035        0.04833
C          3.89502       -2.35237       -1.02281
F          4.22220       -3.58134       -0.54599
O          3.37324       -0.24358       -0.11279
F          2.98328       -2.55050       -2.02741
H          4.78411       -1.89722       -1.45562
$end


$rem
N_FROZEN_CORE FC
MEM_TOTAL 3750
MEM_STATIC 1500
AUX_BASIS_CORR rimp2-def2-QZVPPD
SCF_CONVERGENCE 7
SCF_ALGORITHM  GDM
method DSD-PBEPBE-D3
GEN_SCFMAN TRUE
UNRESTRICTED True
THRESH  14
SYMMETRY FALSE
SYM_IGNORE TRUE
max_scf_cycles 200

XC_GRID 000099000590
BASIS DEF2-QZVPPD


$end










