$molecule
1 1 
C          0.79416        1.24024        1.84130
C          0.04240       -0.00063        1.36030
N          0.02009       -0.04390       -0.15631
H          0.97851       -0.04434       -0.53629
H         -0.46290       -0.88091       -0.51535
H         -0.45955        0.78595       -0.53676
H         -0.99515       -0.01571        1.71303
H          0.53360       -0.92306        1.69008
H          0.82611        1.24905        2.93716
H          1.82411        1.24870        1.46507
H          0.29774        2.16158        1.50908
$end


$rem
N_FROZEN_CORE FC
MEM_TOTAL 3750
MEM_STATIC 1500
AUX_BASIS_CORR rimp2-def2-QZVPPD
SCF_CONVERGENCE 7
SCF_ALGORITHM  GDM
method DSD-PBEPBE-D3
GEN_SCFMAN TRUE
UNRESTRICTED True
THRESH  14
SYMMETRY FALSE
SYM_IGNORE TRUE
max_scf_cycles 200

XC_GRID 000099000590
BASIS DEF2-QZVPPD


$end










