$molecule
-1 1 
O          2.44469        0.40635       -0.40888
S          3.06963        0.00682       -1.73778
C          4.14553        1.41060       -2.14827
O          3.93711       -1.17080       -1.60487
O          2.01740       -0.04825       -2.77896
H          4.63115        1.18883       -3.10488
H          3.53147        2.31408       -2.22698
H          4.89043        1.51023       -1.35167
$end


$rem
N_FROZEN_CORE FC
MEM_TOTAL 3750
MEM_STATIC 1500
AUX_BASIS_CORR rimp2-def2-QZVPPD
SCF_CONVERGENCE 7
SCF_ALGORITHM  GDM
method DSD-PBEPBE-D3
GEN_SCFMAN TRUE
UNRESTRICTED True
THRESH  14
SYMMETRY FALSE
SYM_IGNORE TRUE
max_scf_cycles 200

XC_GRID 000099000590
BASIS DEF2-QZVPPD


$end










