$molecule
-1 1 
O          2.80462       -2.05209        0.86051
C          3.45416       -1.35959        0.02862
C          4.22417       -2.21988       -1.00695
F          5.03891       -3.09750       -0.40189
O          3.53466       -0.12834       -0.07340
F          4.97310       -1.49334       -1.83814
F          3.36708       -2.92902       -1.76105
$end


$rem
N_FROZEN_CORE FC
MEM_TOTAL 3750
MEM_STATIC 1500
AUX_BASIS_CORR rimp2-def2-QZVPPD
SCF_CONVERGENCE 7
SCF_ALGORITHM  GDM
method DSD-PBEPBE-D3
GEN_SCFMAN TRUE
UNRESTRICTED True
THRESH  14
SYMMETRY FALSE
SYM_IGNORE TRUE
max_scf_cycles 200

XC_GRID 000099000590
BASIS DEF2-QZVPPD


$end










