$molecule
1 1 
C          0.63004        1.18251        2.07403
C         -0.01598       -0.08948        1.52346
N         -0.01656       -0.10766        0.00775
H          0.94185       -0.10811       -0.37223
H         -0.49955       -0.94468       -0.35129
H         -0.49621        0.72219       -0.37270
H         -1.06116       -0.17776        1.84639
H          0.51995       -0.99172        1.83695
H          0.62588        1.12661        3.16983
H          1.65755        1.28850        1.71330
H          0.05269        2.06961        1.78001
$end


$rem
N_FROZEN_CORE FC
MEM_TOTAL 3750
MEM_STATIC 1500
AUX_BASIS_CORR rimp2-def2-QZVPPD
SCF_CONVERGENCE 7
SCF_ALGORITHM  GDM
method DSD-PBEPBE-D3
GEN_SCFMAN TRUE
UNRESTRICTED True
THRESH  14
SYMMETRY FALSE
SYM_IGNORE TRUE
max_scf_cycles 200

XC_GRID 000099000590
BASIS DEF2-QZVPPD


$end










