$molecule
-1 1 
O          3.97298       -2.02259        0.29357
Cl         2.85192       -1.84894       -0.60735
O          3.11691       -2.40491       -1.93070
O          1.60869       -2.45077       -0.04085
O          2.57594       -0.33642       -0.77092
$end


$rem
N_FROZEN_CORE FC
MEM_TOTAL 3750
MEM_STATIC 1500
AUX_BASIS_CORR rimp2-def2-QZVPPD
SCF_CONVERGENCE 7
SCF_ALGORITHM  GDM
method DSD-PBEPBE-D3
GEN_SCFMAN TRUE
UNRESTRICTED True
THRESH  14
SYMMETRY FALSE
SYM_IGNORE TRUE
max_scf_cycles 200

XC_GRID 000099000590
BASIS DEF2-QZVPPD


$end










