$molecule
0 1
  P   0.16755734682596     -0.05117460875983      0.33743394008141
  Cl  -0.86778857031604      0.92106043517162     -1.07844019446937
  Cl  1.73916977096964      0.83685066901016      1.21276768629286
  Cl  -0.35893854747956     -1.90773649542195      0.88123856809510
$end


$rem
N_FROZEN_CORE FC
MEM_TOTAL 3750
MEM_STATIC 1500
AUX_BASIS_CORR rimp2-def2-QZVPPD
SCF_CONVERGENCE 7
SCF_ALGORITHM  GDM
method DSD-PBEPBE-D3
GEN_SCFMAN TRUE
UNRESTRICTED True
THRESH  14
SYMMETRY FALSE
SYM_IGNORE TRUE
max_scf_cycles 200

XC_GRID 000099000590
BASIS DEF2-QZVPPD


$end










