$molecule
0 1
  P   0.01445292791243     -0.41622743102894      0.39962371801082
  Cl  -0.22848938469538      0.69613325528434     -1.33196931924511
  Cl  -0.95286503729764      0.80926437421216      1.76297482581478
  Cl  1.99090149408059     -0.00817019846755      0.86237077541952
$end


$rem
N_FROZEN_CORE FC
MEM_TOTAL 3750
MEM_STATIC 1500
AUX_BASIS_CORR rimp2-def2-QZVPPD
SCF_CONVERGENCE 7
SCF_ALGORITHM  GDM
method DSD-PBEPBE-D3
GEN_SCFMAN TRUE
UNRESTRICTED True
THRESH  14
SYMMETRY FALSE
SYM_IGNORE TRUE
max_scf_cycles 200

XC_GRID 000099000590
BASIS DEF2-QZVPPD


$end










