$molecule
0 1
C      0.254833    -2.464693     0.472956
C     -0.019810     -1.282158     -0.277163
C     0.0000000   0.000000      0.396813
C     0.000000    0.000000      1.807892
C     0.224046    -1.207704     2.528890
C     0.410438    -2.385303      1.884643
C     0.019810    1.282158     -0.277163
C    -0.224046    1.207704       2.528890
C     -0.410438    2.385303      1.884643
C    -0.254833      2.464693      0.472956
H     0.265110     -1.157580      3.609188
H     0.621763     -3.292343       2.435710
C     -0.294591    3.716384     -0.175841
C     0.397316     1.458074       -1.629210
C     0.000000      3.835271      -1.510721
C     0.386281   2.694952      -2.230356
H     -0.533775     4.592746     0.412823
H     -0.024536     4.802300     -1.994088
H      0.697164    2.788304      -3.262156
H      0.756057     0.615336     -2.194777
C     -0.397316    -1.458074      -1.629210
H     -0.756057       -0.615336     -2.194777
C    0.294591     -3.716384      -0.175841
H     0.533775      -4.592746     0.412823
C      0.000000      -3.835271      -1.510721
H      0.024536      -4.802300      -1.994088
C    -0.386281      -2.694952       -2.230356
H       -0.697164      -2.788304     -3.262156
H         -0.621763      3.292343      2.435710
H    -0.265110       1.157580        3.609188
$end


$rem
N_FROZEN_CORE FC
MEM_TOTAL 60000
MEM_STATIC 8000
AUX_BASIS_CORR rimp2-def2-QZVPPD
SCF_CONVERGENCE 7
SCF_ALGORITHM  GDM
method DSD-PBEPBE-D3
GEN_SCFMAN TRUE
UNRESTRICTED True
THRESH  14
SYMMETRY FALSE
SYM_IGNORE TRUE
max_scf_cycles 200

XC_GRID 000099000590
BASIS DEF2-QZVPPD


$end










