$molecule
0 1
C       0.00000000       2.498579     0.496164
C      0.00000000    1.314832      -0.315154
C       0.00000000     0.000000     0.336979
C       0.00000000      0.000000     1.756332
C       0.00000000     1.204710      2.513455
C       0.00000000      2.411542      1.911682
C       0.00000000      -1.314832     -0.315154
C      0.00000000     -1.204710      2.513455
C       0.00000000     -2.411542     1.911682
C      0.00000000     -2.498579     0.496164
H      0.00000000       1.124306      3.592319
H       0.00000000     3.326248     2.489536
C       0.00000000     -3.784526      -0.084120
C       0.00000000      -1.562064      -1.711350
C       0.00000000      -3.962560      -1.441680
C       0.00000000     -2.826041     -2.255601
H       0.00000000     -4.638104      0.581390
H        0.00000000      -4.953745      -1.873599
H       0.00000000     -2.930651     -3.332290
H       0.00000000     -0.762882      -2.417658
C        0.00000000      1.562064     -1.711350
H        0.00000000     0.762882       -2.417658
C        0.00000000      3.784526     -0.084120
H       0.00000000      4.638104      0.581390
C       0.00000000        3.962560     -1.441680
H       0.00000000     4.953745      -1.873599
C       0.00000000       2.826041     -2.255601
H      0.00000000      2.930651     -3.332290
H      0.00000000      -3.326248      2.489536
H       0.00000000       -1.124306     3.592319
$end


$rem
N_FROZEN_CORE FC
MEM_TOTAL 60000
MEM_STATIC 8000
AUX_BASIS_CORR rimp2-def2-QZVPPD
SCF_CONVERGENCE 7
SCF_ALGORITHM  GDM
method DSD-PBEPBE-D3
GEN_SCFMAN TRUE
UNRESTRICTED True
THRESH  14
SYMMETRY FALSE
SYM_IGNORE TRUE
max_scf_cycles 200

XC_GRID 000099000590
BASIS DEF2-QZVPPD


$end










