$molecule
0 1
  S   0.00044952261619      0.08726674297549     -0.03315975933397
  C   1.86255083943418      0.08535150103394     -0.03476877505686
  C   -1.86599357081360      0.08918567060248     -0.03154602028199
  H   2.17733167352423     -0.90296929896764      0.27869454548116
  H   2.17186438602765      0.32070845181671     -1.04613977685283
  H   2.18054643622036      0.84545616463717      0.66858182281457
  H   -2.16695736204182     -0.16322582104497     -1.04113775071508
  H   -2.17675724217295     -0.65631741319526      0.68872424449674
  H   -2.18538736143412      1.08561931714711      0.25065106218583
$end


$rem
N_FROZEN_CORE FC
MEM_TOTAL 3750
MEM_STATIC 1500
AUX_BASIS_CORR rimp2-def2-QZVPPD
SCF_CONVERGENCE 7
SCF_ALGORITHM  GDM
method DSD-PBEPBE-D3
GEN_SCFMAN TRUE
UNRESTRICTED True
THRESH  14
SYMMETRY FALSE
SYM_IGNORE TRUE
max_scf_cycles 200

XC_GRID 000099000590
BASIS DEF2-QZVPPD


$end










