$molecule
0 1
  N   0.16702111005015     -0.04869175110382      0.34038633214099
  Cl  -0.70452113161634      0.76519309540496     -0.85508251671437
  Cl  1.49409882101621      0.69605064175585      1.07409211602673
  Cl  -0.27659879945002     -1.61355198605699      0.79360406854665
$end


$rem
N_FROZEN_CORE FC
MEM_TOTAL 3750
MEM_STATIC 1500
AUX_BASIS_CORR rimp2-def2-QZVPPD
SCF_CONVERGENCE 7
SCF_ALGORITHM  GDM
method DSD-PBEPBE-D3
GEN_SCFMAN TRUE
UNRESTRICTED True
THRESH  14
SYMMETRY FALSE
SYM_IGNORE TRUE
max_scf_cycles 200

XC_GRID 000099000590
BASIS DEF2-QZVPPD


$end










