$molecule
0 1
C  0.0000   0.0000  0.0000
H  1.0879   0.0000  0.0000
H -0.3626   1.0257  0.0000
H -0.3626  -0.5128 -0.8883
H -0.3626  -0.5128  0.8883
$end


$rem
N_FROZEN_CORE FC
MEM_TOTAL 3750
MEM_STATIC 1500
AUX_BASIS_CORR rimp2-def2-QZVPPD
SCF_CONVERGENCE 7
SCF_ALGORITHM  GDM
method DSD-PBEPBE-D3
GEN_SCFMAN TRUE
UNRESTRICTED True
THRESH  14
SYMMETRY FALSE
SYM_IGNORE TRUE
max_scf_cycles 200

XC_GRID 000099000590
BASIS AUG-PC-4


$end










