$molecule
0 1
Si 0.0000  0.0000  0.0000
H  1.4807  0.0000  0.0000
H -0.4936  1.3960  0.0000
H -0.4936 -0.6980 -1.2090
H -0.4936 -0.6980  1.2090
$end


$rem
N_FROZEN_CORE FC
MEM_TOTAL 3750
MEM_STATIC 1500
AUX_BASIS_CORR rimp2-def2-QZVPPD
SCF_CONVERGENCE 7
SCF_ALGORITHM  GDM
method DSD-PBEPBE-D3
GEN_SCFMAN TRUE
UNRESTRICTED True
THRESH  14
SYMMETRY FALSE
SYM_IGNORE TRUE
max_scf_cycles 200

XC_GRID 000099000590
BASIS AUG-PC-4


$end










