$molecule
	0 1
	C	 1.29065255	0.00000000	0.00000000
	C	 -0.16565970	0.00000000	0.00000000
	N	 -1.32291690	0.00000000	0.00000000
	H	 1.66198945	-0.51104505	-0.88515599
	H	 1.66198945	1.02209010	0.00000000
	H	 1.66198945	-0.51104505	0.88515599
$end


$rem
N_FROZEN_CORE FC
MEM_TOTAL 7500
MEM_STATIC 3000
AUX_BASIS_CORR rimp2-def2-QZVPPD
SCF_CONVERGENCE 7
SCF_ALGORITHM  GDM
method DSD-PBEPBE-D3
GEN_SCFMAN TRUE
UNRESTRICTED True
THRESH  14
SYMMETRY FALSE
SYM_IGNORE TRUE
max_scf_cycles 200

XC_GRID 000099000590
BASIS AUG-PC-4


$end










