$molecule
1 2
	C	 -0.66068393	-0.00000001	0.00000000
	C	 0.66068399	-0.00000003	0.00000000
	F	 -1.38179707	1.09731137	0.00000000
	F	 -1.38179718	-1.09731130	0.00000000
	F	 1.38179708	-1.09731136	0.00000000
	F	 1.38179713	1.09731131	0.00000000
$end


$rem
N_FROZEN_CORE FC
MEM_TOTAL 15000
MEM_STATIC 6000
AUX_BASIS_CORR rimp2-def2-QZVPPD
SCF_CONVERGENCE 7
SCF_ALGORITHM  GDM
method DSD-PBEPBE-D3
GEN_SCFMAN TRUE
UNRESTRICTED True
THRESH  14
SYMMETRY FALSE
SYM_IGNORE TRUE
max_scf_cycles 200

XC_GRID 000099000590
BASIS AUG-PC-4


$end










