$molecule
1 2
	H	 0.00000000	-1.44960861	0.00000000
	C	 0.00000000	-0.36516171	0.00000000
	F	 -0.62383948	0.10251552	1.08052168
	F	 1.24767896	0.10251552	0.00000000
	F	 -0.62383948	0.10251552	-1.08052168
$end


$rem
N_FROZEN_CORE FC
MEM_TOTAL 7500
MEM_STATIC 3000
AUX_BASIS_CORR rimp2-def2-QZVPPD
SCF_CONVERGENCE 7
SCF_ALGORITHM  GDM
method DSD-PBEPBE-D3
GEN_SCFMAN TRUE
UNRESTRICTED True
THRESH  14
SYMMETRY FALSE
SYM_IGNORE TRUE
max_scf_cycles 200

XC_GRID 000099000590
BASIS AUG-PC-4


$end










