$molecule
	0 1
	C	 -0.74254806	-0.00000000	0.00000000
	F	 0.64271928	0.00000000	0.00000000
	H	 -1.09147956	1.03065193	0.00000000
	H	 -1.09147956	-0.51532596	-0.89257075
	H	 -1.09147956	-0.51532596	0.89257075
$end


$rem
N_FROZEN_CORE FC
MEM_TOTAL 3750
MEM_STATIC 1500
AUX_BASIS_CORR rimp2-def2-QZVPPD
SCF_CONVERGENCE 7
SCF_ALGORITHM  GDM
method DSD-PBEPBE-D3
GEN_SCFMAN TRUE
UNRESTRICTED True
THRESH  14
SYMMETRY FALSE
SYM_IGNORE TRUE
max_scf_cycles 200

XC_GRID 000099000590
BASIS AUG-PC-4


$end










