$molecule
1 2
	SI	 0.00000000	0.00000000	0.00000000
	F	 -0.90402345	-0.90402345	0.90402345
	F	 0.90402345	0.90402345	0.90402345
	F	 0.90402345	-0.90402345	-0.90402345
	F	 -0.90402345	0.90402345	-0.90402345
$end


$rem
N_FROZEN_CORE FC
MEM_TOTAL 7500
MEM_STATIC 3000
AUX_BASIS_CORR rimp2-def2-QZVPPD
SCF_CONVERGENCE 7
SCF_ALGORITHM  GDM
method DSD-PBEPBE-D3
GEN_SCFMAN TRUE
UNRESTRICTED True
THRESH  14
SYMMETRY FALSE
SYM_IGNORE TRUE
max_scf_cycles 200

XC_GRID 000099000590
BASIS AUG-PC-4


$end










