$molecule
1 2
	C	 0.00000000	-0.66267334	0.64018808
	C	 0.00000000	0.66267334	0.64018808
	F	 0.00000000	-1.37932429	-0.48649498
	F	 0.00000000	1.37932429	-0.48649498
	H	 0.00000000	-1.23835902	1.54825403
	H	 0.00000000	1.23835902	1.54825403
$end


$rem
N_FROZEN_CORE FC
MEM_TOTAL 7500
MEM_STATIC 3000
AUX_BASIS_CORR rimp2-def2-QZVPPD
SCF_CONVERGENCE 7
SCF_ALGORITHM  GDM
method DSD-PBEPBE-D3
GEN_SCFMAN TRUE
UNRESTRICTED True
THRESH  14
SYMMETRY FALSE
SYM_IGNORE TRUE
max_scf_cycles 200

XC_GRID 000099000590
BASIS AUG-PC-4


$end










