$molecule
1 2
	C	 0.00000000	0.00000000	0.14544941
	C	 0.00000000	0.00000000	1.46383743
	H	 0.93613840	0.00000000	1.98952393
	H	 -0.93613840	0.00000000	1.98952393
	F	 1.07698192	0.00000000	-0.61377869
	F	 -1.07698192	0.00000000	-0.61377869
$end


$rem
N_FROZEN_CORE FC
MEM_TOTAL 7500
MEM_STATIC 3000
AUX_BASIS_CORR rimp2-def2-QZVPPD
SCF_CONVERGENCE 7
SCF_ALGORITHM  GDM
method DSD-PBEPBE-D3
GEN_SCFMAN TRUE
UNRESTRICTED True
THRESH  14
SYMMETRY FALSE
SYM_IGNORE TRUE
max_scf_cycles 200

XC_GRID 000099000590
BASIS AUG-PC-4


$end










