$molecule
	0 1
	S	 0.00000000	0.00000000	-0.51821825
	C	 0.00000000	0.00000000	1.09971843
	H	 0.91860360	0.00000000	1.67285433
	H	 -0.91860360	0.00000000	1.67285433
$end


$rem
N_FROZEN_CORE FC
MEM_TOTAL 3750
MEM_STATIC 1500
AUX_BASIS_CORR rimp2-def2-QZVPPD
SCF_CONVERGENCE 7
SCF_ALGORITHM  GDM
method DSD-PBEPBE-D3
GEN_SCFMAN TRUE
UNRESTRICTED True
THRESH  14
SYMMETRY FALSE
SYM_IGNORE TRUE
max_scf_cycles 200

XC_GRID 000099000590
BASIS AUG-PC-4


$end










