$molecule
1 2
	C	 0.08802253	0.40591907	0.00000000
	O	 1.13343994	-0.20735250	0.00000000
	N	 -1.14322368	-0.16383173	0.00000000
	H	 0.04173838	1.50181047	0.00000000
	H	 -1.22107263	-1.16437020	0.00000000
	H	 -1.97289855	0.39651940	0.00000000
$end


$rem
N_FROZEN_CORE FC
MEM_TOTAL 7500
MEM_STATIC 3000
AUX_BASIS_CORR rimp2-def2-QZVPPD
SCF_CONVERGENCE 7
SCF_ALGORITHM  GDM
method DSD-PBEPBE-D3
GEN_SCFMAN TRUE
UNRESTRICTED True
THRESH  14
SYMMETRY FALSE
SYM_IGNORE TRUE
max_scf_cycles 200

XC_GRID 000200000974
BASIS AUG-PC-4
SCF_GUESS_MIX = 3
SCF_GUESS SADMO
$end










