$molecule
1 2
	C	 -1.21641504	0.00000000	0.00000000
	N	 0.20443540	0.00000000	0.00000000
	C	 1.37553228	0.00000000	0.00000000
	H	 -1.57835935	1.02499264	0.00000000
	H	 -1.57835935	-0.51249632	-0.88766966
	H	 -1.57835935	-0.51249632	0.88766966
$end


$rem
N_FROZEN_CORE FC
MEM_TOTAL 7500
MEM_STATIC 3000
AUX_BASIS_CORR rimp2-def2-QZVPPD
SCF_CONVERGENCE 7
SCF_ALGORITHM  GDM
method DSD-PBEPBE-D3
GEN_SCFMAN TRUE
UNRESTRICTED True
THRESH  14
SYMMETRY FALSE
SYM_IGNORE TRUE
max_scf_cycles 200

XC_GRID 000099000590
BASIS AUG-PC-4


$end










