$molecule
1 2
	C	 -0.76210497	-0.00000000	0.00000000
	C	 0.76210497	0.00000000	0.00000000
	H	 -1.15566424	1.01691775	0.00000000
	H	 -1.15566424	-0.50845887	0.88067660
	H	 -1.15566424	-0.50845887	-0.88067660
	H	 1.15566424	-1.01691775	0.00000000
	H	 1.15566424	0.50845887	-0.88067660
	H	 1.15566424	0.50845887	0.88067660
$end


$rem
N_FROZEN_CORE FC
MEM_TOTAL 15000
MEM_STATIC 6000
AUX_BASIS_CORR rimp2-def2-QZVPPD
SCF_CONVERGENCE 7
SCF_ALGORITHM  GDM
method DSD-PBEPBE-D3
GEN_SCFMAN TRUE
UNRESTRICTED True
THRESH  14
SYMMETRY FALSE
SYM_IGNORE TRUE
max_scf_cycles 200

XC_GRID 000099000590
BASIS AUG-PC-4


$end










