$molecule
	0 1
	F	 0.00000000	-1.31718286	0.00000000
	C	 0.00000000	0.00001714	0.00000000
	F	 -0.62093871	0.43905735	1.07549740
	F	 1.24187742	0.43905735	0.00000000
	F	 -0.62093871	0.43905735	-1.07549740
$end


$rem
N_FROZEN_CORE FC
MEM_TOTAL 7500
MEM_STATIC 3000
AUX_BASIS_CORR rimp2-def2-QZVPPD
SCF_CONVERGENCE 7
SCF_ALGORITHM  GDM
method DSD-PBEPBE-D3
GEN_SCFMAN TRUE
UNRESTRICTED True
THRESH  14
SYMMETRY FALSE
SYM_IGNORE TRUE
max_scf_cycles 200

XC_GRID 000099000590
BASIS AUG-PC-4


$end










