$molecule
1 2
	C	 -0.00000644	-1.30311501	0.00000000
	C	 -0.00000205	0.15588499	0.00000000
	C	 0.00000158	1.36188499	0.00000000
	H	 0.00000478	2.41788499	0.00000000
	H	 1.04649249	-1.65791816	0.00000000
	H	 -0.52320751	-1.65791343	0.90630000
	H	 -0.52320751	-1.65791343	-0.90630000
$end


$rem
N_FROZEN_CORE FC
MEM_TOTAL 15000
MEM_STATIC 6000
AUX_BASIS_CORR rimp2-def2-QZVPPD
SCF_CONVERGENCE 7
SCF_ALGORITHM  GDM
method DSD-PBEPBE-D3
GEN_SCFMAN TRUE
UNRESTRICTED True
THRESH  14
SYMMETRY FALSE
SYM_IGNORE TRUE
max_scf_cycles 200

XC_GRID 000099000590
BASIS AUG-PC-4


$end










