$molecule
	0 1
	C	 0.09893425	0.41203929	0.00000000
	O	 -1.13360115	-0.12115893	0.00000000
	O	 1.12204420	-0.21430091	0.00000000
	H	 0.02902698	1.49987199	0.00000000
	H	 -1.02360293	-1.08196361	0.00000000
$end


$rem
N_FROZEN_CORE FC
MEM_TOTAL 3750
MEM_STATIC 1500
AUX_BASIS_CORR rimp2-def2-QZVPPD
SCF_CONVERGENCE 7
SCF_ALGORITHM  GDM
method DSD-PBEPBE-D3
GEN_SCFMAN TRUE
UNRESTRICTED True
THRESH  14
SYMMETRY FALSE
SYM_IGNORE TRUE
max_scf_cycles 200

XC_GRID 000099000590
BASIS AUG-PC-4


$end










