$molecule
0 1
C  0.0  0.0  0.483025032943
N  0.0  0.0  -0.937250052972
C  0.0  0.0  -2.10375603317
H  0.512955412698  -0.888464836811  0.852660351068
H  0.512955412698  0.888464836811  0.852660351068
H  -1.0259108254  0.0  0.852660351068
$end


$rem
N_FROZEN_CORE FC
MEM_TOTAL 3750
MEM_STATIC 1500
AUX_BASIS_CORR rimp2-def2-QZVPPD
SCF_CONVERGENCE 7
SCF_ALGORITHM  GDM
method DSD-PBEPBE-D3
GEN_SCFMAN TRUE
UNRESTRICTED True
THRESH  14
SYMMETRY FALSE
SYM_IGNORE TRUE
max_scf_cycles 200

XC_GRID 000099000590
BASIS DEF2-QZVPPD


$end










