$molecule
0 1
C  1.24201080027  0.665547307902  -0.581208062002
C  1.24201080027  -0.665547307902  -0.581208062002
C  0.0  -1.12164898458  0.211500508101
C  -1.24201080027  -0.665547307902  -0.581208062002
C  -1.24201080027  0.665547307902  -0.581208062002
C  0.0  1.12164898458  0.211500508101
C  0.0  0.0  1.29565553141
H  1.93016674103  1.33333705524  -1.08006061631
H  1.93016674103  -1.33333705524  -1.08006061631
H  0.0  -2.1561918837  0.547832887565
H  -1.93016674103  -1.33333705524  -1.08006061631
H  -1.93016674103  1.33333705524  -1.08006061631
H  0.0  2.1561918837  0.547832887565
H  0.897923825177  0.0  1.91537619525
H  -0.897923825177  0.0  1.91537619525
$end


$rem
N_FROZEN_CORE FC
MEM_TOTAL 7500
MEM_STATIC 3000
AUX_BASIS_CORR rimp2-def2-QZVPPD
SCF_CONVERGENCE 7
SCF_ALGORITHM  GDM
method DSD-PBEPBE-D3
GEN_SCFMAN TRUE
UNRESTRICTED True
THRESH  14
SYMMETRY FALSE
SYM_IGNORE TRUE
max_scf_cycles 200

XC_GRID 000099000590
BASIS DEF2-QZVPPD


$end










