$molecule
0 1
O  0.112061456319  0.00047769477487  2.43884799248
C  0.67872144398  -0.00130300550065  1.3628650588
N  0.0732570925414  -0.003193183917  0.144299355238
C  -1.37592258145  -0.000301824216684  0.0411067777594
C  0.838024749509  0.000727540439465  -1.08695514905
H  1.78034599721  -0.00227940069441  1.27678724944
H  -1.79145818586  -0.0178931263279  1.04590871644
H  -1.72363328477  -0.878770749143  -0.511055035658
H  -1.72420729461  0.897602212365  -0.478929483657
H  1.90371230719  -0.00238248012164  -0.856631139701
H  0.612720686676  -0.883586864883  -1.69168846285
H  0.616377613266  0.890903187226  -1.68455587925
$end


$rem
N_FROZEN_CORE FC
MEM_TOTAL 3750
MEM_STATIC 1500
AUX_BASIS_CORR rimp2-def2-QZVPPD
SCF_CONVERGENCE 7
SCF_ALGORITHM  GDM
method DSD-PBEPBE-D3
GEN_SCFMAN TRUE
UNRESTRICTED True
THRESH  14
SYMMETRY FALSE
SYM_IGNORE TRUE
max_scf_cycles 200

XC_GRID 000099000590
BASIS DEF2-QZVPPD


$end










