$molecule
0 1
C  -0.146708414262  1.74759938324  -0.00162117875735
O  0.531794443097  0.50790814337  0.0261361466649
O  -0.531794443097  -0.50790814337  0.0261361466649
C  0.146708414262  -1.74759938324  -0.00162117875735
H  0.646750404296  2.49676143672  0.00349270782928
H  -0.747874304621  1.85229395283  -0.909806646825
H  -0.779622280309  1.87481894567  0.881798971088
H  -0.646750404296  -2.49676143672  0.00349270782928
H  0.747874304621  -1.85229395283  -0.909806646825
H  0.779622280309  -1.87481894567  0.881798971088
$end


$rem
N_FROZEN_CORE FC
MEM_TOTAL 3750
MEM_STATIC 1500
AUX_BASIS_CORR rimp2-def2-QZVPPD
SCF_CONVERGENCE 7
SCF_ALGORITHM  GDM
method DSD-PBEPBE-D3
GEN_SCFMAN TRUE
UNRESTRICTED True
THRESH  14
SYMMETRY FALSE
SYM_IGNORE TRUE
max_scf_cycles 200

XC_GRID 000099000590
BASIS DEF2-QZVPPD


$end










