$molecule
0 1
O  0.0  0.0  -1.3523316538
C  0.0  1.0390050238  -0.340266840624
C  0.0  0.0  0.797448842907
C  0.0  -1.0390050238  -0.340266840624
H  0.888049904024  1.67351010117  -0.405422984057
H  -0.888049904024  1.67351010117  -0.405422984057
H  -0.886760025729  0.0  1.42855421418
H  0.886760025729  0.0  1.42855421418
H  0.888049904024  -1.67351010117  -0.405422984057
H  -0.888049904024  -1.67351010117  -0.405422984057
$end


$rem
N_FROZEN_CORE FC
MEM_TOTAL 3750
MEM_STATIC 1500
AUX_BASIS_CORR rimp2-def2-QZVPPD
SCF_CONVERGENCE 7
SCF_ALGORITHM  GDM
method DSD-PBEPBE-D3
GEN_SCFMAN TRUE
UNRESTRICTED True
THRESH  14
SYMMETRY FALSE
SYM_IGNORE TRUE
max_scf_cycles 200

XC_GRID 000099000590
BASIS DEF2-QZVPPD


$end










