$molecule
0 1
C  -0.104104705754  0.0561226600863  -1.21675712537
N  0.689331158723  0.155819918207  0.0
C  -0.104104705754  0.0561226600863  1.21675712537
H  0.553436545997  0.0729882028204  -2.08786360406
H  -0.769653872107  0.920698308993  -1.29001718183
H  -0.730546193581  -0.850980638521  -1.27216219746
H  1.41240529217  -0.553476984964  0.0
H  -0.769653872107  0.920698308993  1.29001718183
H  0.553436545997  0.0729882028204  2.08786360406
H  -0.730546193581  -0.850980638521  1.27216219746
$end


$rem
N_FROZEN_CORE FC
MEM_TOTAL 3750
MEM_STATIC 1500
AUX_BASIS_CORR rimp2-def2-QZVPPD
SCF_CONVERGENCE 7
SCF_ALGORITHM  GDM
method DSD-PBEPBE-D3
GEN_SCFMAN TRUE
UNRESTRICTED True
THRESH  14
SYMMETRY FALSE
SYM_IGNORE TRUE
max_scf_cycles 200

XC_GRID 000099000590
BASIS DEF2-QZVPPD


$end










