$molecule
0 1
C  -0.0321557421091  0.921560114289  0.0
C  -0.034221219886  0.204942041668  -1.20418619936
C  -0.0369803235788  -1.18394032867  -1.19868940388
C  -0.0387134763433  -1.89240999758  0.0
C  -0.0369803235788  -1.18394032867  1.19868940388
C  -0.034221219886  0.204942041668  1.20418619936
N  -0.0891349574449  2.31620912877  0.0
H  -0.038051498113  0.743073237829  -2.14623793003
H  -0.0369273948564  -1.71647151098  -2.14280846124
H  -0.0400235601312  -2.97499501226  0.0
H  -0.0369273948564  -1.71647151098  2.14280846124
H  -0.038051498113  0.743073237829  2.14623793003
H  0.246194304448  2.76721444355  -0.837278430237
H  0.246194304448  2.76721444355  0.837278430237
$end


$rem
N_FROZEN_CORE FC
MEM_TOTAL 7500
MEM_STATIC 3000
AUX_BASIS_CORR rimp2-def2-QZVPPD
SCF_CONVERGENCE 7
SCF_ALGORITHM  GDM
method DSD-PBEPBE-D3
GEN_SCFMAN TRUE
UNRESTRICTED True
THRESH  14
SYMMETRY FALSE
SYM_IGNORE TRUE
max_scf_cycles 200

XC_GRID 000099000590
BASIS DEF2-QZVPPD


$end










