$molecule
0 1
C  -0.0964622170466  -0.246470050982  -0.741314217082
C  -0.0964622170466  -0.246470050982  0.741314217082
N  -0.18959715481  1.02039612838  0.0
H  -0.993956427774  -0.525487858952  -1.28088863133
H  0.831718002885  -0.486835194644  -1.24977979853
H  -0.993956427774  -0.525487858952  1.28088863133
H  0.831718002885  -0.486835194644  1.24977979853
H  0.706998438681  1.49719008078  0.0
$end


$rem
N_FROZEN_CORE FC
MEM_TOTAL 3750
MEM_STATIC 1500
AUX_BASIS_CORR rimp2-def2-QZVPPD
SCF_CONVERGENCE 7
SCF_ALGORITHM  GDM
method DSD-PBEPBE-D3
GEN_SCFMAN TRUE
UNRESTRICTED True
THRESH  14
SYMMETRY FALSE
SYM_IGNORE TRUE
max_scf_cycles 200

XC_GRID 000099000590
BASIS DEF2-QZVPPD


$end










