$molecule
0 1
C  -2.10355599496  -0.664628232139  0.0
C  -1.01429264103  0.370284909464  0.0
O  0.215206416398  -0.238267285918  0.0
C  1.34806103412  0.558334209076  0.0
C  2.54953731052  0.00433570401184  0.0
O  -1.16549927981  1.56203664828  0.0
H  -3.0717794595  -0.170815373201  0.0
H  -2.01001518934  -1.30397544771  0.879776959187
H  -2.01001518934  -1.30397544771  -0.879776959187
H  1.15096997327  1.62152175451  0.0
H  2.68397859102  -1.06939882279  0.0
H  3.42740442865  0.634547384128  0.0
$end


$rem
N_FROZEN_CORE FC
MEM_TOTAL 3750
MEM_STATIC 1500
AUX_BASIS_CORR rimp2-def2-QZVPPD
SCF_CONVERGENCE 7
SCF_ALGORITHM  GDM
method DSD-PBEPBE-D3
GEN_SCFMAN TRUE
UNRESTRICTED True
THRESH  14
SYMMETRY FALSE
SYM_IGNORE TRUE
max_scf_cycles 200

XC_GRID 000099000590
BASIS DEF2-QZVPPD


$end










