$molecule
0 1
C  -1.38876591638  -0.627585856026  1.25971458428
C  -0.727349609118  -0.0314507180796  0.0
C  0.736792525293  -0.490428095735  0.0
O  1.62197245995  0.529279085686  0.0
C  3.01247921301  0.155784706445  0.0
C  -0.878122736729  1.49559209042  0.0
C  -1.38876591638  -0.627585856026  -1.25971458428
O  1.07910826517  -1.64895972619  0.0
H  -0.941974089439  -0.222234639596  2.17099034553
H  -2.45298788052  -0.38075291637  1.26841969113
H  -1.28221425598  -1.71240463702  1.27869846961
H  3.56455166933  1.09223944329  0.0
H  3.25112026027  -0.430617229396  -0.887363220711
H  3.25112026027  -0.430617229396  0.887363220711
H  -0.419818311282  1.94585843735  0.881484500055
H  -1.94015140025  1.75341689628  0.0
H  -0.419818311282  1.94585843735  -0.881484500055
H  -1.28221425598  -1.71240463702  -1.27869846961
H  -0.941974089439  -0.222234639596  -2.17099034553
H  -2.45298788052  -0.38075291637  -1.26841969113
$end


$rem
N_FROZEN_CORE FC
MEM_TOTAL 15000
MEM_STATIC 6000
AUX_BASIS_CORR rimp2-def2-QZVPPD
SCF_CONVERGENCE 7
SCF_ALGORITHM  GDM
method DSD-PBEPBE-D3
GEN_SCFMAN TRUE
UNRESTRICTED True
THRESH  14
SYMMETRY FALSE
SYM_IGNORE TRUE
max_scf_cycles 200

XC_GRID 000099000590
BASIS DEF2-QZVPPD


$end










