$molecule
0 1
C  -0.17104259049  2.37095660715  0.189025452268
C  0.418101438772  1.18055837056  0.197424539225
C  0.0  0.0  -0.64082250045
C  -0.418101438772  -1.18055837056  0.197424539225
C  0.17104259049  -2.37095660715  0.189025452268
H  -1.02168325552  2.58106890261  -0.451608968009
H  0.175956837257  3.1811550193  0.819209606703
H  1.26514786036  1.00944791977  0.857964776981
H  0.828552356321  -0.300685705494  -1.29160415694
H  -0.828552356321  0.300685705494  -1.29160415694
H  -1.26514786036  -1.00944791977  0.857964776981
H  1.02168325552  -2.58106890261  -0.451608968009
H  -0.175956837257  -3.1811550193  0.819209606703
$end


$rem
N_FROZEN_CORE FC
MEM_TOTAL 3750
MEM_STATIC 1500
AUX_BASIS_CORR rimp2-def2-QZVPPD
SCF_CONVERGENCE 7
SCF_ALGORITHM  GDM
method DSD-PBEPBE-D3
GEN_SCFMAN TRUE
UNRESTRICTED True
THRESH  14
SYMMETRY FALSE
SYM_IGNORE TRUE
max_scf_cycles 200

XC_GRID 000099000590
BASIS DEF2-QZVPPD


$end










