$molecule
0 1
C  -1.13154351768  -0.126499265858  0.0
C  0.233041928423  0.492712311194  0.0
C  1.38054570209  -0.17642706447  0.0
H  -1.07698796933  -1.21687459582  0.0
H  -1.70535978294  0.187299696927  -0.87791421559
H  -1.70535978294  0.187299696927  0.87791421559
H  0.261846676169  1.58045989304  0.0
H  1.40734333559  -1.26159318551  0.0
H  2.33647341062  0.333622513566  0.0
$end


$rem
N_FROZEN_CORE FC
MEM_TOTAL 3750
MEM_STATIC 1500
AUX_BASIS_CORR rimp2-def2-QZVPPD
SCF_CONVERGENCE 7
SCF_ALGORITHM  GDM
method DSD-PBEPBE-D3
GEN_SCFMAN TRUE
UNRESTRICTED True
THRESH  14
SYMMETRY FALSE
SYM_IGNORE TRUE
max_scf_cycles 200

XC_GRID 000099000590
BASIS DEF2-QZVPPD


$end










