$molecule
0 1
C  0.0  0.0  -0.951225857041
C  0.0  0.0  0.504511006797
C  0.0  0.0  1.70543908343
H  -0.510194684957  -0.883683116097  -1.34212552446
H  -0.510194684957  0.883683116097  -1.34212552446
H  1.02038936991  0.0  -1.34212552446
H  0.0  0.0  2.7676523402
$end


$rem
N_FROZEN_CORE FC
MEM_TOTAL 3750
MEM_STATIC 1500
AUX_BASIS_CORR rimp2-def2-QZVPPD
SCF_CONVERGENCE 7
SCF_ALGORITHM  GDM
method DSD-PBEPBE-D3
GEN_SCFMAN TRUE
UNRESTRICTED True
THRESH  14
SYMMETRY FALSE
SYM_IGNORE TRUE
max_scf_cycles 200

XC_GRID 000099000590
BASIS DEF2-QZVPPD


$end










