$molecule
0 1
C  0.00504289182834  -0.510937120186  -1.29794327331
C  -0.018387738887  -1.88236254763  -1.06950694682
C  -0.0157829268646  -2.37129482137  0.232012388844
C  0.0111554196496  -1.47597018837  1.30059337365
C  0.032192806519  -0.108093982867  1.07070064492
C  0.0252709263722  0.402902242121  -0.235887874421
C  0.0400199312411  1.84237071269  -0.536288643588
C  -0.0471022585062  2.85536448527  0.327178507975
H  0.00356784720129  -0.136653613781  -2.31591501052
H  -0.0363063400811  -2.56791278325  -1.90849489061
H  -0.0315768491749  -3.43889924711  0.415424093355
H  0.0182680347045  -1.8488968009  2.31813801131
H  0.0607410079346  0.569359252619  1.91516954521
H  0.124123823196  2.08013765724  -1.59385610972
H  -0.145332347591  2.70965562495  1.39640362108
H  -0.0258942275416  3.88123113058  -0.0177274373477
$end


$rem
N_FROZEN_CORE FC
MEM_TOTAL 7500
MEM_STATIC 3000
AUX_BASIS_CORR rimp2-def2-QZVPPD
SCF_CONVERGENCE 7
SCF_ALGORITHM  GDM
method DSD-PBEPBE-D3
GEN_SCFMAN TRUE
UNRESTRICTED True
THRESH  14
SYMMETRY FALSE
SYM_IGNORE TRUE
max_scf_cycles 200

XC_GRID 000099000590
BASIS DEF2-QZVPPD


$end










