$molecule
0 1
C  -4.49170172115  -0.265622279699  0.0
C  -3.18736457594  0.533203279386  0.0
C  -1.93605332155  -0.349068224696  0.0
C  -0.625286270568  0.441639650422  0.0
C  0.625286270568  -0.441639650422  0.0
C  1.93605332155  0.349068224696  0.0
C  3.18736457594  -0.533203279386  0.0
C  4.49170172115  0.265622279699  0.0
H  -5.3638539561  0.392578603646  0.0
H  -4.56137898325  -0.908418720421  -0.882076981513
H  -4.56137898325  -0.908418720421  0.882076981513
H  -3.16330469597  1.19190743123  0.875419257427
H  -3.16330469597  1.19190743123  -0.875419257427
H  -1.96084612244  -1.00870869217  0.87598351409
H  -1.96084612244  -1.00870869217  -0.87598351409
H  -0.60148338863  1.10108272718  0.875984703829
H  -0.60148338863  1.10108272718  -0.875984703829
H  0.60148338863  -1.10108272718  0.875984703829
H  0.60148338863  -1.10108272718  -0.875984703829
H  1.96084612244  1.00870869217  0.87598351409
H  1.96084612244  1.00870869217  -0.87598351409
H  3.16330469597  -1.19190743123  0.875419257427
H  3.16330469597  -1.19190743123  -0.875419257427
H  4.56137898325  0.908418720421  0.882076981513
H  5.3638539561  -0.392578603646  0.0
H  4.56137898325  0.908418720421  -0.882076981513
$end


$rem
N_FROZEN_CORE FC
MEM_TOTAL 30000
INTERNAL_STABILITY TRUE
MEM_STATIC 8000
AUX_BASIS_CORR rimp2-def2-QZVPPD
SCF_CONVERGENCE 7
SCF_ALGORITHM  GDM
method DSD-PBEPBE-D3
GEN_SCFMAN TRUE
UNRESTRICTED True
THRESH  14
SYMMETRY FALSE
SYM_IGNORE TRUE
max_scf_cycles 200

XC_GRID 000099000590
BASIS DEF2-QZVPPD


$end










