$molecule
0 1
C  -0.434661022392  0.752854974853  0.0
C  -0.434661022392  -0.752854974853  0.0
C  0.869322044784  0.0  0.0
H  -0.728670991482  1.26209517925  0.909129536252
H  -0.728670991482  1.26209517925  -0.909129536252
H  -0.728670991482  -1.26209517925  0.909129536252
H  -0.728670991482  -1.26209517925  -0.909129536252
H  1.45734198296  0.0  -0.909129536252
H  1.45734198296  0.0  0.909129536252
$end


$rem
N_FROZEN_CORE FC
MEM_TOTAL 3750
MEM_STATIC 1500
AUX_BASIS_CORR rimp2-def2-QZVPPD
SCF_CONVERGENCE 7
SCF_ALGORITHM  GDM
method DSD-PBEPBE-D3
GEN_SCFMAN TRUE
UNRESTRICTED True
THRESH  14
SYMMETRY FALSE
SYM_IGNORE TRUE
max_scf_cycles 200

XC_GRID 000099000590
BASIS DEF2-QZVPPD


$end










