$molecule
0 1
O  0.0  0.0  1.49089060754
C  -1.16802055606  0.134863471664  0.666264058173
C  -0.733407190718  -0.225161078913  -0.755818391238
C  0.733407190718  0.225161078913  -0.755818391238
C  1.16802055606  -0.134863471664  0.666264058173
H  -1.94898228163  -0.520286908434  1.05862888464
H  -1.52882615941  1.16957394234  0.718316455911
H  -1.33838648486  0.268637604531  -1.51749617974
H  -0.799385799599  -1.30461017993  -0.915340131517
H  1.33838648486  -0.268637604531  -1.51749617974
H  0.799385799599  1.30461017993  -0.915340131517
H  1.52882615941  -1.16957394234  0.718316455911
H  1.94898228163  0.520286908434  1.05862888464
$end


$rem
N_FROZEN_CORE FC
MEM_TOTAL 3750
MEM_STATIC 1500
AUX_BASIS_CORR rimp2-def2-QZVPPD
SCF_CONVERGENCE 7
SCF_ALGORITHM  GDM
method DSD-PBEPBE-D3
GEN_SCFMAN TRUE
UNRESTRICTED True
THRESH  14
SYMMETRY FALSE
SYM_IGNORE TRUE
max_scf_cycles 200

XC_GRID 000099000590
BASIS DEF2-QZVPPD


$end










