$molecule
0 1
C  0.0  1.17548000712  -0.0451644605114
O  0.0  0.0  -0.828850227816
C  0.0  -1.17548000712  -0.0451644605114
H  0.0  2.02266782996  -0.730289117686
H  -0.891536472485  1.23501178771  0.594939346053
H  0.891536472485  1.23501178771  0.594939346053
H  0.0  -2.02266782996  -0.730289117686
H  -0.891536472485  -1.23501178771  0.594939346053
H  0.891536472485  -1.23501178771  0.594939346053
$end


$rem
N_FROZEN_CORE FC
MEM_TOTAL 3750
MEM_STATIC 1500
AUX_BASIS_CORR rimp2-def2-QZVPPD
SCF_CONVERGENCE 7
SCF_ALGORITHM  GDM
method DSD-PBEPBE-D3
GEN_SCFMAN TRUE
UNRESTRICTED True
THRESH  14
SYMMETRY FALSE
SYM_IGNORE TRUE
max_scf_cycles 200

XC_GRID 000099000590
BASIS DEF2-QZVPPD


$end










