$molecule
0 1
C  0.0  -0.732879934737  0.0499368713028
C  0.0  0.732879934737  0.0499368713028
O  0.0  0.0  -1.17875436005
H  -0.919045298453  -1.26905649423  0.26972015436
H  0.919045298453  -1.26905649423  0.26972015436
H  -0.919045298453  1.26905649423  0.26972015436
H  0.919045298453  1.26905649423  0.26972015436
$end


$rem
N_FROZEN_CORE FC
MEM_TOTAL 3750
MEM_STATIC 1500
AUX_BASIS_CORR rimp2-def2-QZVPPD
SCF_CONVERGENCE 7
SCF_ALGORITHM  GDM
method DSD-PBEPBE-D3
GEN_SCFMAN TRUE
UNRESTRICTED True
THRESH  14
SYMMETRY FALSE
SYM_IGNORE TRUE
max_scf_cycles 200

XC_GRID 000099000590
BASIS DEF2-QZVPPD


$end










