$molecule
0 1
C  0.962976951982  0.0802005137827  0.0
C  -0.530556596825  0.251309001132  0.0
O  -1.1695041366  -0.948465564393  0.0
O  -1.12560075713  1.29823137916  0.0
H  -2.12208779347  -0.76329792175  0.0
H  1.2722246984  -0.487168931106  -0.879723885087
H  1.2722246984  -0.487168931106  0.879723885087
H  1.44032293524  1.05636045428  0.0
$end


$rem
N_FROZEN_CORE FC
MEM_TOTAL 3750
MEM_STATIC 1500
AUX_BASIS_CORR rimp2-def2-QZVPPD
SCF_CONVERGENCE 7
SCF_ALGORITHM  GDM
method DSD-PBEPBE-D3
GEN_SCFMAN TRUE
UNRESTRICTED True
THRESH  14
SYMMETRY FALSE
SYM_IGNORE TRUE
max_scf_cycles 200

XC_GRID 000099000590
BASIS DEF2-QZVPPD


$end










