$molecule
0 1
C  -1.57845173456  -0.633191934854  0.373446395927
C  -1.57845173456  0.633191934854  -0.373446395927
C  -0.633191934854  1.57845173456  -0.373446395927
C  0.633191934854  1.57845173456  0.373446395927
C  1.57845173456  0.633191934854  0.373446395927
C  1.57845173456  -0.633191934854  -0.373446395927
C  0.633191934854  -1.57845173456  -0.373446395927
C  -0.633191934854  -1.57845173456  0.373446395927
H  -2.49315774248  -0.83882907193  0.92587555657
H  -2.49315774248  0.83882907193  -0.92587555657
H  -0.83882907193  2.49315774248  -0.92587555657
H  0.83882907193  2.49315774248  0.92587555657
H  2.49315774248  0.83882907193  0.92587555657
H  2.49315774248  -0.83882907193  -0.92587555657
H  0.83882907193  -2.49315774248  -0.92587555657
H  -0.83882907193  -2.49315774248  0.92587555657
$end


$rem
N_FROZEN_CORE FC
MEM_TOTAL 7500
MEM_STATIC 3000
AUX_BASIS_CORR rimp2-def2-QZVPPD
SCF_CONVERGENCE 7
SCF_ALGORITHM  GDM
method DSD-PBEPBE-D3
GEN_SCFMAN TRUE
UNRESTRICTED True
THRESH  14
SYMMETRY FALSE
SYM_IGNORE TRUE
max_scf_cycles 200

XC_GRID 000099000590
BASIS DEF2-QZVPPD


$end










