$molecule
0 1
C  0.128382772061  1.81706679368  -0.186149315919
N  -0.48692455449  0.519267710932  0.0464181373393
N  0.48692455449  -0.519267710932  0.0464181373393
C  -0.128382772061  -1.81706679368  -0.186149315919
H  -0.649799223344  2.58288456865  -0.148956283501
H  0.579280546768  1.82461549813  -1.17869998986
H  0.908890102028  2.08103728209  0.545743212255
H  -1.01172786401  0.530121583002  0.921644239685
H  1.01172786401  -0.530121583002  0.921644239685
H  -0.579280546768  -1.82461549813  -1.17869998986
H  0.649799223344  -2.58288456865  -0.148956283501
H  -0.908890102028  -2.08103728209  0.545743212255
$end


$rem
N_FROZEN_CORE FC
MEM_TOTAL 3750
MEM_STATIC 1500
AUX_BASIS_CORR rimp2-def2-QZVPPD
SCF_CONVERGENCE 7
SCF_ALGORITHM  GDM
method DSD-PBEPBE-D3
GEN_SCFMAN TRUE
UNRESTRICTED True
THRESH  14
SYMMETRY FALSE
SYM_IGNORE TRUE
max_scf_cycles 200

XC_GRID 000099000590
BASIS DEF2-QZVPPD


$end










