$molecule
0 1
C  0.0  -1.27422378374  -0.584310360831
C  0.0  0.0  0.217609403898
C  0.0  1.27422378374  -0.584310360831
C  0.0  0.0  1.54963665497
H  0.0  -2.15656086339  0.0566775817034
H  0.878023170484  -1.32431788993  -1.23710736138
H  -0.878023170484  -1.32431788993  -1.23710736138
H  0.0  2.15656086339  0.0566775817034
H  0.878023170484  1.32431788993  -1.23710736138
H  -0.878023170484  1.32431788993  -1.23710736138
H  0.0  -0.923034074837  2.11822447245
H  0.0  0.923034074837  2.11822447245
$end


$rem
N_FROZEN_CORE FC
MEM_TOTAL 3750
MEM_STATIC 1500
AUX_BASIS_CORR rimp2-def2-QZVPPD
SCF_CONVERGENCE 7
SCF_ALGORITHM  GDM
method DSD-PBEPBE-D3
GEN_SCFMAN TRUE
UNRESTRICTED True
THRESH  14
SYMMETRY FALSE
SYM_IGNORE TRUE
max_scf_cycles 200

XC_GRID 000099000590
BASIS DEF2-QZVPPD


$end










