$molecule
0 1
O  -1.58681193263  0.134644032581  -0.267948315529
C  -0.409397744915  0.0443072756766  0.535759056724
C  0.873277870231  0.0915860009889  -0.281891720332
H  -1.59216139112  -0.60746759276  -0.883139960969
H  -0.459642790397  0.897607665389  1.21397323295
H  -0.431895693404  -0.864084071995  1.15240139508
H  0.913943485181  1.00150146108  -0.88388764959
H  1.74978332138  0.0690603582267  0.37154815941
H  0.942904875676  -0.767155129185  -0.956814197737
$end


$rem
N_FROZEN_CORE FC
MEM_TOTAL 3750
MEM_STATIC 1500
AUX_BASIS_CORR rimp2-def2-QZVPPD
SCF_CONVERGENCE 7
SCF_ALGORITHM  GDM
method DSD-PBEPBE-D3
GEN_SCFMAN TRUE
UNRESTRICTED True
THRESH  14
SYMMETRY FALSE
SYM_IGNORE TRUE
max_scf_cycles 200

XC_GRID 000099000590
BASIS DEF2-QZVPPD


$end










