$molecule
0 1
C  -1.8426965598  -0.118215555496  0.0
C  -0.609893955019  0.39584742398  0.0
C  0.609893955019  -0.39584742398  0.0
C  1.8426965598  0.118215555496  0.0
H  -2.01011690068  -1.19008798167  0.0
H  -2.72188018694  0.513479616436  0.0
H  -0.483381967397  1.47603489229  0.0
H  0.483381967397  -1.47603489229  0.0
H  2.01011690068  1.19008798167  0.0
H  2.72188018694  -0.513479616436  0.0
$end


$rem
N_FROZEN_CORE FC
MEM_TOTAL 3750
MEM_STATIC 1500
AUX_BASIS_CORR rimp2-def2-QZVPPD
SCF_CONVERGENCE 7
SCF_ALGORITHM  GDM
method DSD-PBEPBE-D3
GEN_SCFMAN TRUE
UNRESTRICTED True
THRESH  14
SYMMETRY FALSE
SYM_IGNORE TRUE
max_scf_cycles 200

XC_GRID 000099000590
BASIS DEF2-QZVPPD


$end










