$molecule
0 1
C  0.594646429399  -0.261969461212  0.0
C  -0.791843529513  0.318211933916  0.0
O  -1.80909193656  -0.328430225597  0.0
H  1.14110347084  0.0969315109158  -0.878112187759
H  0.561127076781  -1.35052800526  0.0
H  1.14110347084  0.0969315109158  0.878112187759
H  -0.837044981783  1.42885273633  0.0
$end


$rem
N_FROZEN_CORE FC
MEM_TOTAL 3750
MEM_STATIC 1500
AUX_BASIS_CORR rimp2-def2-QZVPPD
SCF_CONVERGENCE 7
SCF_ALGORITHM  GDM
method DSD-PBEPBE-D3
GEN_SCFMAN TRUE
UNRESTRICTED True
THRESH  14
SYMMETRY FALSE
SYM_IGNORE TRUE
max_scf_cycles 200

XC_GRID 000099000590
BASIS DEF2-QZVPPD


$end










