$molecule
0 1
O  -1.74355947247  0.454593477961  0.0
C  -1.17609427464  -0.603605301675  0.0
O  0.152238652543  -0.783214535285  0.0
C  0.955173889227  0.416426633235  0.0
H  -1.66949475911  -1.58441019324  0.0
H  1.98651879346  0.0751755483203  0.0
H  0.747608585492  1.01251718534  0.888570643482
H  0.747608585492  1.01251718534  -0.888570643482
$end


$rem
N_FROZEN_CORE FC
MEM_TOTAL 3750
MEM_STATIC 1500
AUX_BASIS_CORR rimp2-def2-QZVPPD
SCF_CONVERGENCE 7
SCF_ALGORITHM  GDM
method DSD-PBEPBE-D3
GEN_SCFMAN TRUE
UNRESTRICTED True
THRESH  14
SYMMETRY FALSE
SYM_IGNORE TRUE
max_scf_cycles 200

XC_GRID 000099000590
BASIS DEF2-QZVPPD


$end










