$molecule
0 1
C  1.32012987297  0.0  0.431324301038
C  0.689723197858  0.0  -0.812062469679
C  -0.689723197858  0.0  -0.812062469679
C  -1.32012987297  0.0  0.431324301038
N  -0.665552965467  0.0  1.5912513731
N  0.665552965467  0.0  1.5912513731
H  -2.40079672563  0.0  0.517424163258
H  -1.26747193006  0.0  -1.72793736772
H  1.26747193006  0.0  -1.72793736772
H  2.40079672563  0.0  0.517424163258
$end


$rem
N_FROZEN_CORE FC
MEM_TOTAL 3750
MEM_STATIC 1500
AUX_BASIS_CORR rimp2-def2-QZVPPD
SCF_CONVERGENCE 7
SCF_ALGORITHM  GDM
method DSD-PBEPBE-D3
GEN_SCFMAN TRUE
UNRESTRICTED True
THRESH  14
SYMMETRY FALSE
SYM_IGNORE TRUE
max_scf_cycles 200

XC_GRID 000099000590
BASIS DEF2-QZVPPD


$end










