$molecule
0 1
C  0.211134564725  -1.06476779086  0.0
C  -0.610753374007  0.227548261025  0.0
N  0.155112162984  1.47613624776  0.0
H  0.755598804353  1.5312578849  -0.815893422062
H  0.755598804353  1.5312578849  0.815893422062
H  -0.435525781028  -1.94752752586  0.0
H  0.85338961995  -1.12075663276  -0.883793618082
H  0.85338961995  -1.12075663276  0.883793618082
H  -1.26897221064  0.243804151836  0.873427482995
H  -1.26897221064  0.243804151836  -0.873427482995
$end


$rem
N_FROZEN_CORE FC
MEM_TOTAL 3750
MEM_STATIC 1500
AUX_BASIS_CORR rimp2-def2-QZVPPD
SCF_CONVERGENCE 7
SCF_ALGORITHM  GDM
method DSD-PBEPBE-D3
GEN_SCFMAN TRUE
UNRESTRICTED True
THRESH  14
SYMMETRY FALSE
SYM_IGNORE TRUE
max_scf_cycles 200

XC_GRID 000099000590
BASIS DEF2-QZVPPD


$end










