$molecule
0 1
C  0.0  -1.59003464864  -0.403175466145
C  0.0  -0.666635409794  0.779219977431
C  0.0  0.666635409794  0.779219977431
C  0.0  1.59003464864  -0.403175466145
H  0.0  -1.06180008057  -1.35655316675
H  -0.877486911319  -2.24459269229  -0.383211615243
H  0.877486911319  -2.24459269229  -0.383211615243
H  0.0  -1.16307383541  1.74693188595
H  0.0  1.16307383541  1.74693188595
H  0.0  1.06180008057  -1.35655316675
H  -0.877486911319  2.24459269229  -0.383211615243
H  0.877486911319  2.24459269229  -0.383211615243
$end


$rem
N_FROZEN_CORE FC
MEM_TOTAL 3750
MEM_STATIC 1500
AUX_BASIS_CORR rimp2-def2-QZVPPD
SCF_CONVERGENCE 7
SCF_ALGORITHM  GDM
method DSD-PBEPBE-D3
GEN_SCFMAN TRUE
UNRESTRICTED True
THRESH  14
SYMMETRY FALSE
SYM_IGNORE TRUE
max_scf_cycles 200

XC_GRID 000099000590
BASIS DEF2-QZVPPD


$end










