$molecule
0 1
C  -1.95848163931  -0.0898634388959  0.0
C  -0.538292227456  0.390585998337  0.0
C  0.538292227456  -0.390585998337  0.0
C  1.95848163931  0.0898634388959  0.0
H  -2.01216165952  -1.18054751753  0.0
H  -2.50075408453  0.276059222987  -0.878057172746
H  -2.50075408453  0.276059222987  0.878057172746
H  -0.398791161739  1.47086771712  0.0
H  0.398791161739  -1.47086771712  0.0
H  2.01216165952  1.18054751753  0.0
H  2.50075408453  -0.276059222987  0.878057172746
H  2.50075408453  -0.276059222987  -0.878057172746
$end


$rem
N_FROZEN_CORE FC
MEM_TOTAL 3750
MEM_STATIC 1500
AUX_BASIS_CORR rimp2-def2-QZVPPD
SCF_CONVERGENCE 7
SCF_ALGORITHM  GDM
method DSD-PBEPBE-D3
GEN_SCFMAN TRUE
UNRESTRICTED True
THRESH  14
SYMMETRY FALSE
SYM_IGNORE TRUE
max_scf_cycles 200

XC_GRID 000099000590
BASIS DEF2-QZVPPD


$end










