$molecule
0 1
N  1.32360326818  -0.0409370709424  0.0
C  0.481621888918  0.250203203305  1.16304806846
C  -0.866260991804  -0.387588252587  0.777959852862
C  -0.866260991804  -0.387588252587  -0.777959852862
C  0.481621888918  0.250203203305  -1.16304806846
H  2.1878338683  0.488308149538  0.0
H  0.911149414171  -0.176624770408  2.07157086856
H  0.348182482221  1.33308664047  1.32781282811
H  -1.70638406054  0.166268375475  1.19918500499
H  -0.924027301206  -1.40903073555  1.15578832254
H  -0.924027301206  -1.40903073555  -1.15578832254
H  -1.70638406054  0.166268375475  -1.19918500499
H  0.911149414171  -0.176624770408  -2.07157086856
H  0.348182482221  1.33308664047  -1.32781282811
$end


$rem
N_FROZEN_CORE FC
MEM_TOTAL 3750
MEM_STATIC 1500
AUX_BASIS_CORR rimp2-def2-QZVPPD
SCF_CONVERGENCE 7
SCF_ALGORITHM  GDM
method DSD-PBEPBE-D3
GEN_SCFMAN TRUE
UNRESTRICTED True
THRESH  14
SYMMETRY FALSE
SYM_IGNORE TRUE
max_scf_cycles 200

XC_GRID 000099000590
BASIS DEF2-QZVPPD


$end










