$molecule
0 1
N  -0.00532105373312  2.30874753548  0.0
C  0.000717840097167  1.60805641566  1.13646098447
C  0.0115191246337  0.218673061973  1.18778056857
C  0.0135839917156  -0.513533569669  0.0
C  0.0115191246337  0.218673061973  -1.18778056857
C  0.000717840097167  1.60805641566  -1.13646098447
C  -0.00738695035755  -2.01851826507  0.0
H  -0.000141349591726  2.18802128095  2.05445103217
H  0.019956722566  -0.285050870529  2.14781336801
H  0.019956722566  -0.285050870529  -2.14781336801
H  -0.000141349591726  2.18802128095  -2.05445103217
H  0.486093871062  -2.42354526138  -0.884990620312
H  0.486093871062  -2.42354526138  0.884990620312
H  -1.03716840516  -2.38900495409  0.0
$end


$rem
N_FROZEN_CORE FC
MEM_TOTAL 7500
MEM_STATIC 3000
AUX_BASIS_CORR rimp2-def2-QZVPPD
SCF_CONVERGENCE 7
SCF_ALGORITHM  GDM
method DSD-PBEPBE-D3
GEN_SCFMAN TRUE
UNRESTRICTED True
THRESH  14
SYMMETRY FALSE
SYM_IGNORE TRUE
max_scf_cycles 200

XC_GRID 000099000590
BASIS DEF2-QZVPPD


$end










