$molecule
0 1
C  0.0  0.667967177455  -0.927484704495
C  0.0  0.786398377484  0.585316277435
C  0.0  -0.786398377484  0.585316277435
C  0.0  -0.667967177455  -0.927484704495
H  0.0  1.41343344089  -1.71367868848
H  0.88815574244  1.2447685101  1.02792355777
H  -0.88815574244  1.2447685101  1.02792355777
H  -0.88815574244  -1.2447685101  1.02792355777
H  0.88815574244  -1.2447685101  1.02792355777
H  0.0  -1.41343344089  -1.71367868848
$end


$rem
N_FROZEN_CORE FC
MEM_TOTAL 3750
MEM_STATIC 1500
AUX_BASIS_CORR rimp2-def2-QZVPPD
SCF_CONVERGENCE 7
SCF_ALGORITHM  GDM
method DSD-PBEPBE-D3
GEN_SCFMAN TRUE
UNRESTRICTED True
THRESH  14
SYMMETRY FALSE
SYM_IGNORE TRUE
max_scf_cycles 200

XC_GRID 000099000590
BASIS DEF2-QZVPPD


$end










