$molecule
0 1
C  0.875676211256  -2.05068569624  0.370303148765
C  1.08521372237  -0.614383206274  -0.0401532694307
C  0.0  0.0  -0.933550187658
C  -1.08521372237  0.614383206274  -0.0401532694307
C  -0.875676211256  2.05068569624  0.370303148765
O  2.03248032365  0.0444369021451  0.324368069585
O  -2.03248032365  -0.0444369021451  0.324368069585
H  0.994177886628  -2.69845595656  -0.503993078148
H  -0.143995487873  -2.19610105669  0.736340475371
H  1.60057311574  -2.33435969627  1.13093992198
H  0.467934488646  0.7684720677  -1.5510301743
H  -0.467934488646  -0.7684720677  -1.5510301743
H  -0.994177886628  2.69845595656  -0.503993078148
H  0.143995487873  2.19610105669  0.736340475371
H  -1.60057311574  2.33435969627  1.13093992198
$end


$rem
N_FROZEN_CORE FC
MEM_TOTAL 7500
MEM_STATIC 3000
AUX_BASIS_CORR rimp2-def2-QZVPPD
SCF_CONVERGENCE 7
SCF_ALGORITHM  GDM
method DSD-PBEPBE-D3
GEN_SCFMAN TRUE
UNRESTRICTED True
THRESH  14
SYMMETRY FALSE
SYM_IGNORE TRUE
max_scf_cycles 200

XC_GRID 000099000590
BASIS DEF2-QZVPPD


$end










