$molecule
0 1
C  0.0  -1.26094764439  -1.28831484853
C  0.0  0.0  -2.17917867257
C  0.0  1.26094764439  -1.28831484853
C  -1.25822403175  1.25573469341  -0.395431772865
C  -1.27919724485  0.0  0.507872682388
C  -1.25822403175  -1.25573469341  -0.395431772865
C  1.25822403175  -1.25573469341  -0.395431772865
C  1.25822403175  1.25573469341  -0.395431772865
C  1.27919724485  0.0  0.507872682388
C  0.0  0.0  1.37585925918
C  -2.52521593271  0.0  1.39596845301
H  0.0  -2.16055389574  -1.91937601848
H  0.888365951046  0.0  -2.82759489018
H  -0.888365951046  0.0  -2.82759489018
H  0.0  2.16055389574  -1.91937601848
H  -1.27662075517  2.15670969845  0.236344380199
H  -2.16441242462  1.26841197644  -1.01961191282
H  -1.27662075517  -2.15670969845  0.236344380199
H  -2.16441242462  -1.26841197644  -1.01961191282
H  1.27662075517  -2.15670969845  0.236344380199
H  2.16441242462  -1.26841197644  -1.01961191282
H  1.27662075517  2.15670969845  0.236344380199
H  2.16441242462  1.26841197644  -1.01961191282
C  2.52521593271  0.0  1.39596845301
H  0.0  0.887781992575  2.02706349552
H  0.0  -0.887781992575  2.02706349552
H  -3.43828340753  0.0  0.783683148567
H  -2.54222979056  -0.890844008549  2.03987814769
H  -2.54222979056  0.890844008549  2.03987814769
H  3.43828340753  0.0  0.783683148567
H  2.54222979056  0.890844008549  2.03987814769
H  2.54222979056  -0.890844008549  2.03987814769
$end


$rem
N_FROZEN_CORE FC
MEM_TOTAL 60000
MEM_STATIC 8000
AUX_BASIS_CORR rimp2-def2-QZVPPD
SCF_CONVERGENCE 7
SCF_ALGORITHM  GDM
method DSD-PBEPBE-D3
GEN_SCFMAN TRUE
UNRESTRICTED True
THRESH  14
SYMMETRY FALSE
SYM_IGNORE TRUE
max_scf_cycles 200

XC_GRID 000099000590
BASIS DEF2-QZVPPD


$end










