$molecule
0 1
H  1.20389204992  -0.0196542826443  -0.434675926343
F  0.00734193965288  2.05460113412  -0.0305682360915
N  0.80490123977  -0.967996623655  -0.512459921459
B  -0.00943559654024  -1.3438404854  0.594841040504
H  -1.16882151592  -0.000614387512177  -0.462214936443
H  -0.0226144337635  2.92909018462  -0.359264297255
N  -0.787640686218  -0.954208299495  -0.528468664294
H  -0.0276229969078  -1.69737724004  1.73281094138
$end


$rem
N_FROZEN_CORE FC
MEM_TOTAL 3750
MEM_STATIC 1500
AUX_BASIS_CORR rimp2-def2-QZVPPD
SCF_CONVERGENCE 7
SCF_ALGORITHM  GDM
method DSD-PBEPBE-D3
GEN_SCFMAN TRUE
UNRESTRICTED True
THRESH  14
SYMMETRY FALSE
SYM_IGNORE TRUE
max_scf_cycles 200

XC_GRID 000250000974
BASIS DEF2-QZVPPD


$end










