$molecule
0 1
H  -0.843299652736  0.589159189929  -1.98510488043
H  -1.23285676973  -0.813167741799  0.77362084472
H  0.179999551403  1.39414394615  2.3147429386
H  0.239029061218  1.89976017193  2.86874435801
C  -0.0418637872149  -0.0832726676362  -1.67580572746
SI  -0.0931697698666  -0.941166365106  -0.181117823319
H  0.795443156274  -0.181856220928  -2.36814952584
H  0.996718210657  -1.86360031254  0.253069815722
$end


$rem
N_FROZEN_CORE FC
MEM_TOTAL 3750
MEM_STATIC 1500
AUX_BASIS_CORR rimp2-def2-QZVPPD
SCF_CONVERGENCE 7
SCF_ALGORITHM  GDM
method DSD-PBEPBE-D3
GEN_SCFMAN TRUE
UNRESTRICTED True
THRESH  14
SYMMETRY FALSE
SYM_IGNORE TRUE
max_scf_cycles 200

XC_GRID 000250000974
BASIS DEF2-QZVPPD


$end










