$molecule
0 1
H  -1.36817083855  0.331451307273  0.311841786853
H  2.82183196255  0.198689234959  0.860434119574
N  -0.937000759861  1.17530874574  -0.167830362542
H  -1.39877264398  2.08299096694  0.133438247577
CL  -0.440861950239  -1.99041608393  -0.500064721931
H  -0.956309703635  -3.06875876857  0.0159531181771
N  -0.0281261137113  1.10100046422  -0.966256914776
H  2.30741004743  0.169734133365  0.312484727068
$end


$rem
N_FROZEN_CORE FC
MEM_TOTAL 3750
MEM_STATIC 1500
AUX_BASIS_CORR rimp2-def2-QZVPPD
SCF_CONVERGENCE 7
SCF_ALGORITHM  GDM
method DSD-PBEPBE-D3
GEN_SCFMAN TRUE
UNRESTRICTED True
THRESH  14
SYMMETRY FALSE
SYM_IGNORE TRUE
max_scf_cycles 200

XC_GRID 000250000974
BASIS DEF2-QZVPPD


$end










