$molecule
0 1
H  -2.34486103921  0.136452323237  0.424794289318
H  0.766787635286  -1.41390484421  -0.338360441969
C  -1.33161736228  -0.0693649052781  0.0618741012121
H  -1.11516415284  0.447179684318  -0.878976993188
SI  -0.386429640551  -1.66562853749  0.662054270926
H  2.15931765111  0.759854515807  -0.461054618053
F  -0.402961113883  0.485944398541  1.07868752816
H  2.65492802239  1.31946736508  -0.549018136402
$end


$rem
N_FROZEN_CORE FC
MEM_TOTAL 3750
MEM_STATIC 1500
AUX_BASIS_CORR rimp2-def2-QZVPPD
SCF_CONVERGENCE 7
SCF_ALGORITHM  GDM
method DSD-PBEPBE-D3
GEN_SCFMAN TRUE
UNRESTRICTED True
THRESH  14
SYMMETRY FALSE
SYM_IGNORE TRUE
max_scf_cycles 200

XC_GRID 000250000974
BASIS DEF2-QZVPPD


$end










