$molecule
0 2
N  0.000587066339673  -0.19842351933  1.8642313481
BE  -0.00486820424743  0.64874409816  0.606030206329
H  -0.0397454501945  -1.21341865089  1.88621785415
H  -0.0448531104825  0.752153686112  -0.819617607546
H  0.0411679795367  0.163653841517  2.81263238779
H  0.0222381203062  1.93058850953  -0.026283932167
H  0.0387101324012  -1.24504632527  -3.47726196321
H  -0.0132365336593  -0.838251639833  -2.84594829345
$end


$rem
N_FROZEN_CORE FC
MEM_TOTAL 3750
INTERNAL_STABILITY TRUE
MEM_STATIC 1500
AUX_BASIS_CORR rimp2-def2-QZVPPD
SCF_CONVERGENCE 7
SCF_ALGORITHM  GDM
method DSD-PBEPBE-D3
GEN_SCFMAN TRUE
UNRESTRICTED True
THRESH  14
SYMMETRY FALSE
SYM_IGNORE TRUE
max_scf_cycles 200

XC_GRID 000250000974
BASIS DEF2-QZVPPD


$end










