$molecule
0 1
LI  -0.0559787639614  0.132933939758  -0.750087570479
H  -0.0454832031103  -1.5181683519  1.57508664055
LI  0.000497938073026  1.88627436637  0.732361014252
B  -0.0152721101922  -0.295248269223  1.56400448932
H  0.057806768118  -0.736228652499  -2.62180873048
H  0.0736300951158  -1.37750149388  -2.21862828043
H  -0.039641949627  1.87879015196  -1.02794951763
H  0.024441225584  0.0291483094033  2.74702195491
$end


$rem
N_FROZEN_CORE FC
MEM_TOTAL 3750
MEM_STATIC 1500
AUX_BASIS_CORR rimp2-def2-QZVPPD
SCF_CONVERGENCE 7
SCF_ALGORITHM  GDM
method DSD-PBEPBE-D3
GEN_SCFMAN TRUE
UNRESTRICTED True
THRESH  14
SYMMETRY FALSE
SYM_IGNORE TRUE
max_scf_cycles 200

XC_GRID 000250000974
BASIS DEF2-QZVPPD


$end










