$molecule
0 1
H  0.846093428207  -0.676748423714  0.992120082937
BE  -0.592701836518  0.399367265685  0.63642588315
H  -0.635083784496  -1.71600357198  -1.44624676528
H  -0.130958184534  -1.78096814698  -2.0019774051
H  1.25022001518  -0.0600730571392  0.773349448416
H  -1.34171074267  -0.657880510959  1.00382425982
H  0.981881532044  2.26369794882  0.00831681974579
S  -0.377740427212  2.22860849628  0.0341876763181
$end


$rem
N_FROZEN_CORE FC
MEM_TOTAL 3750
MEM_STATIC 1500
AUX_BASIS_CORR rimp2-def2-QZVPPD
SCF_CONVERGENCE 7
SCF_ALGORITHM  GDM
method DSD-PBEPBE-D3
GEN_SCFMAN TRUE
UNRESTRICTED True
THRESH  14
SYMMETRY FALSE
SYM_IGNORE TRUE
max_scf_cycles 200

XC_GRID 000250000974
BASIS DEF2-QZVPPD


$end










