$molecule
0 1
LI  -1.20475096001  -2.43359344165  -0.00108528940874
SI  1.25666408717  -1.85240410778  8.27679375186e-05
BE  -0.45980884469  -0.213168930576  -0.00117327380289
B  1.35804702628  -0.0209641938071  -0.00303169124097
H  0.884686372232  2.54454267499  0.00216515836873
B  0.606252081479  1.38002564033  0.000260348828673
H  -1.76816159197  -0.725850341066  -0.000644364473294
H  -0.672928170495  1.32141269956  0.00342634379096
$end


$rem
N_FROZEN_CORE FC
MEM_TOTAL 3750
MEM_STATIC 1500
AUX_BASIS_CORR rimp2-def2-QZVPPD
SCF_CONVERGENCE 7
SCF_ALGORITHM  GDM
method DSD-PBEPBE-D3
GEN_SCFMAN TRUE
UNRESTRICTED True
THRESH  14
SYMMETRY FALSE
SYM_IGNORE TRUE
max_scf_cycles 200

XC_GRID 000250000974
BASIS DEF2-QZVPPD


$end










