$molecule
0 1
B  1.27959782777  -0.333347708343  -0.0257041602024
H  0.00134578668671  1.64433756939  -0.588843137786
C  -0.000219434181699  0.674382067452  -0.100294545853
H  -2.45185842384  -0.222046559308  -0.143032707759
H  2.45316818678  -0.219414537989  -0.116416163765
C  0.00188215104713  -0.94297499415  -0.498426846746
P  -0.00467581523928  -0.26735513409  1.5062320849
B  -1.27924027903  -0.333580702964  -0.0335145227886
$end


$rem
N_FROZEN_CORE FC
MEM_TOTAL 3750
MEM_STATIC 1500
AUX_BASIS_CORR rimp2-def2-QZVPPD
SCF_CONVERGENCE 7
SCF_ALGORITHM  GDM
method DSD-PBEPBE-D3
GEN_SCFMAN TRUE
UNRESTRICTED True
THRESH  14
SYMMETRY FALSE
SYM_IGNORE TRUE
max_scf_cycles 200

XC_GRID 000250000974
BASIS DEF2-QZVPPD


$end










