$molecule
0 1
O  -1.24255331689  0.0468927846604  0.687462095507
AL  -0.235245331356  -0.198588802041  2.30780207005
H  1.81620220001  1.62941091712  -1.13779938055
H  0.690347053284  -1.10905108358  0.885327744431
H  -2.0613662867  0.491635202082  0.426474959503
BE  -0.238891116112  -0.779762352929  -0.202971159024
H  1.5076381689  1.01400195577  -1.44547096888
H  -0.23613137114  -1.09453862108  -1.52082536103
$end


$rem
N_FROZEN_CORE FC
MEM_TOTAL 3750
MEM_STATIC 1500
AUX_BASIS_CORR rimp2-def2-QZVPPD
SCF_CONVERGENCE 7
SCF_ALGORITHM  GDM
method DSD-PBEPBE-D3
GEN_SCFMAN TRUE
UNRESTRICTED True
THRESH  14
SYMMETRY FALSE
SYM_IGNORE TRUE
max_scf_cycles 200

XC_GRID 000250000974
BASIS DEF2-QZVPPD


$end










