$molecule
0 2
H  -0.528313503518  -1.36764064067  -2.24422187926
H  -0.628315796206  -0.390733874656  0.638185969835
H  0.120495304442  1.65180205468  3.32901873926
H  0.121013039959  1.11160503711  2.80561863246
S  0.265833824788  -0.269905617918  -2.30050510179
N  0.235658738706  -0.894104443877  0.362156480796
H  -0.559881107609  0.362732423991  -3.18568912429
H  0.973509499439  -0.203754938656  0.595436282981
$end


$rem
N_FROZEN_CORE FC
MEM_TOTAL 3750
MEM_STATIC 1500
AUX_BASIS_CORR rimp2-def2-QZVPPD
SCF_CONVERGENCE 7
SCF_ALGORITHM  GDM
method DSD-PBEPBE-D3
GEN_SCFMAN TRUE
UNRESTRICTED True
THRESH  14
SYMMETRY FALSE
SYM_IGNORE TRUE
max_scf_cycles 200

XC_GRID 000250000974
BASIS DEF2-QZVPPD


$end










