$molecule
0 1
H  -0.461489920099  2.66846133564  0.484341993134
H  -0.725031289523  2.64935999569  1.19289030554
H  -0.290224299362  -0.681294872037  -2.45799250152
S  -0.915730004032  0.0256923513884  0.818521277359
H  -0.0554678001994  -1.18871021541  -2.96208834276
CL  -0.711095665211  -2.13106906621  0.835733869075
H  2.24326792215  -0.727966353607  1.10576668763
BE  0.915771056277  -0.61447317545  0.982826711544
$end


$rem
N_FROZEN_CORE FC
MEM_TOTAL 3750
MEM_STATIC 1500
AUX_BASIS_CORR rimp2-def2-QZVPPD
SCF_CONVERGENCE 7
SCF_ALGORITHM  GDM
method DSD-PBEPBE-D3
GEN_SCFMAN TRUE
UNRESTRICTED True
THRESH  14
SYMMETRY FALSE
SYM_IGNORE TRUE
max_scf_cycles 200

XC_GRID 000250000974
BASIS DEF2-QZVPPD


$end










