$molecule
0 1
H  0.648488417809  -1.47777955008  -0.13722079896
H  -0.626593240721  -0.185899083613  -3.09889723468
H  -0.400935072449  -0.714774290957  -2.61127986887
H  0.744719607396  0.827940881404  2.20080089928
H  0.416836629156  -1.0454357264  0.482418534848
H  -0.868728696665  0.857056858052  2.13389356509
NA  0.127113219732  1.09566021258  -0.53418022108
N  -0.0409008642574  0.643230699011  1.56446512437
$end


$rem
N_FROZEN_CORE FC
MEM_TOTAL 3750
MEM_STATIC 1500
AUX_BASIS_CORR rimp2-def2-QZVPPD
SCF_CONVERGENCE 7
SCF_ALGORITHM  GDM
method DSD-PBEPBE-D3
GEN_SCFMAN TRUE
UNRESTRICTED True
THRESH  14
SYMMETRY FALSE
SYM_IGNORE TRUE
max_scf_cycles 200

XC_GRID 000250000974
BASIS DEF2-QZVPPD


$end










