$molecule
0 2
N  0.852180899565  0.0658115343434  1.54292632672
C  -0.454321729234  0.0401585110299  1.51126575388
H  0.51388731047  -1.04630382887  -1.15231098394
H  -1.27127720239  -0.211812919712  2.19239040382
H  0.93075129342  0.614341057024  -1.62996934965
C  0.0256288485904  0.43731103359  0.29642143154
C  0.176791968957  0.00817393469862  -1.10677162347
H  -0.773641389377  0.0923206778914  -1.65395195891
$end


$rem
N_FROZEN_CORE FC
MEM_TOTAL 3750
MEM_STATIC 1500
AUX_BASIS_CORR rimp2-def2-QZVPPD
SCF_CONVERGENCE 7
SCF_ALGORITHM  GDM
method DSD-PBEPBE-D3
GEN_SCFMAN TRUE
UNRESTRICTED True
THRESH  14
SYMMETRY FALSE
SYM_IGNORE TRUE
max_scf_cycles 200

XC_GRID 000250000974
BASIS DEF2-QZVPPD


$end










