$molecule
0 1
H  0.487061552361  -1.08305649104  -1.36311327187
AL  -1.32809459954  0.530415221516  0.0486906740483
CL  -0.222415373093  2.33107088578  -0.247191169921
H  -2.83575373219  0.677451892151  0.541463682024
H  2.92348809974  0.317574101511  1.24793717607
P  -0.213941180871  -1.50846196489  -0.182649646262
H  2.50575207918  0.814622761811  0.867416203608
H  -1.31609684558  -2.07961640684  -0.912553647692
$end


$rem
N_FROZEN_CORE FC
MEM_TOTAL 3750
MEM_STATIC 1500
AUX_BASIS_CORR rimp2-def2-QZVPPD
SCF_CONVERGENCE 7
SCF_ALGORITHM  GDM
method DSD-PBEPBE-D3
GEN_SCFMAN TRUE
UNRESTRICTED True
THRESH  14
SYMMETRY FALSE
SYM_IGNORE TRUE
max_scf_cycles 200

XC_GRID 000250000974
BASIS DEF2-QZVPPD


$end










