$molecule
0 2
C  0.000156084197573  -0.161243382558  -1.55129875833
H  -0.00748868683029  -1.23794170787  -1.7420665495
H  0.00744509359197  0.467121053393  -2.44489831127
H  0.000851383783683  -0.710268104835  2.72459437798
B  -0.000213205888624  0.437395223532  -0.151252069123
O  0.00108585796767  -0.508310211641  0.855978373001
H  -0.00176841103052  1.60459683787  0.120225548478
O  -6.81157914576e-05  0.108650292109  2.18871738876
$end


$rem
N_FROZEN_CORE FC
MEM_TOTAL 3750
MEM_STATIC 1500
AUX_BASIS_CORR rimp2-def2-QZVPPD
SCF_CONVERGENCE 7
SCF_ALGORITHM  GDM
method DSD-PBEPBE-D3
GEN_SCFMAN TRUE
UNRESTRICTED True
THRESH  14
SYMMETRY FALSE
SYM_IGNORE TRUE
max_scf_cycles 200

XC_GRID 000250000974
BASIS DEF2-QZVPPD


$end










