$molecule
0 1
P  -0.835441822353  0.390588415474  -1.25113737558
H  -0.213503533951  1.31770655256  3.50888712074
C  1.0439016001  0.812322560569  -1.81690357212
MG  -0.0373813803825  0.483343319042  2.03478573668
H  -1.10775288236  -0.797465871684  -2.0370527889
H  0.0322774015094  -1.65884007439  0.142623218705
C  0.972419855075  0.0185180757869  -0.793735418046
C  0.145480762366  -0.566172977349  0.212533078528
$end


$rem
N_FROZEN_CORE FC
MEM_TOTAL 3750
MEM_STATIC 1500
AUX_BASIS_CORR rimp2-def2-QZVPPD
SCF_CONVERGENCE 7
SCF_ALGORITHM  GDM
method DSD-PBEPBE-D3
GEN_SCFMAN TRUE
UNRESTRICTED True
THRESH  14
SYMMETRY FALSE
SYM_IGNORE TRUE
max_scf_cycles 200

XC_GRID 000250000974
BASIS DEF2-QZVPPD


$end










