$molecule
0 1
H  2.42021358958  1.32177415754  0.120886298586
H  0.194655252802  -1.00470213968  1.09640423919
B  -0.311586209366  -0.760744402123  0.0355343543569
H  -1.84444046376  0.488775991378  0.829726163922
H  2.77205164328  0.761253403945  -0.22621773223
H  -1.91007718541  0.328453951184  -0.85822640284
H  0.109882427875  -1.20903638759  -0.998271552227
N  -1.430699055  0.0742254253564  0.000164631239249
$end


$rem
N_FROZEN_CORE FC
MEM_TOTAL 3750
MEM_STATIC 1500
AUX_BASIS_CORR rimp2-def2-QZVPPD
SCF_CONVERGENCE 7
SCF_ALGORITHM  GDM
method DSD-PBEPBE-D3
GEN_SCFMAN TRUE
UNRESTRICTED True
THRESH  14
SYMMETRY FALSE
SYM_IGNORE TRUE
max_scf_cycles 200

XC_GRID 000250000974
BASIS DEF2-QZVPPD


$end










