$molecule
0 1
H  0.159363916148  0.342933621562  1.27656868518
H  0.306787294045  1.45437830955  -0.962795682094
O  0.132959769927  -0.635671297075  1.47961021777
S  0.173285422636  2.26170347536  0.127029911945
C  0.13287035857  -1.92921209075  -0.681694276994
H  0.137525960344  -2.52216828535  -1.57011414198
C  0.135623791969  -1.29317417658  0.352076299922
H  -1.17841651364  2.32121044329  -0.0206810137468
$end


$rem
N_FROZEN_CORE FC
MEM_TOTAL 3750
MEM_STATIC 1500
AUX_BASIS_CORR rimp2-def2-QZVPPD
SCF_CONVERGENCE 7
SCF_ALGORITHM  GDM
method DSD-PBEPBE-D3
GEN_SCFMAN TRUE
UNRESTRICTED True
THRESH  14
SYMMETRY FALSE
SYM_IGNORE TRUE
max_scf_cycles 200

XC_GRID 000250000974
BASIS DEF2-QZVPPD


$end










