$molecule
0 2
H  -0.168677353296  -2.96540556063  1.29046093406
BE  -0.0416783926038  -1.3507274039  -1.24643529807
H  -0.178924993681  -2.61188746542  1.95520925276
P  -0.0350120728044  0.682352503975  -0.910282317178
H  0.879448357334  0.488838161635  0.196077104023
H  -0.0647538071484  -2.66781248367  -1.51726520805
H  -0.168743335578  4.55153894763  0.277011331563
H  -0.221658402222  3.87310330038  -0.0447757991026
$end


$rem
N_FROZEN_CORE FC
MEM_TOTAL 3750
MEM_STATIC 1500
AUX_BASIS_CORR rimp2-def2-QZVPPD
SCF_CONVERGENCE 7
SCF_ALGORITHM  GDM
method DSD-PBEPBE-D3
GEN_SCFMAN TRUE
UNRESTRICTED True
THRESH  14
SYMMETRY FALSE
SYM_IGNORE TRUE
max_scf_cycles 200

XC_GRID 000250000974
BASIS DEF2-QZVPPD


$end










