$molecule
0 2
C  -0.181475111272  0.687013153551  0.267310735727
F  -0.356724578545  0.150759557386  2.5946072245
C  0.760768172341  0.203838635787  -0.507906429058
H  1.75864377235  0.130214354973  -0.92674124321
C  -0.72567084895  -0.137986431891  -0.852518745619
LI  1.0343642244  -0.259106628763  1.79795219284
H  -1.20091642381  0.382609673195  -1.69131316043
H  -1.08898920651  -1.15734231424  -0.681390574742
$end


$rem
N_FROZEN_CORE FC
MEM_TOTAL 3750
MEM_STATIC 1500
AUX_BASIS_CORR rimp2-def2-QZVPPD
SCF_CONVERGENCE 7
SCF_ALGORITHM  GDM
method DSD-PBEPBE-D3
GEN_SCFMAN TRUE
UNRESTRICTED True
THRESH  14
SYMMETRY FALSE
SYM_IGNORE TRUE
max_scf_cycles 200

XC_GRID 000250000974
BASIS DEF2-QZVPPD


$end










