$molecule
0 1
H  2.60755591939  0.0959370323725  -0.326277715917
LI  0.65813326619  -0.339878656132  0.207077175078
F  -0.905378418314  -1.23965323521  0.0341465447072
H  -0.792430834803  0.671051984697  1.11182179002
H  2.70375984808  -0.609055789781  -0.0696915455882
H  -0.573239690672  0.723675387594  -0.897281420634
H  -2.43828895831  0.455833128741  -0.0931572976297
B  -1.26011113156  0.242090147723  0.0333624699678
$end


$rem
N_FROZEN_CORE FC
MEM_TOTAL 3750
MEM_STATIC 1500
AUX_BASIS_CORR rimp2-def2-QZVPPD
SCF_CONVERGENCE 7
SCF_ALGORITHM  GDM
method DSD-PBEPBE-D3
GEN_SCFMAN TRUE
UNRESTRICTED True
THRESH  14
SYMMETRY FALSE
SYM_IGNORE TRUE
max_scf_cycles 200

XC_GRID 000250000974
BASIS DEF2-QZVPPD


$end










