$molecule
0 1
B  -0.814281156111  0.188412336168  -0.150066703095
H  -2.00398333371  0.258206328378  -0.132662858753
H  -0.290901754969  0.732833818716  -1.15473880425
H  -0.267142449332  0.799691797179  0.803413856419
S  0.105153341661  -1.55875197873  -0.203601226114
H  0.116873481132  -1.82042418166  1.13279079189
BE  0.980579486574  0.394983863541  -0.151543289584
H  2.17370238475  1.0050480164  -0.143591766515
$end


$rem
N_FROZEN_CORE FC
MEM_TOTAL 3750
MEM_STATIC 1500
AUX_BASIS_CORR rimp2-def2-QZVPPD
SCF_CONVERGENCE 7
SCF_ALGORITHM  GDM
method DSD-PBEPBE-D3
GEN_SCFMAN TRUE
UNRESTRICTED True
THRESH  14
SYMMETRY FALSE
SYM_IGNORE TRUE
max_scf_cycles 200

XC_GRID 000250000974
BASIS DEF2-QZVPPD


$end










