$molecule
0 2
BE  0.245487089034  -0.456027610503  -0.6703659482
H  -0.408530226287  2.10696833381  2.8214754919
N  0.203708509255  -0.726423638348  0.815213245527
H  0.400897273238  -1.62181771129  1.2514060442
H  0.330308334767  2.00430677785  2.72160688409
CL  0.296959851893  -0.129360178729  -2.47032425486
H  -0.0269693320688  -0.0374890830286  1.52485081458
H  -1.04186149983  -1.14015688976  -5.99386227725
$end


$rem
N_FROZEN_CORE FC
MEM_TOTAL 3750
MEM_STATIC 1500
AUX_BASIS_CORR rimp2-def2-QZVPPD
SCF_CONVERGENCE 7
SCF_ALGORITHM  GDM
method DSD-PBEPBE-D3
GEN_SCFMAN TRUE
UNRESTRICTED True
THRESH  14
SYMMETRY FALSE
SYM_IGNORE TRUE
max_scf_cycles 200

XC_GRID 000250000974
BASIS DEF2-QZVPPD


$end










