$molecule
0 1
C  0.0236835467473  0.211608220258  1.50283097741
F  -0.0107783292952  -0.124992790282  2.81646663129
C  0.0156593654105  -0.698991135126  0.537236851969
H  -0.0194850796915  -1.76596903721  0.755309890591
H  0.0570745098198  1.29461523748  1.36648906963
H  -0.0604252654961  0.826690055246  -3.60133845289
H  0.0468044000214  -0.373212552855  -0.501132226719
H  -0.0525331475162  0.630252002491  -2.87586274129
$end


$rem
N_FROZEN_CORE FC
MEM_TOTAL 3750
MEM_STATIC 1500
AUX_BASIS_CORR rimp2-def2-QZVPPD
SCF_CONVERGENCE 7
SCF_ALGORITHM  GDM
method DSD-PBEPBE-D3
GEN_SCFMAN TRUE
UNRESTRICTED True
THRESH  14
SYMMETRY FALSE
SYM_IGNORE TRUE
max_scf_cycles 200

XC_GRID 000250000974
BASIS DEF2-QZVPPD


$end










