$molecule
0 1
H  1.4625794123  -1.04735671783  0.531457060168
N  -1.68304028186  2.47229474233e-05  0.476407490313
H  -0.539581974116  -0.940805300335  -1.17930482493
C  -0.477630291909  -0.000464339192726  -0.634651215771
B  0.879522232952  -8.23139043756e-05  0.4744118697
C  -0.561555536921  -0.000926377030046  0.978169238791
H  1.45856900259  1.04942493216  0.532393213751
H  -0.538862563033  0.940185393178  -1.17888283202
$end


$rem
N_FROZEN_CORE FC
MEM_TOTAL 3750
MEM_STATIC 1500
AUX_BASIS_CORR rimp2-def2-QZVPPD
SCF_CONVERGENCE 7
SCF_ALGORITHM  GDM
method DSD-PBEPBE-D3
GEN_SCFMAN TRUE
UNRESTRICTED True
THRESH  14
SYMMETRY FALSE
SYM_IGNORE TRUE
max_scf_cycles 200

XC_GRID 000250000974
BASIS DEF2-QZVPPD


$end










