$molecule
0 1
C  0.17842202713  0.0891987511019  0.391878568298
F  0.102395943318  -0.00396649064198  -3.06977757657
C  -0.710080839048  -0.0119348205178  1.41322845662
H  -1.78965366026  -0.0355983558168  1.56274578367
H  0.177594344158  0.186381694604  -0.693727009212
H  -0.306016478491  -0.100834745038  -3.90307991843
B  0.725195337897  -0.0300476831988  1.76075930597
H  1.6221433253  -0.0931983504923  2.53797238966
$end


$rem
N_FROZEN_CORE FC
MEM_TOTAL 3750
MEM_STATIC 1500
AUX_BASIS_CORR rimp2-def2-QZVPPD
SCF_CONVERGENCE 7
SCF_ALGORITHM  GDM
method DSD-PBEPBE-D3
GEN_SCFMAN TRUE
UNRESTRICTED True
THRESH  14
SYMMETRY FALSE
SYM_IGNORE TRUE
max_scf_cycles 200

XC_GRID 000250000974
BASIS DEF2-QZVPPD


$end










