$molecule
0 1
H  0.129551574061  -1.69601936287  0.983129720187
C  0.0664724529386  -1.21304593149  -0.00794740730786
SI  1.21592050941  0.342637838344  -0.00772877704701
H  0.434701787716  -1.95841922093  -0.730983996854
H  0.203137339597  2.56026141209  0.0120821175152
H  -0.994697266029  -1.00982709653  -0.223326074952
N  -0.0239835851815  1.56868574992  -0.00638526890868
H  -1.03110281252  1.40572661146  -0.0188403126324
$end


$rem
N_FROZEN_CORE FC
MEM_TOTAL 3750
MEM_STATIC 1500
AUX_BASIS_CORR rimp2-def2-QZVPPD
SCF_CONVERGENCE 7
SCF_ALGORITHM  GDM
method DSD-PBEPBE-D3
GEN_SCFMAN TRUE
UNRESTRICTED True
THRESH  14
SYMMETRY FALSE
SYM_IGNORE TRUE
max_scf_cycles 200

XC_GRID 000250000974
BASIS DEF2-QZVPPD


$end










