$molecule
0 2
H  -2.00133809073  -0.582873176431  0.298730577942
P  -1.2004642172  0.261651191824  1.13227176685
H  1.49653429394  0.050188064668  -1.83340559445
B  0.481848264534  0.170297810071  0.219165008141
H  -0.318716296941  0.347955146478  -1.92748002896
H  -0.999000998591  -0.654729383759  2.21017860736
C  0.55902547472  0.202912745941  -1.29084346574
CL  1.98211157027  0.204597601208  1.19138312886
$end


$rem
N_FROZEN_CORE FC
MEM_TOTAL 3750
MEM_STATIC 1500
AUX_BASIS_CORR rimp2-def2-QZVPPD
SCF_CONVERGENCE 7
SCF_ALGORITHM  GDM
method DSD-PBEPBE-D3
GEN_SCFMAN TRUE
UNRESTRICTED True
THRESH  14
SYMMETRY FALSE
SYM_IGNORE TRUE
max_scf_cycles 200

XC_GRID 000250000974
BASIS DEF2-QZVPPD


$end










