$molecule
0 1
H  0.0159625432577  -2.65011219947  -0.478777374013
H  -0.850717719197  0.853972183339  -0.879966708694
H  0.0446344197039  -2.85926862582  0.243239680592
H  1.11772440368  1.21819226505  -0.594986736696
H  -0.311982982536  -0.0406232281357  0.304430796028
H  -0.338746163742  2.03467323839  0.680109081134
H  0.301836775824  0.244759278779  0.829938279697
B  0.0212887230112  1.19840708786  -0.103987018048
$end


$rem
N_FROZEN_CORE FC
MEM_TOTAL 3750
MEM_STATIC 1500
AUX_BASIS_CORR rimp2-def2-QZVPPD
SCF_CONVERGENCE 7
SCF_ALGORITHM  GDM
method DSD-PBEPBE-D3
GEN_SCFMAN TRUE
UNRESTRICTED True
THRESH  14
SYMMETRY FALSE
SYM_IGNORE TRUE
max_scf_cycles 200

XC_GRID 000250000974
BASIS DEF2-QZVPPD


$end










