$molecule
0 2
H  -0.701200656024  2.17503542068  0.000558055954156
C  -0.286770883796  1.15515398199  -0.000434098115493
H  1.18884956777  -1.8219859623  0.583695650288
O  0.994375578527  0.952214188937  -0.00113114386168
BE  0.564935951959  -0.672802716923  -0.00162881298589
H  -1.98240253142  0.0104556462537  -0.000685410367693
H  1.19022483279  -1.82355712817  -0.579202622372
N  -0.96801185981  0.0254865695372  -0.00117161853921
$end


$rem
N_FROZEN_CORE FC
MEM_TOTAL 3750
MEM_STATIC 1500
AUX_BASIS_CORR rimp2-def2-QZVPPD
SCF_CONVERGENCE 7
SCF_ALGORITHM  GDM
method DSD-PBEPBE-D3
GEN_SCFMAN TRUE
UNRESTRICTED True
THRESH  14
SYMMETRY FALSE
SYM_IGNORE TRUE
max_scf_cycles 200

XC_GRID 000250000974
BASIS DEF2-QZVPPD


$end










