$molecule
0 2
H  0.245234201049  -2.48215383962  1.09184808546
H  -0.19657004391  -0.42906499764  -1.69365861096
H  0.294280495538  -2.67838203579  0.361862441427
H  -0.956117659125  1.95992352061  -0.430140517999
LI  -0.216969462216  -0.711389539054  -0.0720862136677
F  -0.120462741025  0.792445152681  1.07933512146
H  0.96056352023  1.76457651969  -0.413947045954
C  -0.0099583105408  1.78404521912  0.0767867402325
$end


$rem
N_FROZEN_CORE FC
MEM_TOTAL 3750
MEM_STATIC 1500
AUX_BASIS_CORR rimp2-def2-QZVPPD
SCF_CONVERGENCE 7
SCF_ALGORITHM  GDM
method DSD-PBEPBE-D3
GEN_SCFMAN TRUE
UNRESTRICTED True
THRESH  14
SYMMETRY FALSE
SYM_IGNORE TRUE
max_scf_cycles 200

XC_GRID 000250000974
BASIS DEF2-QZVPPD


$end










