$molecule
0 2
H  -2.49552617411  -1.18926967937  0.735384359485
H  2.56052658799  0.203886424995  1.03369568319
AL  -1.77352454258  0.227285251425  0.488662060979
B  1.39969522893  0.160715732309  0.839387595644
BE  0.178284743207  0.126793675838  -0.9123619826
H  1.26917748044  0.1068231011  -1.7203009119
H  -1.25186106847  0.227983472298  -1.23707853622
N  0.113227744602  0.135782021407  0.772611731415
$end


$rem
N_FROZEN_CORE FC
MEM_TOTAL 3750
MEM_STATIC 1500
AUX_BASIS_CORR rimp2-def2-QZVPPD
SCF_CONVERGENCE 7
SCF_ALGORITHM  GDM
method DSD-PBEPBE-D3
GEN_SCFMAN TRUE
UNRESTRICTED True
THRESH  14
SYMMETRY FALSE
SYM_IGNORE TRUE
max_scf_cycles 200

XC_GRID 000250000974
BASIS DEF2-QZVPPD


$end










