$molecule
0 1
H  -2.78693310412  -0.0283901089411  1.44282718586
H  -2.03993547198  -0.0988063236272  1.5173193758
S  0.428560805154  1.57766315647  -1.50361140615
H  -0.763550825385  1.53022213318  -0.8455916603
MG  0.467341759001  -2.55698402237  -1.50106398861
F  0.448290653512  -0.297570350906  1.24681743502
AL  1.33827560314  0.0669866556571  -0.15819590583
H  2.90795058068  -0.193121139462  -0.198501035793
$end


$rem
N_FROZEN_CORE FC
MEM_TOTAL 3750
MEM_STATIC 1500
AUX_BASIS_CORR rimp2-def2-QZVPPD
SCF_CONVERGENCE 7
SCF_ALGORITHM  GDM
method DSD-PBEPBE-D3
GEN_SCFMAN TRUE
UNRESTRICTED True
THRESH  14
SYMMETRY FALSE
SYM_IGNORE TRUE
max_scf_cycles 200

XC_GRID 000250000974
BASIS DEF2-QZVPPD


$end










