$molecule
0 1
H  0.00221049338596  -2.06813383151  1.11783923425
H  -0.00124958044868  -1.85497613064  1.84153428775
H  -0.970770261431  0.785519404979  -1.71495276935
H  0.208842563915  -0.52154298552  -1.53802969042
H  0.760748776203  1.14325524607  -1.76868367274
H  -0.00130676893858  1.16457499532  2.506847204
C  0.000624305451034  0.525238952952  -1.26404994758
MG  0.000900471863474  0.826064348347  0.819495354079
$end


$rem
N_FROZEN_CORE FC
MEM_TOTAL 3750
MEM_STATIC 1500
AUX_BASIS_CORR rimp2-def2-QZVPPD
SCF_CONVERGENCE 7
SCF_ALGORITHM  GDM
method DSD-PBEPBE-D3
GEN_SCFMAN TRUE
UNRESTRICTED True
THRESH  14
SYMMETRY FALSE
SYM_IGNORE TRUE
max_scf_cycles 200

XC_GRID 000250000974
BASIS DEF2-QZVPPD


$end










