$molecule
0 2
N  -0.454575601291  1.88646574497  0.022588899791
LI  -0.824805605234  -1.65072332181  -0.21468703862
B  -0.807195329975  0.400271934661  0.263805888523
H  -1.78073409889  -0.0315383429851  -0.385558302199
C  0.544283189406  1.19783426805  -0.286535881523
H  1.00967866406  -1.15211365064  -0.70168693225
H  1.49969110346  -0.366033138836  1.14493251315
B  0.813657678462  -0.284163493419  0.157140853129
$end


$rem
N_FROZEN_CORE FC
MEM_TOTAL 3750
MEM_STATIC 1500
AUX_BASIS_CORR rimp2-def2-QZVPPD
SCF_CONVERGENCE 7
SCF_ALGORITHM  GDM
method DSD-PBEPBE-D3
GEN_SCFMAN TRUE
UNRESTRICTED True
THRESH  14
SYMMETRY FALSE
SYM_IGNORE TRUE
max_scf_cycles 200

XC_GRID 000250000974
BASIS DEF2-QZVPPD


$end










