$molecule
0 1
N  0.000296860932358  -0.521190697352  -0.84477432886
H  -0.000560919616016  -2.21771153671  0.794998229916
H  -1.40424152117  1.92868720006  0.0738749962555
H  1.40402721452  1.92991460597  0.0719216258949
H  -0.00143985983367  -1.04220299468  -1.71479812061
B  0.000209895683531  -1.08053393141  0.416036813251
AL  8.71946016067e-05  1.19426916314  -0.116164380742
H  0.00162113488753  -0.191231809021  1.3189051649
$end


$rem
N_FROZEN_CORE FC
MEM_TOTAL 3750
MEM_STATIC 1500
AUX_BASIS_CORR rimp2-def2-QZVPPD
SCF_CONVERGENCE 7
SCF_ALGORITHM  GDM
method DSD-PBEPBE-D3
GEN_SCFMAN TRUE
UNRESTRICTED True
THRESH  14
SYMMETRY FALSE
SYM_IGNORE TRUE
max_scf_cycles 200

XC_GRID 000250000974
BASIS DEF2-QZVPPD


$end










