$molecule
0 1
H  -2.60483879142  1.13504013785  -0.548565628995
CL  -0.675017695396  -2.04761673371  0.0384587488919
H  -2.78320248645  1.1630572872  0.181716180317
H  -0.592751992351  -0.756037529307  0.133976580822
H  3.05733029929  -0.86862543584  -0.177264005309
H  2.47605394774  -1.34684161892  -0.161572784457
H  0.869392248783  1.14454010357  0.255656466735
H  0.253034469815  1.57648378916  0.277594441996
$end


$rem
N_FROZEN_CORE FC
MEM_TOTAL 3750
MEM_STATIC 1500
AUX_BASIS_CORR rimp2-def2-QZVPPD
SCF_CONVERGENCE 7
SCF_ALGORITHM  GDM
method DSD-PBEPBE-D3
GEN_SCFMAN TRUE
UNRESTRICTED True
THRESH  14
SYMMETRY FALSE
SYM_IGNORE TRUE
max_scf_cycles 200

XC_GRID 000250000974
BASIS DEF2-QZVPPD


$end










