$molecule
0 1
H  -0.0374968745597  -0.395865967027  -2.4759072287
NA  0.25230326236  -0.374665806784  0.0269884197316
O  0.0928389011323  1.50066555358  -1.02988128969
SI  0.154802564641  2.49856428792  0.243131534032
H  -0.417931021877  -2.0375207797  2.07237259761
H  -0.309058503973  -1.33279466253  2.32626276907
H  -0.0379131498255  -1.14183218148  -2.62213792037
H  0.302454822103  1.28344955602  1.45917111831
$end


$rem
N_FROZEN_CORE FC
MEM_TOTAL 3750
MEM_STATIC 1500
AUX_BASIS_CORR rimp2-def2-QZVPPD
SCF_CONVERGENCE 7
SCF_ALGORITHM  GDM
method DSD-PBEPBE-D3
GEN_SCFMAN TRUE
UNRESTRICTED True
THRESH  14
SYMMETRY FALSE
SYM_IGNORE TRUE
max_scf_cycles 200

XC_GRID 000250000974
BASIS DEF2-QZVPPD


$end










