$molecule
0 1
C  0.545575903941  0.874856801283  -0.18938766446
H  -0.546469056489  0.916351943126  -0.160443864834
C  1.25684385397  -0.244746316668  0.400470871022
H  1.67325416483  -0.769153536514  1.26098584527
H  1.05880058368  1.8189327896  -0.389159764932
H  -2.52967776757  -0.867974488031  -0.329398871545
N  1.16537730039  -0.39595960193  -0.847348555268
H  -2.62370498277  -1.33230759087  0.254282004743
$end


$rem
N_FROZEN_CORE FC
MEM_TOTAL 3750
MEM_STATIC 1500
AUX_BASIS_CORR rimp2-def2-QZVPPD
SCF_CONVERGENCE 7
SCF_ALGORITHM  GDM
method DSD-PBEPBE-D3
GEN_SCFMAN TRUE
UNRESTRICTED True
THRESH  14
SYMMETRY FALSE
SYM_IGNORE TRUE
max_scf_cycles 200

XC_GRID 000250000974
BASIS DEF2-QZVPPD


$end










