$molecule
0 2
H  0.77977913732  -0.869590670275  2.30096067807
H  1.366806232  0.814441597931  0.792112055638
S  -0.152352402699  0.067990574375  1.98481051179
H  -0.293240745453  1.79667044087  -1.11976049605
H  -0.346140391393  -1.56520338058  -1.56207489887
LI  0.226842873963  0.0232417085407  -0.245018737087
H  -0.623250427164  -1.73321281357  -0.87627825297
H  -0.95844427657  1.46566254271  -1.27475086053
$end


$rem
N_FROZEN_CORE FC
MEM_TOTAL 3750
MEM_STATIC 1500
AUX_BASIS_CORR rimp2-def2-QZVPPD
SCF_CONVERGENCE 7
SCF_ALGORITHM  GDM
method DSD-PBEPBE-D3
GEN_SCFMAN TRUE
UNRESTRICTED True
THRESH  14
SYMMETRY FALSE
SYM_IGNORE TRUE
max_scf_cycles 200

XC_GRID 000250000974
BASIS DEF2-QZVPPD


$end










