$molecule
0 2
H  -0.299511057752  -3.09855464455  0.0930261717929
H  0.751147318509  -1.63625342377  -0.962198869163
O  -0.256693004333  2.4487292675  0.304713050923
H  -0.762643236072  2.49184964802  -0.530190702811
P  0.0415493569712  -1.71029155907  0.282623517018
H  -1.18828591228  -1.2562834689  -0.303531622809
N  0.604130827448  1.38309320973  0.104833055783
H  1.11030570751  1.37771097103  1.01072539927
$end


$rem
N_FROZEN_CORE FC
MEM_TOTAL 3750
MEM_STATIC 1500
AUX_BASIS_CORR rimp2-def2-QZVPPD
SCF_CONVERGENCE 7
SCF_ALGORITHM  GDM
method DSD-PBEPBE-D3
GEN_SCFMAN TRUE
UNRESTRICTED True
THRESH  14
SYMMETRY FALSE
SYM_IGNORE TRUE
max_scf_cycles 200

XC_GRID 000250000974
BASIS DEF2-QZVPPD


$end










