$molecule
0 1
H  -0.783852527621  -0.644523698142  -0.186698810009
C  0.221090467102  -1.04002068274  -0.0336401081052
H  -2.71383923652  1.18451238632  -0.0683417727091
H  0.293252080935  -2.11915275913  0.106714390895
H  1.52541059494  1.4570288819  -0.205083827708
SI  1.61141896304  -0.0207221484372  -0.0139816181229
H  -3.14388993341  1.73584015405  0.207794704142
H  2.99040959153  -0.552962133817  0.193237041618
$end


$rem
N_FROZEN_CORE FC
MEM_TOTAL 3750
MEM_STATIC 1500
AUX_BASIS_CORR rimp2-def2-QZVPPD
SCF_CONVERGENCE 7
SCF_ALGORITHM  GDM
method DSD-PBEPBE-D3
GEN_SCFMAN TRUE
UNRESTRICTED True
THRESH  14
SYMMETRY FALSE
SYM_IGNORE TRUE
max_scf_cycles 200

XC_GRID 000250000974
BASIS DEF2-QZVPPD


$end










