$molecule
0 1
B  -0.00600269555389  1.50639213681  0.0952972752945
H  -0.517790355655  1.00042360545  -0.925742062091
NA  -0.0192693264601  -0.792594788522  0.285173756565
H  1.16330429955  1.08479901287  0.217429685778
H  3.51854932418e-06  2.71291690364  -0.00252016831864
H  -0.340035523174  -3.31994779481  -0.475741685096
H  -0.670406656538  1.16632438932  1.09713728311
H  0.390196739281  -3.35831346477  -0.291034085242
$end


$rem
N_FROZEN_CORE FC
MEM_TOTAL 3750
MEM_STATIC 1500
AUX_BASIS_CORR rimp2-def2-QZVPPD
SCF_CONVERGENCE 7
SCF_ALGORITHM  GDM
method DSD-PBEPBE-D3
GEN_SCFMAN TRUE
UNRESTRICTED True
THRESH  14
SYMMETRY FALSE
SYM_IGNORE TRUE
max_scf_cycles 200

XC_GRID 000250000974
BASIS DEF2-QZVPPD


$end










