$molecule
0 2
H  -0.97193796934  -1.23012761042  0.594000437264
H  -1.4204758981  2.36938924571  0.112708925663
H  -0.175911158088  -0.714392186745  -0.924670541634
H  -0.719047137293  2.26806661386  -0.138326240518
C  -0.0518142770964  -1.2909450799  -5.06115778309e-05
H  0.783840401585  -0.877820246889  0.577908955421
H  0.156404935873  -2.33889698571  -0.246971008857
H  2.39894110246  1.8147262501  0.0254000842379
$end


$rem
N_FROZEN_CORE FC
MEM_TOTAL 3750
MEM_STATIC 1500
AUX_BASIS_CORR rimp2-def2-QZVPPD
SCF_CONVERGENCE 7
SCF_ALGORITHM  GDM
method DSD-PBEPBE-D3
GEN_SCFMAN TRUE
UNRESTRICTED True
THRESH  14
SYMMETRY FALSE
SYM_IGNORE TRUE
max_scf_cycles 200

XC_GRID 000250000974
BASIS DEF2-QZVPPD


$end










