$molecule
0 1
C  0.485041691175  -1.20675019273  -0.0780490041182
H  0.623014851229  -2.29971738237  -0.131058064395
H  1.3917916343  -0.590059019413  -0.021445648068
H  -0.118178336778  2.51940031013  0.746630058995
N  -0.643494764061  -0.615057780329  -0.0796886310998
H  -1.42906527342  -1.27839384194  -0.142075150927
H  -0.372190068213  1.29222192059  -0.150998572737
O  0.0630802657677  2.17835598607  -0.143314987649
$end


$rem
N_FROZEN_CORE FC
MEM_TOTAL 3750
MEM_STATIC 1500
AUX_BASIS_CORR rimp2-def2-QZVPPD
SCF_CONVERGENCE 7
SCF_ALGORITHM  GDM
method DSD-PBEPBE-D3
GEN_SCFMAN TRUE
UNRESTRICTED True
THRESH  14
SYMMETRY FALSE
SYM_IGNORE TRUE
max_scf_cycles 200

XC_GRID 000250000974
BASIS DEF2-QZVPPD


$end










