$molecule
0 1
C       -0.765850   -0.000004    0.000000 
C        0.765850    0.000004    0.000000 
H       -1.162381   -1.020936   -0.022850 
H       -1.162409    0.530251   -0.872720 
H       -1.162411    0.490675    0.895568 
H        1.162410   -0.530239    0.872727 
H        1.162411   -0.490686   -0.895561 
H        1.162381    1.020936    0.022836 
$end


$rem
N_FROZEN_CORE FC
MEM_TOTAL 3750
MEM_STATIC 1500
AUX_BASIS_CORR rimp2-def2-QZVPPD
SCF_CONVERGENCE 7
SCF_ALGORITHM  GDM
method DSD-PBEPBE-D3
GEN_SCFMAN TRUE
UNRESTRICTED True
THRESH  14
SYMMETRY FALSE
SYM_IGNORE TRUE
max_scf_cycles 200

XC_GRID 000099000590
BASIS DEF2-QZVPP


$end










