$molecule
0 1
C        1.306659   -1.017500   -0.000028 
C        0.488515    0.240833   -0.000079 
H        2.367301   -0.760167   -0.001300 
H        1.052624   -1.613812   -0.881062 
H        1.054555   -1.612076    0.882774 
O        0.865971    1.367720    0.000018 
Cl      -1.304312   -0.135041    0.000005 
$end


$rem
N_FROZEN_CORE FC
MEM_TOTAL 3750
MEM_STATIC 1500
AUX_BASIS_CORR rimp2-def2-QZVPPD
SCF_CONVERGENCE 7
SCF_ALGORITHM  GDM
method DSD-PBEPBE-D3
GEN_SCFMAN TRUE
UNRESTRICTED True
THRESH  14
SYMMETRY FALSE
SYM_IGNORE TRUE
max_scf_cycles 200

XC_GRID 000099000590
BASIS DEF2-QZVPP


$end










