$molecule
0 1
Mn      -0.000015    0.000034   -0.156112 
O       -2.966556    0.069032   -0.568565 
C       -1.835048    0.042703   -0.376221 
C        0.000106   -0.000266    1.691489 
O        0.000196   -0.000501    2.842648 
C        1.835004   -0.042558   -0.376374 
O        2.966501   -0.068795   -0.568793 
C        0.042608    1.834986   -0.376689 
O        0.068875    2.966413   -0.569532 
C       -0.042655   -1.834886   -0.377054 
O       -0.068962   -2.966280   -0.570073 
H       -0.000145    0.000318   -1.733571 
$end


$rem
N_FROZEN_CORE FC
MEM_TOTAL 7500
MEM_STATIC 3000
AUX_BASIS_CORR rimp2-def2-QZVPPD
SCF_CONVERGENCE 7
SCF_ALGORITHM  GDM
method DSD-PBEPBE-D3
GEN_SCFMAN TRUE
UNRESTRICTED True
THRESH  14
SYMMETRY FALSE
SYM_IGNORE TRUE
max_scf_cycles 200

XC_GRID 000099000590
BASIS DEF2-QZVPP


$end










