$molecule
0 1
C        0.099641    0.015172    0.000002 
C        0.811159    1.219454    0.000004 
C        2.205438    1.200000    0.000001 
C        2.898295   -0.010923    0.000001 
C        2.184022   -1.209573    0.000001 
C        0.790170   -1.202154    0.000003 
Se      -1.821201   -0.043502   -0.000002 
H       -1.984560    1.419830   -0.000002 
H        0.283594    2.168662    0.000009 
H        2.749671    2.140448   -0.000003 
H        3.983980   -0.020380    0.000003 
H        2.711288   -2.159513   -0.000002 
H        0.244496   -2.141840    0.000007 
$end


$rem
N_FROZEN_CORE FC
MEM_TOTAL 3750
MEM_STATIC 1500
AUX_BASIS_CORR rimp2-def2-QZVPPD
SCF_CONVERGENCE 7
SCF_ALGORITHM  GDM
method DSD-PBEPBE-D3
GEN_SCFMAN TRUE
UNRESTRICTED True
THRESH  14
SYMMETRY FALSE
SYM_IGNORE TRUE
max_scf_cycles 200

XC_GRID 000099000590
BASIS DEF2-QZVPP


$end










