$molecule
0 1
N        1.434594    0.083513   -0.053227 
C        0.278345    0.016206   -0.010325 
C       -1.176577   -0.068494    0.043652 
H       -1.556498   -0.572512   -0.849824 
H       -1.609231    0.934929    0.094890 
H       -1.487035   -0.633283    0.927565 
$end


$rem
N_FROZEN_CORE FC
MEM_TOTAL 3750
MEM_STATIC 1500
AUX_BASIS_CORR rimp2-def2-QZVPPD
SCF_CONVERGENCE 7
SCF_ALGORITHM  GDM
method DSD-PBEPBE-D3
GEN_SCFMAN TRUE
UNRESTRICTED True
THRESH  14
SYMMETRY FALSE
SYM_IGNORE TRUE
max_scf_cycles 200

XC_GRID 000099000590
BASIS DEF2-QZVPP


$end










