$molecule
0 1
Cr      -0.000002    0.000001   -0.000002 
O       -2.697134   -0.646688    1.294578 
C       -1.683963   -0.403751    0.808266 
C        0.796729   -1.469777    0.925736 
O        1.276107   -2.354083    1.482723 
C        1.683955    0.403738   -0.808274 
O        2.697131    0.646654   -1.294589 
C        0.426065    1.152703    1.463476 
O        0.682414    1.846242    2.344001 
C       -0.426072   -1.152714   -1.463481 
O       -0.682416   -1.846267   -2.343994 
C       -0.796727    1.469805   -0.925736 
O       -1.276085    2.354134   -1.482702 
$end


$rem
N_FROZEN_CORE FC
MEM_TOTAL 7500
MEM_STATIC 3000
AUX_BASIS_CORR rimp2-def2-QZVPPD
SCF_CONVERGENCE 7
SCF_ALGORITHM  GDM
method DSD-PBEPBE-D3
GEN_SCFMAN TRUE
UNRESTRICTED True
THRESH  14
SYMMETRY FALSE
SYM_IGNORE TRUE
max_scf_cycles 200

XC_GRID 000099000590
BASIS DEF2-QZVPP


$end










