$molecule
0 1
Ca      -2.207195    1.560723   -0.000000 
O       -2.207195    0.000000    1.560723 
Ca      -2.207195   -1.560723   -0.000000 
O       -2.207195    0.000000   -1.560723 
Ca      -0.000000    0.000000   -1.560723 
O        0.000000   -1.560723    0.000000 
Ca      -0.000000   -0.000000    1.560723 
O        0.000000    1.560723   -0.000000 
Ca       2.207195    1.560723    0.000000 
O        2.207195   -0.000000    1.560723 
Ca       2.207195   -1.560723    0.000000 
O        2.207195    0.000000   -1.560723 
$end


$rem
N_FROZEN_CORE FC
MEM_TOTAL 15000
MEM_STATIC 6000
AUX_BASIS_CORR rimp2-def2-QZVPPD
SCF_CONVERGENCE 7
SCF_ALGORITHM  GDM
method DSD-PBEPBE-D3
GEN_SCFMAN TRUE
UNRESTRICTED True
THRESH  14
SYMMETRY FALSE
SYM_IGNORE TRUE
max_scf_cycles 200

XC_GRID 000099000590
BASIS DEF2-QZVPPD


$end










