$molecule
0 1
 Mg         0.0000000000       -0.0000000000        1.6759070539
 O          0.7900301616       -1.3683723795        0.5586356846
 Mg        -0.7900301616       -1.3683723795       -0.5586356846
 O         -1.5800603233       -0.0000000000        0.5586356846
 Mg        -0.7900301616        1.3683723795       -0.5586356846
 O          0.0000000000       -0.0000000000       -1.6759070539
 Mg         1.5800603233       -0.0000000000       -0.5586356846
 O          0.7900301616        1.3683723795        0.5586356846
$end


$rem
N_FROZEN_CORE FC
MEM_TOTAL 3750
MEM_STATIC 1500
AUX_BASIS_CORR rimp2-def2-QZVPPD
SCF_CONVERGENCE 7
SCF_ALGORITHM  GDM
method DSD-PBEPBE-D3
GEN_SCFMAN TRUE
UNRESTRICTED True
THRESH  14
SYMMETRY FALSE
SYM_IGNORE TRUE
max_scf_cycles 200

XC_GRID 000099000590
BASIS DEF2-QZVPPD


$end










