$molecule
0 1
Na       0.000000   -1.553707    3.295911 
F       -1.553707    0.000000    3.295911 
Na       0.000000    1.553707    3.295911 
F        1.553707    0.000000    3.295911 
Na       1.553707   -0.000000    1.098637 
F        0.000000    1.553707    1.098637 
Na      -1.553707   -0.000000    1.098637 
F       -0.000000   -1.553707    1.098637 
Na      -0.000000   -1.553707   -1.098637 
F       -1.553707    0.000000   -1.098637 
Na       0.000000    1.553707   -1.098637 
F        1.553707   -0.000000   -1.098637 
Na       1.553707    0.000000   -3.295911 
F        0.000000    1.553707   -3.295911 
Na      -1.553707    0.000000   -3.295911 
F       -0.000000   -1.553707   -3.295911 
$end


$rem
N_FROZEN_CORE FC
MEM_TOTAL 15000
MEM_STATIC 6000
AUX_BASIS_CORR rimp2-def2-QZVPPD
SCF_CONVERGENCE 7
SCF_ALGORITHM  GDM
method DSD-PBEPBE-D3
GEN_SCFMAN TRUE
UNRESTRICTED True
THRESH  14
SYMMETRY FALSE
SYM_IGNORE TRUE
max_scf_cycles 200

XC_GRID 000099000590
BASIS DEF2-QZVPPD


$end










