$molecule
0 1
 K         -0.0000000000        0.0000000000        2.1440814675
 F          1.0107296967       -1.7506351875        0.7146938225
 K         -1.0107296967       -1.7506351875       -0.7146938225
 F         -2.0214593935        0.0000000000        0.7146938225
 K         -1.0107296967        1.7506351875       -0.7146938225
 F          0.0000000000        0.0000000000       -2.1440814675
 K          2.0214593935        0.0000000000       -0.7146938225
 F          1.0107296967        1.7506351875        0.7146938225
$end


$rem
N_FROZEN_CORE FC
MEM_TOTAL 3750
MEM_STATIC 1500
AUX_BASIS_CORR rimp2-def2-QZVPPD
SCF_CONVERGENCE 7
SCF_ALGORITHM  GDM
method DSD-PBEPBE-D3
GEN_SCFMAN TRUE
UNRESTRICTED True
THRESH  14
SYMMETRY FALSE
SYM_IGNORE TRUE
max_scf_cycles 200

XC_GRID 000099000590
BASIS DEF2-QZVPPD


$end










