$molecule
0 1
K        0.000000    0.000000    0.000000 
F        0.000000    0.000000    2.516911 
K        2.516911    0.000000    2.516911 
F        2.516911    0.000000    0.000000 
K        2.516911    2.516911    0.000000 
F        2.516911    2.516911    2.516911 
K        0.000000    2.516911    2.516911 
F        0.000000    2.516911    0.000000 
K        0.000000    5.033823    0.000000 
F        0.000000    5.033823    2.516911 
K        2.516911    5.033823    2.516911 
F        2.516911    5.033823    0.000000 
$end


$rem
N_FROZEN_CORE FC
MEM_TOTAL 7500
MEM_STATIC 3000
AUX_BASIS_CORR rimp2-def2-QZVPPD
SCF_CONVERGENCE 7
SCF_ALGORITHM  GDM
method DSD-PBEPBE-D3
GEN_SCFMAN TRUE
UNRESTRICTED True
THRESH  14
SYMMETRY FALSE
SYM_IGNORE TRUE
max_scf_cycles 200

XC_GRID 000099000590
BASIS DEF2-QZVPPD


$end










