$molecule
0 1
Mg       1.727194    0.000000    3.663932 
S       -0.000000   -1.727194    3.663932 
Mg      -1.727194    0.000000    3.663932 
S        0.000000    1.727194    3.663932 
Mg       0.000000    1.727194    1.221311 
S       -1.727194    0.000000    1.221311 
Mg      -0.000000   -1.727194    1.221311 
S        1.727194   -0.000000    1.221311 
Mg       1.727194   -0.000000   -1.221311 
S       -0.000000   -1.727194   -1.221311 
Mg      -1.727194    0.000000   -1.221311 
S        0.000000    1.727194   -1.221311 
Mg       0.000000    1.727194   -3.663932 
S       -1.727194    0.000000   -3.663932 
Mg       0.000000   -1.727194   -3.663932 
S        1.727194   -0.000000   -3.663932 
$end


$rem
N_FROZEN_CORE FC
MEM_TOTAL 30000
MEM_STATIC 8000
AUX_BASIS_CORR rimp2-def2-QZVPPD
SCF_CONVERGENCE 7
SCF_ALGORITHM  GDM
method DSD-PBEPBE-D3
GEN_SCFMAN TRUE
UNRESTRICTED True
THRESH  14
SYMMETRY FALSE
SYM_IGNORE TRUE
max_scf_cycles 200

XC_GRID 000099000590
BASIS DEF2-QZVPPD


$end










