$molecule
0 1
Mg       0.000000    0.000000    0.000000 
O        0.000000    0.000000    1.969450 
Mg       1.969450    0.000000    1.969450 
O        1.969450    0.000000    0.000000 
Mg       1.969450    1.969450    0.000000 
O        1.969450    1.969450    1.969450 
Mg       0.000000    1.969450    1.969450 
O        0.000000    1.969450    0.000000 
Mg       0.000000    3.938901    0.000000 
O        0.000000    3.938901    1.969450 
Mg       1.969450    3.938901    1.969450 
O        1.969450    3.938901    0.000000 
Mg       1.969450    5.908351    0.000000 
O        1.969450    5.908351    1.969450 
Mg       0.000000    5.908351    1.969450 
O        0.000000    5.908351    0.000000 
$end


$rem
N_FROZEN_CORE FC
MEM_TOTAL 15000
MEM_STATIC 6000
AUX_BASIS_CORR rimp2-def2-QZVPPD
SCF_CONVERGENCE 7
SCF_ALGORITHM  GDM
method DSD-PBEPBE-D3
GEN_SCFMAN TRUE
UNRESTRICTED True
THRESH  14
SYMMETRY FALSE
SYM_IGNORE TRUE
max_scf_cycles 200

XC_GRID 000099000590
BASIS DEF2-QZVPPD


$end










