$molecule
0 1
Mg       2.433004   -0.000000    1.720394 
S        2.433004    1.720394   -0.000000 
Mg       2.433004   -0.000000   -1.720394 
S        2.433004   -1.720394   -0.000000 
Mg       0.000000   -1.720394    0.000000 
S        0.000000    0.000000   -1.720394 
Mg       0.000000    1.720394   -0.000000 
S       -0.000000    0.000000    1.720394 
Mg      -2.433004    0.000000    1.720394 
S       -2.433004    1.720394   -0.000000 
Mg      -2.433004   -0.000000   -1.720394 
S       -2.433004   -1.720394    0.000000 
$end


$rem
N_FROZEN_CORE FC
MEM_TOTAL 15000
MEM_STATIC 6000
AUX_BASIS_CORR rimp2-def2-QZVPPD
SCF_CONVERGENCE 7
SCF_ALGORITHM  GDM
method DSD-PBEPBE-D3
GEN_SCFMAN TRUE
UNRESTRICTED True
THRESH  14
SYMMETRY FALSE
SYM_IGNORE TRUE
max_scf_cycles 200

XC_GRID 000099000590
BASIS DEF2-QZVPPD


$end










