$molecule
0 1
 Ca        -0.0000000000        0.0000000000        1.8761458383
 O          0.8844236298       -1.5318666623        0.6253819461
 Ca        -0.8844236298       -1.5318666623       -0.6253819461
 O         -1.7688472597        0.0000000000        0.6253819461
 Ca        -0.8844236298        1.5318666623       -0.6253819461
 O          0.0000000000        0.0000000000       -1.8761458383
 Ca         1.7688472597        0.0000000000       -0.6253819461
 O          0.8844236298        1.5318666623        0.6253819461
$end


$rem
N_FROZEN_CORE FC
MEM_TOTAL 3750
MEM_STATIC 1500
AUX_BASIS_CORR rimp2-def2-QZVPPD
SCF_CONVERGENCE 7
SCF_ALGORITHM  GDM
method DSD-PBEPBE-D3
GEN_SCFMAN TRUE
UNRESTRICTED True
THRESH  14
SYMMETRY FALSE
SYM_IGNORE TRUE
max_scf_cycles 200

XC_GRID 000099000590
BASIS DEF2-QZVPPD


$end










