$molecule
0 1
 Mg         0.0000000000       -0.0000000000        2.0894574673
 S          1.7060348781       -0.9849796961        0.6964858224
 Mg         0.0000000000       -1.9699593922       -0.6964858224
 S         -1.7060348781       -0.9849796961        0.6964858224
 Mg        -1.7060348781        0.9849796961       -0.6964858224
 S          0.0000000000        0.0000000000       -2.0894574673
 Mg         1.7060348781        0.9849796961       -0.6964858224
 S         -0.0000000000        1.9699593922        0.6964858224
$end


$rem
N_FROZEN_CORE FC
MEM_TOTAL 3750
MEM_STATIC 1500
AUX_BASIS_CORR rimp2-def2-QZVPPD
SCF_CONVERGENCE 7
SCF_ALGORITHM  GDM
method DSD-PBEPBE-D3
GEN_SCFMAN TRUE
UNRESTRICTED True
THRESH  14
SYMMETRY FALSE
SYM_IGNORE TRUE
max_scf_cycles 200

XC_GRID 000099000590
BASIS DEF2-QZVPPD


$end










