$molecule
0 1
Ca       0.000000   -1.891583    4.012653 
S       -1.891583    0.000000    4.012653 
Ca       0.000000    1.891583    4.012653 
S        1.891583    0.000000    4.012653 
Ca       1.891583   -0.000000    1.337551 
S        0.000000    1.891583    1.337551 
Ca      -1.891583   -0.000000    1.337551 
S       -0.000000   -1.891583    1.337551 
Ca      -0.000000   -1.891583   -1.337551 
S       -1.891583    0.000000   -1.337551 
Ca       0.000000    1.891583   -1.337551 
S        1.891583   -0.000000   -1.337551 
Ca       1.891583    0.000000   -4.012653 
S        0.000000    1.891583   -4.012653 
Ca      -1.891583    0.000000   -4.012653 
S       -0.000000   -1.891583   -4.012653 
$end


$rem
N_FROZEN_CORE FC
MEM_TOTAL 30000
MEM_STATIC 8000
AUX_BASIS_CORR rimp2-def2-QZVPPD
SCF_CONVERGENCE 7
SCF_ALGORITHM  GDM
method DSD-PBEPBE-D3
GEN_SCFMAN TRUE
UNRESTRICTED True
THRESH  14
SYMMETRY FALSE
SYM_IGNORE TRUE
max_scf_cycles 200

XC_GRID 000099000590
BASIS DEF2-QZVPPD


$end










