$molecule
0 1
K        0.000000    0.000000    0.000000 
F        0.000000    0.000000    2.529598 
K        2.529598    0.000000    2.529598 
F        2.529598    0.000000    0.000000 
K        2.529598    2.529598    0.000000 
F        2.529598    2.529598    2.529598 
K        0.000000    2.529598    2.529598 
F        0.000000    2.529598    0.000000 
K        0.000000    5.059196    0.000000 
F        0.000000    5.059196    2.529598 
K        2.529598    5.059196    2.529598 
F        2.529598    5.059196    0.000000 
K        2.529598    7.588794    0.000000 
F        2.529598    7.588794    2.529598 
K        0.000000    7.588794    2.529598 
F        0.000000    7.588794    0.000000 
$end


$rem
N_FROZEN_CORE FC
MEM_TOTAL 30000
MEM_STATIC 8000
AUX_BASIS_CORR rimp2-def2-QZVPPD
SCF_CONVERGENCE 7
SCF_ALGORITHM  GDM
method DSD-PBEPBE-D3
GEN_SCFMAN TRUE
UNRESTRICTED True
THRESH  14
SYMMETRY FALSE
SYM_IGNORE TRUE
max_scf_cycles 200

XC_GRID 000099000590
BASIS DEF2-QZVPPD


$end










