$molecule
0 1
 Na         0.0000000000        0.0000000000        2.2861849140
 Cl         1.0777179038       -1.8666621656        0.7620616380
 Na        -1.0777179038       -1.8666621656       -0.7620616380
 Cl        -2.1554358076        0.0000000000        0.7620616380
 Na        -1.0777179038        1.8666621656       -0.7620616380
 Cl        -0.0000000000        0.0000000000       -2.2861849140
 Na         2.1554358076        0.0000000000       -0.7620616380
 Cl         1.0777179038        1.8666621656        0.7620616380
$end


$rem
N_FROZEN_CORE FC
MEM_TOTAL 3750
MEM_STATIC 1500
AUX_BASIS_CORR rimp2-def2-QZVPPD
SCF_CONVERGENCE 7
SCF_ALGORITHM  GDM
method DSD-PBEPBE-D3
GEN_SCFMAN TRUE
UNRESTRICTED True
THRESH  14
SYMMETRY FALSE
SYM_IGNORE TRUE
max_scf_cycles 200

XC_GRID 000099000590
BASIS DEF2-QZVPPD


$end










