$molecule
0 1
 Ca         0.0000000000        0.0000000000        2.2792125168
 S          1.0744310843       -1.8609692272        0.7597375056
 Ca        -1.0744310843       -1.8609692272       -0.7597375056
 S         -2.1488621685        0.0000000000        0.7597375056
 Ca        -1.0744310843        1.8609692272       -0.7597375056
 S         -0.0000000000        0.0000000000       -2.2792125168
 Ca         2.1488621685        0.0000000000       -0.7597375056
 S          1.0744310843        1.8609692272        0.7597375056
$end


$rem
N_FROZEN_CORE FC
MEM_TOTAL 3750
MEM_STATIC 1500
AUX_BASIS_CORR rimp2-def2-QZVPPD
SCF_CONVERGENCE 7
SCF_ALGORITHM  GDM
method DSD-PBEPBE-D3
GEN_SCFMAN TRUE
UNRESTRICTED True
THRESH  14
SYMMETRY FALSE
SYM_IGNORE TRUE
max_scf_cycles 200

XC_GRID 000099000590
BASIS DEF2-QZVPPD


$end










