$molecule
0 1
 Mg         0.0000000000        0.0000000000       -0.6918322718
 O          0.0000000000        0.0000000000        1.0509758720
$end


$rem
N_FROZEN_CORE FC
MEM_TOTAL 3750
MEM_STATIC 1500
AUX_BASIS_CORR rimp2-def2-QZVPPD
SCF_CONVERGENCE 7
SCF_ALGORITHM  GDM
method DSD-PBEPBE-D3
GEN_SCFMAN TRUE
UNRESTRICTED True
THRESH  14
SYMMETRY FALSE
SYM_IGNORE TRUE
max_scf_cycles 200

XC_GRID 000200000974
BASIS DEF2-QZVPPD
SCF_GUESS_MIX = 3
SCF_GUESS SADMO
$end










