$molecule
0 1
Na       1.894945    0.000000    4.019786 
Cl      -0.000000   -1.894945    4.019786 
Na      -1.894945    0.000000    4.019786 
Cl       0.000000    1.894945    4.019786 
Na       0.000000    1.894945    1.339929 
Cl      -1.894945    0.000000    1.339929 
Na      -0.000000   -1.894945    1.339929 
Cl       1.894945   -0.000000    1.339929 
Na       1.894945   -0.000000   -1.339929 
Cl      -0.000000   -1.894945   -1.339929 
Na      -1.894945    0.000000   -1.339929 
Cl       0.000000    1.894945   -1.339929 
Na       0.000000    1.894945   -4.019786 
Cl      -1.894945    0.000000   -4.019786 
Na       0.000000   -1.894945   -4.019786 
Cl       1.894945   -0.000000   -4.019786 
$end


$rem
N_FROZEN_CORE FC
MEM_TOTAL 30000
MEM_STATIC 8000
AUX_BASIS_CORR rimp2-def2-QZVPPD
SCF_CONVERGENCE 7
SCF_ALGORITHM  GDM
method DSD-PBEPBE-D3
GEN_SCFMAN TRUE
UNRESTRICTED True
THRESH  14
SYMMETRY FALSE
SYM_IGNORE TRUE
max_scf_cycles 200

XC_GRID 000099000590
BASIS DEF2-QZVPPD


$end










