$molecule
0 1
Mg       0.000000    0.000000    0.000000 
O        0.000000    0.000000    1.960435 
Mg       1.960435    0.000000    1.960435 
O        1.960435    0.000000    0.000000 
Mg       1.960435    1.960435    0.000000 
O        1.960435    1.960435    1.960435 
Mg       0.000000    1.960435    1.960435 
O        0.000000    1.960435    0.000000 
Mg       0.000000    3.920869    0.000000 
O        0.000000    3.920869    1.960435 
Mg       1.960435    3.920869    1.960435 
O        1.960435    3.920869    0.000000 
$end


$rem
N_FROZEN_CORE FC
MEM_TOTAL 7500
MEM_STATIC 3000
AUX_BASIS_CORR rimp2-def2-QZVPPD
SCF_CONVERGENCE 7
SCF_ALGORITHM  GDM
method DSD-PBEPBE-D3
GEN_SCFMAN TRUE
UNRESTRICTED True
THRESH  14
SYMMETRY FALSE
SYM_IGNORE TRUE
max_scf_cycles 200

XC_GRID 000099000590
BASIS DEF2-QZVPPD


$end










