$molecule
0 1
P  0.0  0.0  -0.947024067788
C  0.812526742781  -1.40733760101  -0.0515431715355
C  0.812526742781  1.40733760101  -0.0515431715355
C  -1.62505348556  0.0  -0.0515431715355
H  -2.20180485347  0.883482700541  -0.33333304656
H  -2.20180485347  -0.883482700541  -0.33333304656
H  -1.48338476096  0.0  1.03388395392
H  1.86602088921  -1.46507758701  -0.33333304656
H  0.741692380478  -1.28464888657  1.03388395392
H  0.335783964262  -2.34856028755  -0.33333304656
H  0.335783964262  2.34856028755  -0.33333304656
H  1.86602088921  1.46507758701  -0.33333304656
H  0.741692380478  1.28464888657  1.03388395392
$end


$rem
N_FROZEN_CORE FC
MEM_TOTAL 3750
MEM_STATIC 1500
AUX_BASIS_CORR rimp2-def2-QZVPPD
SCF_CONVERGENCE 7
SCF_ALGORITHM  GDM
method DSD-PBEPBE-D3
GEN_SCFMAN TRUE
UNRESTRICTED True
THRESH  14
SYMMETRY FALSE
SYM_IGNORE TRUE
max_scf_cycles 200

XC_GRID 000099000590
BASIS DEF2-QZVPPD


$end










