$molecule
0 1
P  0.0  0.0  -0.575769539792
H  0.596692959107  -1.03350252169  0.191923179931
H  0.596692959107  1.03350252169  0.191923179931
H  -1.19338591821  0.0  0.191923179931
$end


$rem
N_FROZEN_CORE FC
MEM_TOTAL 3750
MEM_STATIC 1500
AUX_BASIS_CORR rimp2-def2-QZVPPD
SCF_CONVERGENCE 7
SCF_ALGORITHM  GDM
method DSD-PBEPBE-D3
GEN_SCFMAN TRUE
UNRESTRICTED True
THRESH  14
SYMMETRY FALSE
SYM_IGNORE TRUE
max_scf_cycles 200

XC_GRID 000099000590
BASIS DEF2-QZVPPD


$end










