$molecule
0 1
N  0.701949758719  1.21581264646  0.0
B  1.44486054364  0.0  0.0
N  0.701949758719  -1.21581264646  0.0
B  -0.722430271818  -1.25128593571  0.0
N  -1.40389951744  0.0  0.0
B  -0.722430271818  1.25128593571  0.0
H  1.20452204661  2.08629338357  0.0
H  2.64131832581  0.0  0.0
H  1.20452204661  -2.08629338357  0.0
H  -1.3206591629  -2.28744876963  0.0
H  -2.40904409322  0.0  0.0
H  -1.3206591629  2.28744876963  0.0
$end


$rem
N_FROZEN_CORE FC
MEM_TOTAL 3750
MEM_STATIC 1500
AUX_BASIS_CORR rimp2-def2-QZVPPD
SCF_CONVERGENCE 7
SCF_ALGORITHM  GDM
method DSD-PBEPBE-D3
GEN_SCFMAN TRUE
UNRESTRICTED True
THRESH  14
SYMMETRY FALSE
SYM_IGNORE TRUE
max_scf_cycles 200

XC_GRID 000099000590
BASIS DEF2-QZVPPD


$end










