$molecule
0 1
N  0.0  0.0  -1.15437742233
B  0.0  -1.10500740002  0.0
N  0.0  0.0  1.15437742233
B  0.0  1.10500740002  0.0
H  -0.816622343347  0.0  -1.74591917114
H  0.816622343347  0.0  -1.74591917114
H  -1.01656611715  -1.75295575839  0.0
H  1.01656611715  -1.75295575839  0.0
H  0.816622343347  0.0  1.74591917114
H  -0.816622343347  0.0  1.74591917114
H  -1.01656611715  1.75295575839  0.0
H  1.01656611715  1.75295575839  0.0
$end


$rem
N_FROZEN_CORE FC
MEM_TOTAL 3750
MEM_STATIC 1500
AUX_BASIS_CORR rimp2-def2-QZVPPD
SCF_CONVERGENCE 7
SCF_ALGORITHM  GDM
method DSD-PBEPBE-D3
GEN_SCFMAN TRUE
UNRESTRICTED True
THRESH  14
SYMMETRY FALSE
SYM_IGNORE TRUE
max_scf_cycles 200

XC_GRID 000099000590
BASIS DEF2-QZVPPD


$end










