$molecule
0 1
P  -1.21420871946  -0.00811450303707  0.0128749385002
B  1.49607730172  0.00386146401829  -0.0133164157406
H  -2.57365811437  0.163898979675  -0.421937057806
H  -0.677394111395  1.10909388793  -0.623566452247
H  -1.04259543388  -1.28787378657  -0.511201384051
H  -1.4969358035  0.090562344288  1.37898827767
H  1.5753236328  1.20628207742  0.0958204437422
H  2.28446832756  -0.655512089863  0.61330663394
H  1.27970750369  -0.37120792708  -1.14650389078
H  0.369215416841  -0.250990446779  0.615534906773
$end


$rem
N_FROZEN_CORE FC
MEM_TOTAL 3750
MEM_STATIC 1500
AUX_BASIS_CORR rimp2-def2-QZVPPD
SCF_CONVERGENCE 7
SCF_ALGORITHM  GDM
method DSD-PBEPBE-D3
GEN_SCFMAN TRUE
UNRESTRICTED True
THRESH  14
SYMMETRY FALSE
SYM_IGNORE TRUE
max_scf_cycles 200

XC_GRID 000099000590
BASIS DEF2-QZVPPD


$end










