$molecule
0 1
N  0.0  0.0  -0.802757001303
B  0.0  0.0  0.834929807001
H  0.473317612256  0.819810152545  -1.16551936682
H  0.473317612256  -0.819810152545  -1.16551936682
H  -0.946635224513  0.0  -1.16551936682
H  1.16843056342  0.0  1.15479509825
H  -0.584215281711  1.01189055048  1.15479509825
H  -0.584215281711  -1.01189055048  1.15479509825
$end


$rem
N_FROZEN_CORE FC
MEM_TOTAL 3750
MEM_STATIC 1500
AUX_BASIS_CORR rimp2-def2-QZVPPD
SCF_CONVERGENCE 7
SCF_ALGORITHM  GDM
method DSD-PBEPBE-D3
GEN_SCFMAN TRUE
UNRESTRICTED True
THRESH  14
SYMMETRY FALSE
SYM_IGNORE TRUE
max_scf_cycles 200

XC_GRID 000099000590
BASIS DEF2-QZVPPD


$end










