$molecule
0 2
 C -0.334187997  1.715917421  0.000000000
 H  0.242307003  1.807158421  0.932814000
 H  0.242307003  1.807158421 -0.932814000
 O -1.527635997  1.532022421  0.000000000
 N  0.960645461 -1.550315029  0.000000000
 H -0.022373539 -1.839463029  0.000000000
 H  1.478996461 -2.433354029  0.000000000
$end


$rem
N_FROZEN_CORE FC
MEM_TOTAL 3750
MEM_STATIC 1500
AUX_BASIS_CORR rimp2-def2-QZVPPD
SCF_CONVERGENCE 7
SCF_ALGORITHM  GDM
method DSD-PBEPBE-D3
GEN_SCFMAN TRUE
UNRESTRICTED True
THRESH  14
SYMMETRY FALSE
SYM_IGNORE TRUE
max_scf_cycles 200

XC_GRID 000099000590
BASIS DEF2-QZVPPD


$end










