$molecule
0 2
 H  0.905020870  1.257212446 -1.980000000
 H  0.905020870 -1.206707554 -1.980000000
 H -0.942899130 -1.206707554 -1.980000000
 C -0.018939130  0.692432446 -1.980000000
 C -0.018939130 -0.641927554 -1.980000000
 H -0.939455652  1.252621093  1.980000000
 H  0.908464348  1.252621093  1.980000000
 H  0.908464348 -1.211298907  1.980000000
 H -0.939455652 -1.211298907  1.980000000
 C -0.015495652  0.687841093  1.980000000
 C -0.015495652 -0.646518907  1.980000000
$end


$rem
N_FROZEN_CORE FC
MEM_TOTAL 3750
INTERNAL_STABILITY TRUE
MEM_STATIC 1500
AUX_BASIS_CORR rimp2-def2-QZVPPD
SCF_CONVERGENCE 7
SCF_ALGORITHM  GDM
method DSD-PBEPBE-D3
GEN_SCFMAN TRUE
UNRESTRICTED True
THRESH  14
SYMMETRY FALSE
SYM_IGNORE TRUE
max_scf_cycles 200

XC_GRID 000099000590
BASIS DEF2-QZVPPD


$end










