$molecule
0 3
 C -1.692341104  0.341075582  0.000000000
 O -1.692341104  1.501075582  0.000000000
 O -1.692341104 -0.818924418  0.000000000
 O  1.430047459  0.082627798  0.000000000
 O  1.954634748 -0.764778963  0.000000000
$end


$rem
N_FROZEN_CORE FC
MEM_TOTAL 3750
MEM_STATIC 1500
AUX_BASIS_CORR rimp2-def2-QZVPPD
SCF_CONVERGENCE 7
SCF_ALGORITHM  GDM
method DSD-PBEPBE-D3
GEN_SCFMAN TRUE
UNRESTRICTED True
THRESH  14
SYMMETRY FALSE
SYM_IGNORE TRUE
max_scf_cycles 200

XC_GRID 000099000590
BASIS DEF2-QZVPPD


$end










