$molecule
0 2
 C -3.545000000 -0.585300000  0.000000000
 N -3.545000000  0.585300000  0.000000000
 H  3.545000000 -0.044902980  0.371400000
 H  3.545000000 -0.044902980 -0.371400000
$end


$rem
N_FROZEN_CORE FC
MEM_TOTAL 3750
MEM_STATIC 1500
AUX_BASIS_CORR rimp2-def2-QZVPPD
SCF_CONVERGENCE 7
SCF_ALGORITHM  GDM
method DSD-PBEPBE-D3
GEN_SCFMAN TRUE
UNRESTRICTED True
THRESH  14
SYMMETRY FALSE
SYM_IGNORE TRUE
max_scf_cycles 200

XC_GRID 000099000590
BASIS DEF2-QZVPPD


$end










