$molecule
0 3
 H -2.342136430  0.069282299  0.000000000
 O -1.395456186 -0.083638660  0.000000000
 H -1.010361619  0.794850735  0.000000000
 O  1.303480449  0.616939606  0.000000000
 O  1.550272430 -0.565075397  0.000000000
$end


$rem
N_FROZEN_CORE FC
MEM_TOTAL 3750
MEM_STATIC 1500
AUX_BASIS_CORR rimp2-def2-QZVPPD
SCF_CONVERGENCE 7
SCF_ALGORITHM  GDM
method DSD-PBEPBE-D3
GEN_SCFMAN TRUE
UNRESTRICTED True
THRESH  14
SYMMETRY FALSE
SYM_IGNORE TRUE
max_scf_cycles 200

XC_GRID 000099000590
BASIS DEF2-QZVPPD


$end










