$molecule
0 3
 C -3.384682208  0.682151165  0.000000000
 O -3.384682208  1.842151164  0.000000000
 O -3.384682208 -0.477848835  0.000000000
 O  3.122388563 -0.258447784  0.000000000
 O  3.646975852 -1.105854545  0.000000000
$end


$rem
N_FROZEN_CORE FC
MEM_TOTAL 3750
MEM_STATIC 1500
AUX_BASIS_CORR rimp2-def2-QZVPPD
SCF_CONVERGENCE 7
SCF_ALGORITHM  GDM
method DSD-PBEPBE-D3
GEN_SCFMAN TRUE
UNRESTRICTED True
THRESH  14
SYMMETRY FALSE
SYM_IGNORE TRUE
max_scf_cycles 200

XC_GRID 000099000590
BASIS DEF2-QZVPPD


$end










