$molecule
0 2
 C -2.211871902 -0.757397162 -0.388075516
 C -2.674800852  0.402842478  0.013614404
 H -2.471335252 -1.798984992 -0.276274436
 H -3.564674422  0.467725078  0.640810514
 H -2.195072472  1.337567998 -0.257252816
 C  2.471514302  0.155655124  0.161635870
 O  2.267126682  1.244536604 -0.195935860
 O  2.690766382 -0.928917556  0.521030940
$end


$rem
N_FROZEN_CORE FC
MEM_TOTAL 3750
MEM_STATIC 1500
AUX_BASIS_CORR rimp2-def2-QZVPPD
SCF_CONVERGENCE 7
SCF_ALGORITHM  GDM
method DSD-PBEPBE-D3
GEN_SCFMAN TRUE
UNRESTRICTED True
THRESH  14
SYMMETRY FALSE
SYM_IGNORE TRUE
max_scf_cycles 200

XC_GRID 000099000590
BASIS DEF2-QZVPPD


$end










