$molecule
0 3
 C -1.523106993  0.306968024  0.000000000
 O -1.523106993  1.466968024  0.000000000
 O -1.523106993 -0.853031976  0.000000000
 O  1.260813349  0.116735356  0.000000000
 O  1.785400638 -0.730671405  0.000000000
$end


$rem
N_FROZEN_CORE FC
MEM_TOTAL 3750
MEM_STATIC 1500
AUX_BASIS_CORR rimp2-def2-QZVPPD
SCF_CONVERGENCE 7
SCF_ALGORITHM  GDM
method DSD-PBEPBE-D3
GEN_SCFMAN TRUE
UNRESTRICTED True
THRESH  14
SYMMETRY FALSE
SYM_IGNORE TRUE
max_scf_cycles 200

XC_GRID 000099000590
BASIS DEF2-QZVPPD


$end










