$molecule
1 2
 C  0.000000000 -0.486468814  1.180599300
 O  0.000000000  0.146204671  2.103166811
 F  0.000000000  0.159972954 -1.675098511
 H  0.000000000 -0.532508667 -2.319634255
$end


$rem
N_FROZEN_CORE FC
MEM_TOTAL 3750
MEM_STATIC 1500
AUX_BASIS_CORR rimp2-def2-QZVPPD
SCF_CONVERGENCE 7
SCF_ALGORITHM  GDM
method DSD-PBEPBE-D3
GEN_SCFMAN TRUE
UNRESTRICTED True
THRESH  14
SYMMETRY FALSE
SYM_IGNORE TRUE
max_scf_cycles 200

XC_GRID 000099000590
BASIS DEF2-QZVPPD


$end










