$molecule
0 2
 H  0.915351305  1.243438385 -3.300000000
 H  0.915351305 -1.220481615 -3.300000000
 H -0.932568695 -1.220481615 -3.300000000
 C -0.008608695  0.678658385 -3.300000000
 C -0.008608695 -0.655701615 -3.300000000
 H -0.949786086  1.266395154  3.300000000
 H  0.898133914  1.266395154  3.300000000
 H  0.898133914 -1.197524846  3.300000000
 H -0.949786086 -1.197524846  3.300000000
 C -0.025826086  0.701615154  3.300000000
 C -0.025826086 -0.632744846  3.300000000
$end


$rem
N_FROZEN_CORE FC
MEM_TOTAL 3750
MEM_STATIC 1500
AUX_BASIS_CORR rimp2-def2-QZVPPD
SCF_CONVERGENCE 7
SCF_ALGORITHM  GDM
method DSD-PBEPBE-D3
GEN_SCFMAN TRUE
UNRESTRICTED True
THRESH  14
SYMMETRY FALSE
SYM_IGNORE TRUE
max_scf_cycles 200

XC_GRID 000099000590
BASIS DEF2-QZVPPD


$end










