$molecule
0 2
 O  0.000000000  0.046737771  2.845631558
 H  0.758711083 -0.275539526  3.340777391
 H -0.758711083 -0.275539526  3.340777391
 O  0.000000000 -0.011622750 -2.958712403
 H  0.000000000  0.004360956 -1.985543655
$end


$rem
N_FROZEN_CORE FC
MEM_TOTAL 3750
MEM_STATIC 1500
AUX_BASIS_CORR rimp2-def2-QZVPPD
SCF_CONVERGENCE 7
SCF_ALGORITHM  GDM
method DSD-PBEPBE-D3
GEN_SCFMAN TRUE
UNRESTRICTED True
THRESH  14
SYMMETRY FALSE
SYM_IGNORE TRUE
max_scf_cycles 200

XC_GRID 000099000590
BASIS DEF2-QZVPPD


$end










