$molecule
1 2
 C  0.000000000 -0.461451810  0.839085125
 O  0.000000000  0.171221675  1.761652635
 F  0.000000000  0.134955949 -1.333584335
 H  0.000000000 -0.557525671 -1.978120079
$end


$rem
N_FROZEN_CORE FC
MEM_TOTAL 3750
MEM_STATIC 1500
AUX_BASIS_CORR rimp2-def2-QZVPPD
SCF_CONVERGENCE 7
SCF_ALGORITHM  GDM
method DSD-PBEPBE-D3
GEN_SCFMAN TRUE
UNRESTRICTED True
THRESH  14
SYMMETRY FALSE
SYM_IGNORE TRUE
max_scf_cycles 200

XC_GRID 000099000590
BASIS DEF2-QZVPPD


$end










