$molecule
0 2
 O  0.000000000  0.044068902  2.120372169
 H  0.758711083 -0.278208395  2.615518002
 H -0.758711083 -0.278208395  2.615518002
 O  0.000000000 -0.008953881 -2.233453013
 H  0.000000000  0.007029825 -1.260284266
$end


$rem
N_FROZEN_CORE FC
MEM_TOTAL 3750
MEM_STATIC 1500
AUX_BASIS_CORR rimp2-def2-QZVPPD
SCF_CONVERGENCE 7
SCF_ALGORITHM  GDM
method DSD-PBEPBE-D3
GEN_SCFMAN TRUE
UNRESTRICTED True
THRESH  14
SYMMETRY FALSE
SYM_IGNORE TRUE
max_scf_cycles 200

XC_GRID 000099000590
BASIS DEF2-QZVPPD


$end










