$molecule
0 3
 H -3.293387389  0.051994230  0.000000000
 O -2.346707145 -0.100926729  0.000000000
 H -1.961612579  0.777562666  0.000000000
 O  2.254731409  0.634227675  0.000000000
 O  2.501523389 -0.547787328  0.000000000
$end


$rem
N_FROZEN_CORE FC
MEM_TOTAL 3750
MEM_STATIC 1500
AUX_BASIS_CORR rimp2-def2-QZVPPD
SCF_CONVERGENCE 7
SCF_ALGORITHM  GDM
method DSD-PBEPBE-D3
GEN_SCFMAN TRUE
UNRESTRICTED True
THRESH  14
SYMMETRY FALSE
SYM_IGNORE TRUE
max_scf_cycles 200

XC_GRID 000099000590
BASIS DEF2-QZVPPD


$end










