$molecule
0 2
 O  0.009168889 -0.062647918 -1.355472454
 H  0.035272725 -0.935983853 -1.711786553
 H -0.174773578  0.520586925 -2.074053757
 H  0.007562952  0.395572349  0.203044832
 O  0.006757459  0.633252986  1.127049552
 O -0.007931101 -0.495446570  1.780564418
$end


$rem
N_FROZEN_CORE FC
MEM_TOTAL 3750
MEM_STATIC 1500
AUX_BASIS_CORR rimp2-def2-QZVPPD
SCF_CONVERGENCE 7
SCF_ALGORITHM  GDM
method DSD-PBEPBE-D3
GEN_SCFMAN TRUE
UNRESTRICTED True
THRESH  14
SYMMETRY FALSE
SYM_IGNORE TRUE
max_scf_cycles 200

XC_GRID 000099000590
BASIS DEF2-QZVPPD


$end










