$molecule
0 3
 H -2.817761909  0.060638264  0.000000000
 O -1.871081665 -0.092282694  0.000000000
 H -1.485987099  0.786206700  0.000000000
 O  1.779105929  0.625583641  0.000000000
 O  2.025897910 -0.556431362  0.000000000
$end


$rem
N_FROZEN_CORE FC
MEM_TOTAL 3750
MEM_STATIC 1500
AUX_BASIS_CORR rimp2-def2-QZVPPD
SCF_CONVERGENCE 7
SCF_ALGORITHM  GDM
method DSD-PBEPBE-D3
GEN_SCFMAN TRUE
UNRESTRICTED True
THRESH  14
SYMMETRY FALSE
SYM_IGNORE TRUE
max_scf_cycles 200

XC_GRID 000099000590
BASIS DEF2-QZVPPD


$end










