$molecule
0 2
 C -1.386232505 -0.704989974 -0.333975938
 C -1.849161455  0.455249666  0.067713982
 H -1.645695855 -1.746577804 -0.222174858
 H -2.739035025  0.520132266  0.694910092
 H -1.369433075  1.389975186 -0.203153238
$end


$rem
N_FROZEN_CORE FC
MEM_TOTAL 3750
MEM_STATIC 1500
AUX_BASIS_CORR rimp2-def2-QZVPPD
SCF_CONVERGENCE 7
SCF_ALGORITHM  GDM
method DSD-PBEPBE-D3
GEN_SCFMAN TRUE
UNRESTRICTED True
THRESH  14
SYMMETRY FALSE
SYM_IGNORE TRUE
max_scf_cycles 200

XC_GRID 000099000590
BASIS DEF2-QZVPPD


$end










