$molecule
0 2
Na  0.000018912  0.000000000 -2.442956042
 O -0.000070912  0.000000000  2.380192760
 H  0.000393795  0.758137925  2.941088297
 H  0.000393795 -0.758137925  2.941088297
$end


$rem
N_FROZEN_CORE FC
MEM_TOTAL 3750
MEM_STATIC 1500
AUX_BASIS_CORR rimp2-def2-QZVPPD
SCF_CONVERGENCE 7
SCF_ALGORITHM  GDM
method DSD-PBEPBE-D3
GEN_SCFMAN TRUE
UNRESTRICTED True
THRESH  14
SYMMETRY FALSE
SYM_IGNORE TRUE
max_scf_cycles 200

XC_GRID 000099000590
BASIS DEF2-QZVPPD


$end










