$molecule
0 3
 O -1.602354754 -0.131587291  0.000000000
 H -0.911985371  0.483604683  0.000000000
 H -0.875976531 -0.823928533  0.000000000
 O  1.447979736  0.699599572  0.000000000
 O  1.598198061 -0.427792115  0.000000000
$end


$rem
N_FROZEN_CORE FC
MEM_TOTAL 3750
MEM_STATIC 1500
AUX_BASIS_CORR rimp2-def2-QZVPPD
SCF_CONVERGENCE 7
SCF_ALGORITHM  GDM
method DSD-PBEPBE-D3
GEN_SCFMAN TRUE
UNRESTRICTED True
THRESH  14
SYMMETRY FALSE
SYM_IGNORE TRUE
max_scf_cycles 200

XC_GRID 000099000590
BASIS DEF2-QZVPPD


$end










