$molecule
1 2
 C  0.000000000 -0.528163822  1.749789594
 O  0.000000000  0.104509663  2.672357104
 F  0.000000000  0.201667961 -2.244288804
 H  0.000000000 -0.490813659 -2.888824548
$end


$rem
N_FROZEN_CORE FC
MEM_TOTAL 3750
MEM_STATIC 1500
AUX_BASIS_CORR rimp2-def2-QZVPPD
SCF_CONVERGENCE 7
SCF_ALGORITHM  GDM
method DSD-PBEPBE-D3
GEN_SCFMAN TRUE
UNRESTRICTED True
THRESH  14
SYMMETRY FALSE
SYM_IGNORE TRUE
max_scf_cycles 200

XC_GRID 000099000590
BASIS DEF2-QZVPPD


$end










