$molecule
0 2
 O  0.009581937 -0.159055382 -3.085664852
 H  0.035685773 -1.032391316 -3.441978951
 H -0.174360530  0.424179461 -3.804246155
 H  0.007149904  0.491979813  1.933237229
 O  0.006344411  0.729660449  2.857241950
 O -0.008344149 -0.399039106  3.510756816
$end


$rem
N_FROZEN_CORE FC
MEM_TOTAL 3750
MEM_STATIC 1500
AUX_BASIS_CORR rimp2-def2-QZVPPD
SCF_CONVERGENCE 7
SCF_ALGORITHM  GDM
method DSD-PBEPBE-D3
GEN_SCFMAN TRUE
UNRESTRICTED True
THRESH  14
SYMMETRY FALSE
SYM_IGNORE TRUE
max_scf_cycles 200

XC_GRID 000099000590
BASIS DEF2-QZVPPD


$end










