$molecule
0 3
 O -2.617747353 -0.222189777  0.000000000
 H -1.927377970  0.393002197  0.000000000
 H -1.891369130 -0.914531019  0.000000000
 O  2.463372335  0.790202058  0.000000000
 O  2.613590660 -0.337189629  0.000000000
$end


$rem
N_FROZEN_CORE FC
MEM_TOTAL 3750
MEM_STATIC 1500
AUX_BASIS_CORR rimp2-def2-QZVPPD
SCF_CONVERGENCE 7
SCF_ALGORITHM  GDM
method DSD-PBEPBE-D3
GEN_SCFMAN TRUE
UNRESTRICTED True
THRESH  14
SYMMETRY FALSE
SYM_IGNORE TRUE
max_scf_cycles 200

XC_GRID 000099000590
BASIS DEF2-QZVPPD


$end










