$molecule
0 3
 H -4.086096522  0.037587505  0.000000000
 O -3.139416278 -0.115333454  0.000000000
 H -2.754321712  0.763155941  0.000000000
 O  3.047440541  0.648634400  0.000000000
 O  3.294232522 -0.533380603  0.000000000
$end


$rem
N_FROZEN_CORE FC
MEM_TOTAL 3750
MEM_STATIC 1500
AUX_BASIS_CORR rimp2-def2-QZVPPD
SCF_CONVERGENCE 7
SCF_ALGORITHM  GDM
method DSD-PBEPBE-D3
GEN_SCFMAN TRUE
UNRESTRICTED True
THRESH  14
SYMMETRY FALSE
SYM_IGNORE TRUE
max_scf_cycles 200

XC_GRID 000099000590
BASIS DEF2-QZVPPD


$end










