$molecule
0 2
 H  0.923960000  1.231960000 -4.400000000
 H  0.923960000 -1.231960000 -4.400000000
 H -0.923960000 -1.231960000 -4.400000000
 C  0.000000000  0.667180000 -4.400000000
 C  0.000000000 -0.667180000 -4.400000000
 H -0.958394782  1.277873539  4.400000000
 H  0.889525218  1.277873539  4.400000000
 H  0.889525218 -1.186046461  4.400000000
 H -0.958394782 -1.186046461  4.400000000
 C -0.034434782  0.713093539  4.400000000
 C -0.034434782 -0.621266461  4.400000000
$end


$rem
N_FROZEN_CORE FC
MEM_TOTAL 3750
MEM_STATIC 1500
AUX_BASIS_CORR rimp2-def2-QZVPPD
SCF_CONVERGENCE 7
SCF_ALGORITHM  GDM
method DSD-PBEPBE-D3
GEN_SCFMAN TRUE
UNRESTRICTED True
THRESH  14
SYMMETRY FALSE
SYM_IGNORE TRUE
max_scf_cycles 200

XC_GRID 000099000590
BASIS DEF2-QZVPPD


$end










