$molecule
0 2
 O  0.000000000  0.040866260  1.250060902
 H  0.758711083 -0.281411037  1.745206735
 H -0.758711083 -0.281411037  1.745206735
 O  0.000000000 -0.005751238 -1.363141746
 H  0.000000000  0.010232468 -0.389972999
$end


$rem
N_FROZEN_CORE FC
MEM_TOTAL 3750
MEM_STATIC 1500
AUX_BASIS_CORR rimp2-def2-QZVPPD
SCF_CONVERGENCE 7
SCF_ALGORITHM  GDM
method DSD-PBEPBE-D3
GEN_SCFMAN TRUE
UNRESTRICTED True
THRESH  14
SYMMETRY FALSE
SYM_IGNORE TRUE
max_scf_cycles 200

XC_GRID 000099000590
BASIS DEF2-QZVPPD


$end










