$molecule
0 2
 C -0.955130911  2.798620321  0.000000000
 H -0.378635911  2.889861321  0.932814000
 H -0.378635911  2.889861321 -0.932814000
 O -2.148578911  2.614725321  0.000000000
 N  1.581588375 -2.633017928  0.000000000
 H  0.598569375 -2.922165928  0.000000000
 H  2.099939375 -3.516056928  0.000000000
$end


$rem
N_FROZEN_CORE FC
MEM_TOTAL 3750
MEM_STATIC 1500
AUX_BASIS_CORR rimp2-def2-QZVPPD
SCF_CONVERGENCE 7
SCF_ALGORITHM  GDM
method DSD-PBEPBE-D3
GEN_SCFMAN TRUE
UNRESTRICTED True
THRESH  14
SYMMETRY FALSE
SYM_IGNORE TRUE
max_scf_cycles 200

XC_GRID 000099000590
BASIS DEF2-QZVPPD


$end










