$molecule
0 2
Na  0.000014184  0.000000000 -1.832217032
 O -0.000066184  0.000000000  1.769453750
 H  0.000398523  0.758137925  2.330349286
 H  0.000398523 -0.758137925  2.330349286
$end


$rem
N_FROZEN_CORE FC
MEM_TOTAL 3750
MEM_STATIC 1500
AUX_BASIS_CORR rimp2-def2-QZVPPD
SCF_CONVERGENCE 7
SCF_ALGORITHM  GDM
method DSD-PBEPBE-D3
GEN_SCFMAN TRUE
UNRESTRICTED True
THRESH  14
SYMMETRY FALSE
SYM_IGNORE TRUE
max_scf_cycles 200

XC_GRID 000099000590
BASIS DEF2-QZVPPD


$end










