$molecule
0 2
 H  0.910186087  1.250325416 -2.640000000
 H  0.910186087 -1.213594584 -2.640000000
 H -0.937733913 -1.213594584 -2.640000000
 C -0.013773913  0.685545416 -2.640000000
 C -0.013773913 -0.648814584 -2.640000000
 H -0.944620869  1.259508123  2.640000000
 H  0.903299131  1.259508123  2.640000000
 H  0.903299131 -1.204411877  2.640000000
 H -0.944620869 -1.204411877  2.640000000
 C -0.020660869  0.694728123  2.640000000
 C -0.020660869 -0.639631877  2.640000000
$end


$rem
N_FROZEN_CORE FC
MEM_TOTAL 3750
MEM_STATIC 1500
AUX_BASIS_CORR rimp2-def2-QZVPPD
SCF_CONVERGENCE 7
SCF_ALGORITHM  GDM
method DSD-PBEPBE-D3
GEN_SCFMAN TRUE
UNRESTRICTED True
THRESH  14
SYMMETRY FALSE
SYM_IGNORE TRUE
max_scf_cycles 200

XC_GRID 000099000590
BASIS DEF2-QZVPPD


$end










