$molecule
0 2
 C -1.716488264 -0.725952849 -0.355615769
 C -2.179417214  0.434286791  0.046074151
 H -1.975951614 -1.767540679 -0.243814689
 H -3.069290784  0.499169391  0.673270261
 H -1.699688834  1.369012311 -0.224793069
 C  1.976130664  0.124210811  0.129176123
 O  1.771743044  1.213092291 -0.228395607
 O  2.195382744 -0.960361869  0.488571193
$end


$rem
N_FROZEN_CORE FC
MEM_TOTAL 3750
MEM_STATIC 1500
AUX_BASIS_CORR rimp2-def2-QZVPPD
SCF_CONVERGENCE 7
SCF_ALGORITHM  GDM
method DSD-PBEPBE-D3
GEN_SCFMAN TRUE
UNRESTRICTED True
THRESH  14
SYMMETRY FALSE
SYM_IGNORE TRUE
max_scf_cycles 200

XC_GRID 000099000590
BASIS DEF2-QZVPPD


$end










