$molecule
0 2
 C -1.595250000 -0.609996639  0.000000000
 N -1.595250000  0.560603361  0.000000000
 H  1.595250000 -0.020206341  0.371400000
 H  1.595250000 -0.020206341 -0.371400000
$end


$rem
N_FROZEN_CORE FC
MEM_TOTAL 3750
MEM_STATIC 1500
AUX_BASIS_CORR rimp2-def2-QZVPPD
SCF_CONVERGENCE 7
SCF_ALGORITHM  GDM
method DSD-PBEPBE-D3
GEN_SCFMAN TRUE
UNRESTRICTED True
THRESH  14
SYMMETRY FALSE
SYM_IGNORE TRUE
max_scf_cycles 200

XC_GRID 000099000590
BASIS DEF2-QZVPPD


$end










