$molecule
0 2
 O  0.009394188 -0.115233807 -2.299213762
 H  0.035498024 -0.988569742 -2.655527861
 H -0.174548279  0.468001035 -3.017795065
 H  0.007337653  0.448158238  1.146786139
 O  0.006532160  0.685838875  2.070790860
 O -0.008156400 -0.442860681  2.724305726
$end


$rem
N_FROZEN_CORE FC
MEM_TOTAL 3750
MEM_STATIC 1500
AUX_BASIS_CORR rimp2-def2-QZVPPD
SCF_CONVERGENCE 7
SCF_ALGORITHM  GDM
method DSD-PBEPBE-D3
GEN_SCFMAN TRUE
UNRESTRICTED True
THRESH  14
SYMMETRY FALSE
SYM_IGNORE TRUE
max_scf_cycles 200

XC_GRID 000099000590
BASIS DEF2-QZVPPD


$end










