$molecule
0 2
 O  0.009206439 -0.071412233 -1.512762672
 H  0.035310275 -0.944748168 -1.869076771
 H -0.174736028  0.511822610 -2.231343975
 H  0.007525402  0.404336664  0.360335050
 O  0.006719909  0.642017300  1.284339770
 O -0.007968651 -0.486682255  1.937854636
$end


$rem
N_FROZEN_CORE FC
MEM_TOTAL 3750
MEM_STATIC 1500
AUX_BASIS_CORR rimp2-def2-QZVPPD
SCF_CONVERGENCE 7
SCF_ALGORITHM  GDM
method DSD-PBEPBE-D3
GEN_SCFMAN TRUE
UNRESTRICTED True
THRESH  14
SYMMETRY FALSE
SYM_IGNORE TRUE
max_scf_cycles 200

XC_GRID 000099000590
BASIS DEF2-QZVPPD


$end










