$molecule
0 2
 C -0.178952268  1.445241696  0.000000000
 H  0.397542732  1.536482696  0.932814000
 H  0.397542732  1.536482696 -0.932814000
 O -1.372400268  1.261346696  0.000000000
 N  0.805409732 -1.279639304  0.000000000
 H -0.177609268 -1.568787304  0.000000000
 H  1.323760732 -2.162678304  0.000000000
$end


$rem
N_FROZEN_CORE FC
MEM_TOTAL 3750
MEM_STATIC 1500
AUX_BASIS_CORR rimp2-def2-QZVPPD
SCF_CONVERGENCE 7
SCF_ALGORITHM  GDM
method DSD-PBEPBE-D3
GEN_SCFMAN TRUE
UNRESTRICTED True
THRESH  14
SYMMETRY FALSE
SYM_IGNORE TRUE
max_scf_cycles 200

XC_GRID 000099000590
BASIS DEF2-QZVPPD


$end










