$molecule
1 2
 C  0.000000000 -0.436434806  0.497570949
 O  0.000000000  0.196238679  1.420138459
 F  0.000000000  0.109938945 -0.992070159
 H  0.000000000 -0.582542676 -1.636605903
$end


$rem
N_FROZEN_CORE FC
MEM_TOTAL 3750
MEM_STATIC 1500
AUX_BASIS_CORR rimp2-def2-QZVPPD
SCF_CONVERGENCE 7
SCF_ALGORITHM  GDM
method DSD-PBEPBE-D3
GEN_SCFMAN TRUE
UNRESTRICTED True
THRESH  14
SYMMETRY FALSE
SYM_IGNORE TRUE
max_scf_cycles 200

XC_GRID 000099000590
BASIS DEF2-QZVPPD


$end










