$molecule
0 3
 O -2.110051054 -0.176888534  0.000000000
 H -1.419681671  0.438303440  0.000000000
 H -1.383672831 -0.869229776  0.000000000
 O  1.955676036  0.744900815  0.000000000
 O  2.105894361 -0.382490872  0.000000000
$end


$rem
N_FROZEN_CORE FC
MEM_TOTAL 3750
MEM_STATIC 1500
AUX_BASIS_CORR rimp2-def2-QZVPPD
SCF_CONVERGENCE 7
SCF_ALGORITHM  GDM
method DSD-PBEPBE-D3
GEN_SCFMAN TRUE
UNRESTRICTED True
THRESH  14
SYMMETRY FALSE
SYM_IGNORE TRUE
max_scf_cycles 200

XC_GRID 000099000590
BASIS DEF2-QZVPPD


$end










