$molecule
0 2
 N  0.000000000  0.000000000  2.001718780
 H  0.937314431  0.000000000  2.383275869
 H -0.468657216 -0.811738109  2.383275869
 H -0.468657216  0.811738109  2.383275869
Li  0.000000000  0.000000000 -2.069465388
$end


$rem
N_FROZEN_CORE FC
MEM_TOTAL 3750
MEM_STATIC 1500
AUX_BASIS_CORR rimp2-def2-QZVPPD
SCF_CONVERGENCE 7
SCF_ALGORITHM  GDM
method DSD-PBEPBE-D3
GEN_SCFMAN TRUE
UNRESTRICTED True
THRESH  14
SYMMETRY FALSE
SYM_IGNORE TRUE
max_scf_cycles 200

XC_GRID 000099000590
BASIS DEF2-QZVPPD


$end










