$molecule
0 2
 O  0.009281538 -0.088940863 -1.827343108
 H  0.035385374 -0.962276797 -2.183657207
 H -0.174660929  0.494293980 -2.545924411
 H  0.007450302  0.421865294  0.674915486
 O  0.006644810  0.659545930  1.598920206
 O -0.008043751 -0.469153625  2.252435072
$end


$rem
N_FROZEN_CORE FC
MEM_TOTAL 3750
MEM_STATIC 1500
AUX_BASIS_CORR rimp2-def2-QZVPPD
SCF_CONVERGENCE 7
SCF_ALGORITHM  GDM
method DSD-PBEPBE-D3
GEN_SCFMAN TRUE
UNRESTRICTED True
THRESH  14
SYMMETRY FALSE
SYM_IGNORE TRUE
max_scf_cycles 200

XC_GRID 000099000590
BASIS DEF2-QZVPPD


$end










