$molecule
0 2
 C -3.037511299 -0.809804349 -0.442175095
 C -3.500440249  0.350435291 -0.040485175
 H -3.296974649 -1.851392179 -0.330374015
 H -4.390313819  0.415317891  0.586710935
 H -3.020711869  1.285160811 -0.311352395
 C  3.297153699  0.208062311  0.215735449
 O  3.092766079  1.296943791 -0.141836281
 O  3.516405779 -0.876510369  0.575130519
$end


$rem
N_FROZEN_CORE FC
MEM_TOTAL 3750
MEM_STATIC 1500
AUX_BASIS_CORR rimp2-def2-QZVPPD
SCF_CONVERGENCE 7
SCF_ALGORITHM  GDM
method DSD-PBEPBE-D3
GEN_SCFMAN TRUE
UNRESTRICTED True
THRESH  14
SYMMETRY FALSE
SYM_IGNORE TRUE
max_scf_cycles 200

XC_GRID 000099000590
BASIS DEF2-QZVPPD


$end










