$molecule
0 3
 C -2.538511656  0.511613373  0.000000000
 O -2.538511656  1.671613373  0.000000000
 O -2.538511656 -0.648386627  0.000000000
 O  2.276218011 -0.087909993  0.000000000
 O  2.800805300 -0.935316754  0.000000000
$end


$rem
N_FROZEN_CORE FC
MEM_TOTAL 3750
MEM_STATIC 1500
AUX_BASIS_CORR rimp2-def2-QZVPPD
SCF_CONVERGENCE 7
SCF_ALGORITHM  GDM
method DSD-PBEPBE-D3
GEN_SCFMAN TRUE
UNRESTRICTED True
THRESH  14
SYMMETRY FALSE
SYM_IGNORE TRUE
max_scf_cycles 200

XC_GRID 000099000590
BASIS DEF2-QZVPPD


$end










