$molecule
0 2
 C -1.221104626 -0.694508536 -0.323156022
 C -1.684033576  0.465731104  0.078533898
 H -1.480567976 -1.736096366 -0.211354942
 H -2.573907146  0.530613704  0.705730008
 H -1.204305196  1.400456624 -0.192333322
 C  1.480747026  0.092766498  0.096716376
 O  1.276359406  1.181647978 -0.260855354
 O  1.699999106 -0.991806182  0.456111446
$end


$rem
N_FROZEN_CORE FC
MEM_TOTAL 3750
MEM_STATIC 1500
AUX_BASIS_CORR rimp2-def2-QZVPPD
SCF_CONVERGENCE 7
SCF_ALGORITHM  GDM
method DSD-PBEPBE-D3
GEN_SCFMAN TRUE
UNRESTRICTED True
THRESH  14
SYMMETRY FALSE
SYM_IGNORE TRUE
max_scf_cycles 200

XC_GRID 000099000590
BASIS DEF2-QZVPPD


$end










