$molecule
0 2
 C -0.101334404  1.309903834  0.000000000
 H  0.475160596  1.401144834  0.932814000
 H  0.475160596  1.401144834 -0.932814000
 O -1.294782404  1.126008834  0.000000000
 N  0.727791868 -1.144301441  0.000000000
 H -0.255227132 -1.433449441  0.000000000
 H  1.246142868 -2.027340441  0.000000000
$end


$rem
N_FROZEN_CORE FC
MEM_TOTAL 3750
MEM_STATIC 1500
AUX_BASIS_CORR rimp2-def2-QZVPPD
SCF_CONVERGENCE 7
SCF_ALGORITHM  GDM
method DSD-PBEPBE-D3
GEN_SCFMAN TRUE
UNRESTRICTED True
THRESH  14
SYMMETRY FALSE
SYM_IGNORE TRUE
max_scf_cycles 200

XC_GRID 000099000590
BASIS DEF2-QZVPPD


$end










