$molecule
0 3
 C -2.030809325  0.409290699  0.000000000
 O -2.030809325  1.569290699  0.000000000
 O -2.030809325 -0.750709301  0.000000000
 O  1.768515680  0.014412682  0.000000000
 O  2.293102969 -0.832994079  0.000000000
$end


$rem
N_FROZEN_CORE FC
MEM_TOTAL 3750
MEM_STATIC 1500
AUX_BASIS_CORR rimp2-def2-QZVPPD
SCF_CONVERGENCE 7
SCF_ALGORITHM  GDM
method DSD-PBEPBE-D3
GEN_SCFMAN TRUE
UNRESTRICTED True
THRESH  14
SYMMETRY FALSE
SYM_IGNORE TRUE
max_scf_cycles 200

XC_GRID 000099000590
BASIS DEF2-QZVPPD


$end










