$molecule
0 2
 C -0.567041589  2.121931008  0.000000000
 H  0.009453411  2.213172008  0.932814000
 H  0.009453411  2.213172008 -0.932814000
 O -1.760489589  1.938036008  0.000000000
 N  1.193499054 -1.956328616  0.000000000
 H  0.210480054 -2.245476616  0.000000000
 H  1.711850054 -2.839367616  0.000000000
$end


$rem
N_FROZEN_CORE FC
MEM_TOTAL 3750
MEM_STATIC 1500
AUX_BASIS_CORR rimp2-def2-QZVPPD
SCF_CONVERGENCE 7
SCF_ALGORITHM  GDM
method DSD-PBEPBE-D3
GEN_SCFMAN TRUE
UNRESTRICTED True
THRESH  14
SYMMETRY FALSE
SYM_IGNORE TRUE
max_scf_cycles 200

XC_GRID 000099000590
BASIS DEF2-QZVPPD


$end










