$molecule
0 2
Na  0.000009456  0.000000000 -1.221478021
 O -0.000061456  0.000000000  1.158714739
 H  0.000403251  0.758137925  1.719610276
 H  0.000403251 -0.758137925  1.719610276
$end


$rem
N_FROZEN_CORE FC
MEM_TOTAL 3750
MEM_STATIC 1500
AUX_BASIS_CORR rimp2-def2-QZVPPD
SCF_CONVERGENCE 7
SCF_ALGORITHM  GDM
method DSD-PBEPBE-D3
GEN_SCFMAN TRUE
UNRESTRICTED True
THRESH  14
SYMMETRY FALSE
SYM_IGNORE TRUE
max_scf_cycles 200

XC_GRID 000099000590
BASIS DEF2-QZVPPD


$end










