$molecule
0 1
C 0.0004375549 0.0012291815 0.6029064784
C 0.0001563012 0.0013244313 -0.6166804785
H -0.0003621293 -0.0015761889 1.6944515907
H -0.0002317267 -0.0009774238 -1.6806775906
$end


$rem
N_FROZEN_CORE FC
MEM_TOTAL 3750
MEM_STATIC 1500
AUX_BASIS_CORR rimp2-def2-QZVPPD
SCF_CONVERGENCE 7
SCF_ALGORITHM  GDM
method DSD-PBEPBE-D3
GEN_SCFMAN TRUE
UNRESTRICTED True
THRESH  14
SYMMETRY FALSE
SYM_IGNORE TRUE
max_scf_cycles 200

XC_GRID 000099000590
BASIS AUG-CC-PVQZ


$end





$multipole_field
x 0.0
y 0.0
z -0.05
$end




