$molecule
0 1
C -7.6e-9 9.595e-7 -0.7633186657
C -1.7606e-6 -7.01e-8 0.7633179693
H 0.8808652786 0.5086328688 -1.1579850303
H -0.8809219726 0.5085313872 -1.1579865241
H 5.82607e-5 -1.0171656383 -1.1579864844
H 0.8808619866 -0.5086328315 1.1579836265
H 5.86794e-5 1.0171661797 1.1579866947
H -0.88092045 -0.5085328554 1.157988414
$end


$rem
N_FROZEN_CORE FC
MEM_TOTAL 3750
MEM_STATIC 1500
AUX_BASIS_CORR rimp2-def2-QZVPPD
SCF_CONVERGENCE 7
SCF_ALGORITHM  GDM
method DSD-PBEPBE-D3
GEN_SCFMAN TRUE
UNRESTRICTED True
THRESH  14
SYMMETRY FALSE
SYM_IGNORE TRUE
max_scf_cycles 200

XC_GRID 000099000590
BASIS AUG-CC-PVQZ


$end





$multipole_field
x 0.0
y 0.0
z 0.0
$end




