$molecule
0 1
C 0.1433499839 -0.3868069777 7.164e-7
O 1.2270889676 0.2659913764 -8.6009e-6
N -1.0634453132 0.146413257 1.15325e-5
H -1.9091462349 -0.4222857525 -1.45465e-5
H -1.1784222553 1.1459358256 5.1666e-6
H 0.1227880867 -1.4822254999 5.7318e-6
$end


$rem
N_FROZEN_CORE FC
MEM_TOTAL 3750
MEM_STATIC 1500
AUX_BASIS_CORR rimp2-def2-QZVPPD
SCF_CONVERGENCE 7
SCF_ALGORITHM  GDM
method DSD-PBEPBE-D3
GEN_SCFMAN TRUE
UNRESTRICTED True
THRESH  14
SYMMETRY FALSE
SYM_IGNORE TRUE
max_scf_cycles 200

XC_GRID 000099000590
BASIS AUG-CC-PVQZ


$end





$multipole_field
x 0.03405118268385028
y 0.020988495836238887
z 6.026917093944304e-7
$end




