$molecule
0 1
C 0.5819440554 -0.011814107 -2.2546e-6
N -0.7018291353 0.1680758278 -1.8404e-6
H 1.039588412 -1.0016474189 9.229e-7
H 1.2726486825 0.8270981341 1.75e-6
H -1.1204786923 -0.7646450621 1.422e-6
$end


$rem
N_FROZEN_CORE FC
MEM_TOTAL 3750
MEM_STATIC 1500
AUX_BASIS_CORR rimp2-def2-QZVPPD
SCF_CONVERGENCE 7
SCF_ALGORITHM  GDM
method DSD-PBEPBE-D3
GEN_SCFMAN TRUE
UNRESTRICTED True
THRESH  14
SYMMETRY FALSE
SYM_IGNORE TRUE
max_scf_cycles 200

XC_GRID 000099000590
BASIS AUG-CC-PVQZ


$end





$multipole_field
x -0.039572194695025806
y 0.005834501436485876
z -8.13363164707075e-8
$end




