$molecule
0 1
C -0.1382531379 -0.4004514774 -2.9013e-6
O -1.1269978693 0.2667792556 2.5918e-6
O 1.127169584 0.0909221724 -5.126e-6
H -0.1126332468 -1.4955430362 1.866e-6
H 1.0306691358 1.0548943119 3.5694e-6
$end


$rem
N_FROZEN_CORE FC
MEM_TOTAL 3750
MEM_STATIC 1500
AUX_BASIS_CORR rimp2-def2-QZVPPD
SCF_CONVERGENCE 7
SCF_ALGORITHM  GDM
method DSD-PBEPBE-D3
GEN_SCFMAN TRUE
UNRESTRICTED True
THRESH  14
SYMMETRY FALSE
SYM_IGNORE TRUE
max_scf_cycles 200

XC_GRID 000099000590
BASIS AUG-CC-PVQZ


$end





$multipole_field
x 0.008315279034514244
y -0.005554829837428856
z -2.353252532372523e-7
$end




