$molecule
0 1
C 0.604245121 -0.0531843311 4.95526e-5
N -0.6379962145 0.0984706041 -2.10141e-5
H 1.1928427256 -1.0171737728 -1.97624e-5
H 1.2235351247 0.8671500142 -1.32142e-5
H -1.3107534346 -0.6781951405 4.4382e-6
$end


$rem
N_FROZEN_CORE FC
MEM_TOTAL 3750
MEM_STATIC 1500
AUX_BASIS_CORR rimp2-def2-QZVPPD
SCF_CONVERGENCE 7
SCF_ALGORITHM  GDM
method DSD-PBEPBE-D3
GEN_SCFMAN TRUE
UNRESTRICTED True
THRESH  14
SYMMETRY FALSE
SYM_IGNORE TRUE
max_scf_cycles 200

XC_GRID 000099000590
BASIS AUG-CC-PVQZ


$end





$multipole_field
x 0.049465243368782254
y -0.007293126795607345
z 1.0167039558838438e-7
$end




