$molecule
0 1
C -2.1322e-6 -2.8887e-6 0.6329841736
F 5.4629e-6 2.1259e-6 -0.7522686385
H 1.0313523614 2.4632e-6 0.9828247358
H -0.515679759 -0.893179159 0.9828346811
H -0.5156759331 0.8931774586 0.9828316892
$end


$rem
N_FROZEN_CORE FC
MEM_TOTAL 3750
MEM_STATIC 1500
AUX_BASIS_CORR rimp2-def2-QZVPPD
SCF_CONVERGENCE 7
SCF_ALGORITHM  GDM
method DSD-PBEPBE-D3
GEN_SCFMAN TRUE
UNRESTRICTED True
THRESH  14
SYMMETRY FALSE
SYM_IGNORE TRUE
max_scf_cycles 200

XC_GRID 000099000590
BASIS AUG-CC-PVQZ


$end





$multipole_field
x 0.0
y 0.0
z 0.0
$end




