$molecule
0 1
C -4.0215e-6 1.44907e-5 -0.4960425597
N -9.0792e-6 3.27163e-5 0.6626607481
H 1.31007e-5 -4.72071e-5 -1.5777233811
$end


$rem
N_FROZEN_CORE FC
MEM_TOTAL 3750
MEM_STATIC 1500
AUX_BASIS_CORR rimp2-def2-QZVPPD
SCF_CONVERGENCE 7
SCF_ALGORITHM  GDM
method DSD-PBEPBE-D3
GEN_SCFMAN TRUE
UNRESTRICTED True
THRESH  14
SYMMETRY FALSE
SYM_IGNORE TRUE
max_scf_cycles 200

XC_GRID 000099000590
BASIS AUG-CC-PVQZ


$end





$multipole_field
x 0.0
y 0.0
z 0.03
$end




