$molecule
0 1
C 0.6663495494 2.5928e-6 0.0003246547
C -0.6780234427 -1.07622e-5 9.08126e-5
H 1.2496946878 0.915197772 0.0001489862
H 1.249695079 -0.9151881518 -0.0004181098
H -1.2438455554 0.9335930523 -0.000353083
H -1.2438703181 -0.9335947516 0.0002067394
$end


$rem
N_FROZEN_CORE FC
MEM_TOTAL 3750
MEM_STATIC 1500
AUX_BASIS_CORR rimp2-def2-QZVPPD
SCF_CONVERGENCE 7
SCF_ALGORITHM  GDM
method DSD-PBEPBE-D3
GEN_SCFMAN TRUE
UNRESTRICTED True
THRESH  14
SYMMETRY FALSE
SYM_IGNORE TRUE
max_scf_cycles 200

XC_GRID 000099000590
BASIS AUG-CC-PVQZ


$end





$multipole_field
x -0.03999999999998899
y -2.968072278310624e-8
z -6.895521454661049e-11
$end




