$molecule
0 1
C 0.1478701014 -0.3868781594 1.1659e-6
O 1.2159443078 0.2602053336 -4.1155e-6
N -1.0672364961 0.1494541243 1.49588e-5
H -1.9041119598 -0.4215706811 -9.2564e-6
H -1.1782866524 1.148623834 -2.6534e-6
H 0.1280339339 -1.4828122226 -9.95e-8
$end


$rem
N_FROZEN_CORE FC
MEM_TOTAL 3750
MEM_STATIC 1500
AUX_BASIS_CORR rimp2-def2-QZVPPD
SCF_CONVERGENCE 7
SCF_ALGORITHM  GDM
method DSD-PBEPBE-D3
GEN_SCFMAN TRUE
UNRESTRICTED True
THRESH  14
SYMMETRY FALSE
SYM_IGNORE TRUE
max_scf_cycles 200

XC_GRID 000099000590
BASIS AUG-CC-PVQZ


$end





$multipole_field
x 0.02553838701288771
y 0.015741371877179167
z 4.5201878204582276e-7
$end




