$molecule
0 1
C -0.1266309555 -0.3980233003 -2.49589e-5
O -1.1914630214 0.2694475557 -1.30449e-5
O 1.0675158989 0.0864197751 2.30049e-5
H -0.0723205336 -1.4933800293 6.9953e-6
H 1.1028530776 1.0521372253 8.0036e-6
$end


$rem
N_FROZEN_CORE FC
MEM_TOTAL 3750
MEM_STATIC 1500
AUX_BASIS_CORR rimp2-def2-QZVPPD
SCF_CONVERGENCE 7
SCF_ALGORITHM  GDM
method DSD-PBEPBE-D3
GEN_SCFMAN TRUE
UNRESTRICTED True
THRESH  14
SYMMETRY FALSE
SYM_IGNORE TRUE
max_scf_cycles 200

XC_GRID 000099000590
BASIS AUG-CC-PVQZ


$end





$multipole_field
x -0.04157639517257122
y 0.027774149187144284
z 1.1766262661862616e-6
$end




