$molecule
0 1
C 0.0 7.67e-8 0.602256646
C -6.93e-8 -7.1e-9 -0.6049093813
H 2.1e-8 -4.91e-8 1.6686228212
H 5.15e-8 -1.3e-8 -1.6659700859
$end


$rem
N_FROZEN_CORE FC
MEM_TOTAL 3750
MEM_STATIC 1500
AUX_BASIS_CORR rimp2-def2-QZVPPD
SCF_CONVERGENCE 7
SCF_ALGORITHM  GDM
method DSD-PBEPBE-D3
GEN_SCFMAN TRUE
UNRESTRICTED True
THRESH  14
SYMMETRY FALSE
SYM_IGNORE TRUE
max_scf_cycles 200

XC_GRID 000099000590
BASIS AUG-CC-PVQZ


$end





$multipole_field
x 0.0
y 0.0
z -0.01
$end




