$molecule
0 1
C -4.0273e-6 -3.3512e-6 0.6218425331
F 3.9759e-6 2.0422e-6 -0.7375798008
H 1.0330803318 3.5829e-6 0.9816444327
H -0.5165428652 -0.8946799277 0.9816509712
H -0.5165374152 0.8946776538 0.9816485049
$end


$rem
N_FROZEN_CORE FC
MEM_TOTAL 3750
MEM_STATIC 1500
AUX_BASIS_CORR rimp2-def2-QZVPPD
SCF_CONVERGENCE 7
SCF_ALGORITHM  GDM
method DSD-PBEPBE-D3
GEN_SCFMAN TRUE
UNRESTRICTED True
THRESH  14
SYMMETRY FALSE
SYM_IGNORE TRUE
max_scf_cycles 200

XC_GRID 000099000590
BASIS AUG-CC-PVQZ


$end





$multipole_field
x -5.0570915897111665e-8
y 3.520128125702306e-8
z 0.019999999999905087
$end




