$molecule
0 1
C -0.1568103188 -0.4006572016 -8.856e-6
O -1.1215162132 0.2689235025 3.54885e-5
O 1.1595790319 0.0940252293 -2.6773e-5
H -0.118168891 -1.503791042 1.586e-7
H 1.016870857 1.058100738 -1.82e-8
$end


$rem
N_FROZEN_CORE FC
MEM_TOTAL 3750
MEM_STATIC 1500
AUX_BASIS_CORR rimp2-def2-QZVPPD
SCF_CONVERGENCE 7
SCF_ALGORITHM  GDM
method DSD-PBEPBE-D3
GEN_SCFMAN TRUE
UNRESTRICTED True
THRESH  14
SYMMETRY FALSE
SYM_IGNORE TRUE
max_scf_cycles 200

XC_GRID 000099000590
BASIS AUG-CC-PVQZ


$end





$multipole_field
x 0.033261116138056976
y -0.022219319349715425
z -9.413010129490092e-7
$end




