$molecule
0 1
C -0.7061778184 -2.88942e-5 0.036038726
N 0.7234113714 -9.31188e-5 -0.0712009726
H -1.1481075508 0.0005946563 1.0614160627
H -1.0998820339 -0.8822817159 -0.4847486703
H -1.0999234891 0.8815872205 -0.4857783646
H 1.1822561401 -0.8204880652 0.3003150963
H 1.1823110224 0.8206196468 0.2995543203
$end


$rem
N_FROZEN_CORE FC
MEM_TOTAL 3750
MEM_STATIC 1500
AUX_BASIS_CORR rimp2-def2-QZVPPD
SCF_CONVERGENCE 7
SCF_ALGORITHM  GDM
method DSD-PBEPBE-D3
GEN_SCFMAN TRUE
UNRESTRICTED True
THRESH  14
SYMMETRY FALSE
SYM_IGNORE TRUE
max_scf_cycles 200

XC_GRID 000099000590
BASIS AUG-CC-PVQZ


$end





$multipole_field
x -0.029851022231249545
y 1.416087278413835e-6
z 0.002986045837582208
$end




