$molecule
0 1
C 0.678234852 -0.0094627294 -2.08568e-5
O -0.7879031952 0.1343161574 -8.6324e-5
H -1.1007123726 -0.7705791921 0.0001102988
H 1.1105619875 0.9849972743 3.25016e-5
H 1.0027397266 -0.545309104 -0.8902185296
H 1.0026507412 -0.5453549429 0.89018291
$end


$rem
N_FROZEN_CORE FC
MEM_TOTAL 3750
MEM_STATIC 1500
AUX_BASIS_CORR rimp2-def2-QZVPPD
SCF_CONVERGENCE 7
SCF_ALGORITHM  GDM
method DSD-PBEPBE-D3
GEN_SCFMAN TRUE
UNRESTRICTED True
THRESH  14
SYMMETRY FALSE
SYM_IGNORE TRUE
max_scf_cycles 200

XC_GRID 000099000590
BASIS AUG-CC-PVQZ


$end





$multipole_field
x -0.029844485371430234
y 0.0030506871698479684
z -8.403638475616817e-7
$end




