$molecule
0 1
C 0.6858271857 -0.0060456902 -2.14391e-5
O -0.8066131624 0.1379192095 -8.72286e-5
H -1.0897898906 -0.7770733368 0.0001114216
H 1.1219447188 0.9863660828 3.35331e-5
H 0.9971473856 -0.54625701 -0.8915188245
H 0.9970555025 -0.5463017919 0.8914825377
$end


$rem
N_FROZEN_CORE FC
MEM_TOTAL 3750
MEM_STATIC 1500
AUX_BASIS_CORR rimp2-def2-QZVPPD
SCF_CONVERGENCE 7
SCF_ALGORITHM  GDM
method DSD-PBEPBE-D3
GEN_SCFMAN TRUE
UNRESTRICTED True
THRESH  14
SYMMETRY FALSE
SYM_IGNORE TRUE
max_scf_cycles 200

XC_GRID 000099000590
BASIS AUG-CC-PVQZ


$end





$multipole_field
x -0.03979264716190698
y 0.004067582893130624
z -1.1204851300822424e-6
$end




