$molecule
0 1
C 0.6729097651 -0.0128673132 -2.2809e-5
O -0.772796931 0.1308225861 -8.57461e-5
H -1.1120110721 -0.7644534293 0.0001101918
H 1.1003927387 0.984474325 3.50623e-5
H 1.0085822724 -0.5446630737 -0.8897914527
H 1.0084949664 -0.5447056315 0.8897547536
$end


$rem
N_FROZEN_CORE FC
MEM_TOTAL 3750
MEM_STATIC 1500
AUX_BASIS_CORR rimp2-def2-QZVPPD
SCF_CONVERGENCE 7
SCF_ALGORITHM  GDM
method DSD-PBEPBE-D3
GEN_SCFMAN TRUE
UNRESTRICTED True
THRESH  14
SYMMETRY FALSE
SYM_IGNORE TRUE
max_scf_cycles 200

XC_GRID 000099000590
BASIS AUG-CC-PVQZ


$end





$multipole_field
x -0.01989632358095349
y 0.002033791446565312
z -5.602425650411212e-7
$end




