$molecule
0 1
C -3.3151e-6 -4.586e-6 -0.7711341429
C 1.9335e-6 -5.7193e-6 0.7717235746
H 0.8794852881 0.5077978244 -1.1663271569
H -0.8795070539 0.5077728779 -1.166331428
H 1.96584e-5 -1.0155614351 -1.1663469427
H 0.890745259 -0.5142921232 1.1661517727
H 2.07111e-5 1.0285552332 1.1661201635
H -0.8907624664 -0.5142620718 1.1661441597
$end


$rem
N_FROZEN_CORE FC
MEM_TOTAL 3750
MEM_STATIC 1500
AUX_BASIS_CORR rimp2-def2-QZVPPD
SCF_CONVERGENCE 7
SCF_ALGORITHM  GDM
method DSD-PBEPBE-D3
GEN_SCFMAN TRUE
UNRESTRICTED True
THRESH  14
SYMMETRY FALSE
SYM_IGNORE TRUE
max_scf_cycles 200

XC_GRID 000099000590
BASIS AUG-CC-PVQZ


$end





$multipole_field
x -5.958484988004967e-8
y 2.5078151699888968e-8
z 0.039999999999947765
$end




