$molecule
0 1
C 0.5974830574 -0.0413799886 8.1089e-6
N -0.6542313452 0.1355925091 -1.4404e-6
H 1.1199573753 -1.0154956513 -2.484e-6
H 1.2297609922 0.8533125477 -3.2556e-6
H -1.2210967573 -0.7149620429 -9.288e-7
$end


$rem
N_FROZEN_CORE FC
MEM_TOTAL 3750
MEM_STATIC 1500
AUX_BASIS_CORR rimp2-def2-QZVPPD
SCF_CONVERGENCE 7
SCF_ALGORITHM  GDM
method DSD-PBEPBE-D3
GEN_SCFMAN TRUE
UNRESTRICTED True
THRESH  14
SYMMETRY FALSE
SYM_IGNORE TRUE
max_scf_cycles 200

XC_GRID 000099000590
BASIS AUG-CC-PVQZ


$end





$multipole_field
x 0.02967914602126935
y -0.0043758760773644064
z 6.100223735303062e-8
$end




