$molecule
0 1
C 0.1629906342 -0.3882402966 9.8136e-6
O 1.1947147588 0.249385971 -1.57004e-5
N -1.0806330215 0.1577987939 3.36557e-5
H -1.8994316888 -0.4204927912 -2.52701e-5
H -1.177987076 1.1581577847 -4.5291e-6
H 0.1425596282 -1.4895872329 2.0302e-6
$end


$rem
N_FROZEN_CORE FC
MEM_TOTAL 3750
MEM_STATIC 1500
AUX_BASIS_CORR rimp2-def2-QZVPPD
SCF_CONVERGENCE 7
SCF_ALGORITHM  GDM
method DSD-PBEPBE-D3
GEN_SCFMAN TRUE
UNRESTRICTED True
THRESH  14
SYMMETRY FALSE
SYM_IGNORE TRUE
max_scf_cycles 200

XC_GRID 000099000590
BASIS AUG-CC-PVQZ


$end





$multipole_field
x 0.0
y 0.0
z 0.0
$end




