$molecule
0 1
C 0.1525175355 -0.387141677 -6.2626e-6
O 1.2071234374 0.2554821686 -9.9438e-6
N -1.0714206529 0.1523637377 3.20985e-5
H -1.9009954651 -0.4210027992 -2.21863e-5
H -1.1782276329 1.1515528253 -2.3376e-6
H 0.1332160128 -1.4842320266 8.6317e-6
$end


$rem
N_FROZEN_CORE FC
MEM_TOTAL 3750
MEM_STATIC 1500
AUX_BASIS_CORR rimp2-def2-QZVPPD
SCF_CONVERGENCE 7
SCF_ALGORITHM  GDM
method DSD-PBEPBE-D3
GEN_SCFMAN TRUE
UNRESTRICTED True
THRESH  14
SYMMETRY FALSE
SYM_IGNORE TRUE
max_scf_cycles 200

XC_GRID 000099000590
BASIS AUG-CC-PVQZ


$end





$multipole_field
x 0.01702559134192514
y 0.010494247918119443
z 3.013458546972152e-7
$end




