$molecule
0 1
C 0.5895894693 -0.028427434 3.3828e-6
N -0.6717314377 0.1558357538 -2.2587e-6
H 1.0685191155 -1.0094873127 -1.5915e-6
H 1.2437762174 0.840215276 -5.217e-7
H -1.1582800423 -0.7410689091 9.891e-7
$end


$rem
N_FROZEN_CORE FC
MEM_TOTAL 3750
MEM_STATIC 1500
AUX_BASIS_CORR rimp2-def2-QZVPPD
SCF_CONVERGENCE 7
SCF_ALGORITHM  GDM
method DSD-PBEPBE-D3
GEN_SCFMAN TRUE
UNRESTRICTED True
THRESH  14
SYMMETRY FALSE
SYM_IGNORE TRUE
max_scf_cycles 200

XC_GRID 000099000590
BASIS AUG-CC-PVQZ


$end





$multipole_field
x 0.0
y 0.0
z 0.0
$end




