$molecule
0 1
C -0.1346121663 -0.4001339729 -1.973e-7
O -1.1328339474 0.2665007683 1.434e-7
O 1.1171121775 0.0898301061 1.723e-7
H -0.1083779956 -1.4938104704 -8.5e-9
H 1.0386663977 1.0542147954 -1.099e-7
$end


$rem
N_FROZEN_CORE FC
MEM_TOTAL 3750
MEM_STATIC 1500
AUX_BASIS_CORR rimp2-def2-QZVPPD
SCF_CONVERGENCE 7
SCF_ALGORITHM  GDM
method DSD-PBEPBE-D3
GEN_SCFMAN TRUE
UNRESTRICTED True
THRESH  14
SYMMETRY FALSE
SYM_IGNORE TRUE
max_scf_cycles 200

XC_GRID 000099000590
BASIS AUG-CC-PVQZ


$end





$multipole_field
x 0.0
y 0.0
z 0.0
$end




