$molecule
0 1
C 2.045e-6 7.626e-7 0.6015842672
C -1.5712e-6 -1.7154e-6 -0.6094467248
H -8.881e-7 2.62e-8 1.6774523057
H 4.1e-7 9.266e-7 -1.6695898481
$end


$rem
N_FROZEN_CORE FC
MEM_TOTAL 3750
MEM_STATIC 1500
AUX_BASIS_CORR rimp2-def2-QZVPPD
SCF_CONVERGENCE 7
SCF_ALGORITHM  GDM
method DSD-PBEPBE-D3
GEN_SCFMAN TRUE
UNRESTRICTED True
THRESH  14
SYMMETRY FALSE
SYM_IGNORE TRUE
max_scf_cycles 200

XC_GRID 000099000590
BASIS AUG-CC-PVQZ


$end





$multipole_field
x 0.0
y 0.0
z -0.03
$end




