$molecule
0 1
C 0.1386718835 -0.3864320266 -4.7525e-6
O 1.2423391458 0.2717833923 -1.7446e-6
N -1.0602915435 0.143621375 9.243e-6
H -1.916221425 -0.4235857556 -6.9959e-6
H -1.1799327993 1.1437846817 1.7093e-6
H 0.1176479732 -1.482149438 2.5406e-6
$end


$rem
N_FROZEN_CORE FC
MEM_TOTAL 3750
MEM_STATIC 1500
AUX_BASIS_CORR rimp2-def2-QZVPPD
SCF_CONVERGENCE 7
SCF_ALGORITHM  GDM
method DSD-PBEPBE-D3
GEN_SCFMAN TRUE
UNRESTRICTED True
THRESH  14
SYMMETRY FALSE
SYM_IGNORE TRUE
max_scf_cycles 200

XC_GRID 000099000590
BASIS AUG-CC-PVQZ


$end





$multipole_field
x 0.042563978354812855
y 0.02623561979529861
z 7.53364636743038e-7
$end




