$molecule
0 1
C 0.6662800114 1.4967e-6 -1.731e-7
C -0.6691127713 -1.6795e-6 4.994e-7
H 1.2336870289 0.9213899048 -3.7229e-6
H 1.2336828821 -0.9213878021 3.7404e-6
H -1.2322667512 0.9258975544 3.5625e-6
H -1.2322703997 -0.925899723 -3.9062e-6
$end


$rem
N_FROZEN_CORE FC
MEM_TOTAL 3750
MEM_STATIC 1500
AUX_BASIS_CORR rimp2-def2-QZVPPD
SCF_CONVERGENCE 7
SCF_ALGORITHM  GDM
method DSD-PBEPBE-D3
GEN_SCFMAN TRUE
UNRESTRICTED True
THRESH  14
SYMMETRY FALSE
SYM_IGNORE TRUE
max_scf_cycles 200

XC_GRID 000099000590
BASIS AUG-CC-PVQZ


$end





$multipole_field
x -0.009999999999997247
y -7.42018069577656e-9
z -1.7238803636652623e-11
$end




