$molecule
0 1
C -0.1281406237 -0.3988697469 -9.5654e-6
O -1.1609702061 0.2674280243 -6.6412e-6
O 1.0877819555 0.0869722001 8.3376e-6
H -0.0898331511 -1.4915639176 5.0598e-6
H 1.0711164912 1.0526346666 2.8093e-6
$end


$rem
N_FROZEN_CORE FC
MEM_TOTAL 3750
MEM_STATIC 1500
AUX_BASIS_CORR rimp2-def2-QZVPPD
SCF_CONVERGENCE 7
SCF_ALGORITHM  GDM
method DSD-PBEPBE-D3
GEN_SCFMAN TRUE
UNRESTRICTED True
THRESH  14
SYMMETRY FALSE
SYM_IGNORE TRUE
max_scf_cycles 200

XC_GRID 000099000590
BASIS AUG-CC-PVQZ


$end





$multipole_field
x -0.024945837103542732
y 0.01666448951228657
z 7.059757597117569e-7
$end




