$molecule
0 1
C 0.6654245273 -0.0196835874 -1.58701e-5
O -0.7484082468 0.1233319641 -5.70317e-5
H -1.1380079898 -0.752316805 7.46815e-5
H 1.0819323047 0.9853776928 2.34097e-5
H 1.0223453926 -0.5440361936 -0.8907294175
H 1.0222857515 -0.5440656077 0.8907042282
$end


$rem
N_FROZEN_CORE FC
MEM_TOTAL 3750
INTERNAL_STABILITY TRUE
MEM_STATIC 1500
AUX_BASIS_CORR rimp2-def2-QZVPPD
SCF_CONVERGENCE 7
SCF_ALGORITHM  GDM
method DSD-PBEPBE-D3
GEN_SCFMAN TRUE
UNRESTRICTED True
THRESH  14
SYMMETRY FALSE
SYM_IGNORE TRUE
max_scf_cycles 200

XC_GRID 000099000590
BASIS AUG-CC-PVQZ


$end





$multipole_field
x 0.0
y 0.0
z 0.0
$end




