$molecule
0 1
C 0.1575634161 -0.3877270493 1.01501e-5
O 1.1999974584 0.252089408 -1.96255e-5
N -1.0758852283 0.1551471567 5.71811e-5
H -1.8994883705 -0.4206111671 -3.68303e-5
H -1.1780333046 1.1547649488 -1.18839e-5
H 0.1380592638 -1.4866410682 1.0085e-6
$end


$rem
N_FROZEN_CORE FC
MEM_TOTAL 3750
MEM_STATIC 1500
AUX_BASIS_CORR rimp2-def2-QZVPPD
SCF_CONVERGENCE 7
SCF_ALGORITHM  GDM
method DSD-PBEPBE-D3
GEN_SCFMAN TRUE
UNRESTRICTED True
THRESH  14
SYMMETRY FALSE
SYM_IGNORE TRUE
max_scf_cycles 200

XC_GRID 000099000590
BASIS AUG-CC-PVQZ


$end





$multipole_field
x 0.00851279567096257
y 0.005247123959059722
z 1.506729273486076e-7
$end




