$molecule
0 1
C 3.368e-7 9.236e-7 -0.7635307571
C -2.5995e-6 -4.867e-7 0.763932137
H 0.8796719506 0.507911068 -1.1585375802
H -0.8797001026 0.5078594295 -1.1585391496
H 2.98407e-5 -1.0157716469 -1.1585402736
H 0.8824971596 -0.5095434844 1.1584026953
H 3.08057e-5 1.0190376697 1.1584046607
H -0.8825273768 -0.5094934727 1.1584082676
$end


$rem
N_FROZEN_CORE FC
MEM_TOTAL 3750
MEM_STATIC 1500
AUX_BASIS_CORR rimp2-def2-QZVPPD
SCF_CONVERGENCE 7
SCF_ALGORITHM  GDM
method DSD-PBEPBE-D3
GEN_SCFMAN TRUE
UNRESTRICTED True
THRESH  14
SYMMETRY FALSE
SYM_IGNORE TRUE
max_scf_cycles 200

XC_GRID 000099000590
BASIS AUG-CC-PVQZ


$end





$multipole_field
x -1.4896212470012418e-8
y 6.269537924972242e-9
z 0.009999999999986941
$end




