$molecule
0 1
C 9.54e-8 -1.1803e-6 -0.7647807426
C -2.0791e-6 -1.8722e-6 0.7653889299
H 0.879060685 0.5075448215 -1.1601533925
H -0.8790772985 0.5075197384 -1.1601526976
H 1.92702e-5 -1.0150627399 -1.1601610133
H 0.8846830453 -0.5107920358 1.1599532075
H 1.60343e-5 1.0215548177 1.1599469126
H -0.8846997378 -0.5107615495 1.1599587957
$end


$rem
N_FROZEN_CORE FC
MEM_TOTAL 3750
MEM_STATIC 1500
AUX_BASIS_CORR rimp2-def2-QZVPPD
SCF_CONVERGENCE 7
SCF_ALGORITHM  GDM
method DSD-PBEPBE-D3
GEN_SCFMAN TRUE
UNRESTRICTED True
THRESH  14
SYMMETRY FALSE
SYM_IGNORE TRUE
max_scf_cycles 200

XC_GRID 000099000590
BASIS AUG-CC-PVQZ


$end





$multipole_field
x -2.9792424940024836e-8
y 1.2539075849944484e-8
z 0.019999999999973882
$end




