$molecule
0 1
C 0.5873486818 -0.0244342405 4.1717e-6
N -0.6782027157 0.160060715 3.473e-7
H 1.0582574206 -1.0075129437 -7.651e-7
H 1.2495324806 0.8364882189 -2.2959e-6
H -1.145062545 -0.7475343758 -1.458e-6
$end


$rem
N_FROZEN_CORE FC
MEM_TOTAL 3750
MEM_STATIC 1500
AUX_BASIS_CORR rimp2-def2-QZVPPD
SCF_CONVERGENCE 7
SCF_ALGORITHM  GDM
method DSD-PBEPBE-D3
GEN_SCFMAN TRUE
UNRESTRICTED True
THRESH  14
SYMMETRY FALSE
SYM_IGNORE TRUE
max_scf_cycles 200

XC_GRID 000099000590
BASIS AUG-CC-PVQZ


$end





$multipole_field
x -0.009893048673756451
y 0.001458625359121469
z -2.0334079117676875e-8
$end




