$molecule
0 1
C 0.5811784503 -0.0034190438 1.3544e-6
N -0.7109911722 0.164125064 2.58685e-5
H 1.0346530782 -0.9988977857 1.20293e-5
H 1.2871997381 0.8255900105 -1.44164e-5
H -1.1201667721 -0.7703308709 -2.48357e-5
$end


$rem
N_FROZEN_CORE FC
MEM_TOTAL 3750
MEM_STATIC 1500
AUX_BASIS_CORR rimp2-def2-QZVPPD
SCF_CONVERGENCE 7
SCF_ALGORITHM  GDM
method DSD-PBEPBE-D3
GEN_SCFMAN TRUE
UNRESTRICTED True
THRESH  14
SYMMETRY FALSE
SYM_IGNORE TRUE
max_scf_cycles 200

XC_GRID 000099000590
BASIS AUG-CC-PVQZ


$end





$multipole_field
x -0.049465243368782254
y 0.007293126795607345
z -1.0167039558838438e-7
$end




