$molecule
0 1
C -4.5928e-6 -3.1695e-6 0.6272560124
F 3.4465e-6 2.0388e-6 -0.7443010296
H 1.0319807482 3.2001e-6 0.9820810805
H -0.515992246 -0.8937314525 0.9820865992
H -0.515987356 0.893729383 0.9820839786
$end


$rem
N_FROZEN_CORE FC
MEM_TOTAL 3750
MEM_STATIC 1500
AUX_BASIS_CORR rimp2-def2-QZVPPD
SCF_CONVERGENCE 7
SCF_ALGORITHM  GDM
method DSD-PBEPBE-D3
GEN_SCFMAN TRUE
UNRESTRICTED True
THRESH  14
SYMMETRY FALSE
SYM_IGNORE TRUE
max_scf_cycles 200

XC_GRID 000099000590
BASIS AUG-CC-PVQZ


$end





$multipole_field
x -2.5285457948555833e-8
y 1.760064062851153e-8
z 0.009999999999952543
$end




