$molecule
0 1
C 0.698123337 -0.0026147085 -1.9911e-5
O -0.8311949935 0.1414052455 -8.89027e-5
H -1.08000343 -0.7842363241 0.0001057203
H 1.1353465036 0.9894811938 3.62494e-5
H 0.99168907 -0.5476946819 -0.8944727264
H 0.9916112523 -0.5477332613 0.8944395707
$end


$rem
N_FROZEN_CORE FC
MEM_TOTAL 3750
MEM_STATIC 1500
AUX_BASIS_CORR rimp2-def2-QZVPPD
SCF_CONVERGENCE 7
SCF_ALGORITHM  GDM
method DSD-PBEPBE-D3
GEN_SCFMAN TRUE
UNRESTRICTED True
THRESH  14
SYMMETRY FALSE
SYM_IGNORE TRUE
max_scf_cycles 200

XC_GRID 000099000590
BASIS AUG-CC-PVQZ


$end





$multipole_field
x -0.049740808952383725
y 0.0050844786164132814
z -1.400606412602803e-6
$end




