$molecule
0 1
C -3.4958e-6 -1.0479e-6 0.6659617432
F 3.3425e-6 2.8666e-6 -0.8042134183
H 1.0354531084 -2.0701e-6 0.9891499201
H -0.5177252098 -0.8967324713 0.9891568805
H -0.5177277453 0.8967327228 0.9891515158
$end


$rem
N_FROZEN_CORE FC
MEM_TOTAL 3750
MEM_STATIC 1500
AUX_BASIS_CORR rimp2-def2-QZVPPD
SCF_CONVERGENCE 7
SCF_ALGORITHM  GDM
method DSD-PBEPBE-D3
GEN_SCFMAN TRUE
UNRESTRICTED True
THRESH  14
SYMMETRY FALSE
SYM_IGNORE TRUE
max_scf_cycles 200

XC_GRID 000099000590
BASIS AUG-CC-PVQZ


$end





$multipole_field
x 1.0114183179422333e-7
y -7.040256251404612e-8
z -0.039999999999810174
$end




