$molecule
0 1
C -4.1143e-6 -3.6306e-6 0.6164871107
F 4.2331e-6 2.1467e-6 -0.7319390409
H 1.0346513202 4.0844e-6 0.9815490382
H -0.5173288283 -0.8960407945 0.981556002
H -0.5173226106 0.896038194 0.9815535312
$end


$rem
N_FROZEN_CORE FC
MEM_TOTAL 3750
MEM_STATIC 1500
AUX_BASIS_CORR rimp2-def2-QZVPPD
SCF_CONVERGENCE 7
SCF_ALGORITHM  GDM
method DSD-PBEPBE-D3
GEN_SCFMAN TRUE
UNRESTRICTED True
THRESH  14
SYMMETRY FALSE
SYM_IGNORE TRUE
max_scf_cycles 200

XC_GRID 000099000590
BASIS AUG-CC-PVQZ


$end





$multipole_field
x -7.58563738456675e-8
y 5.280192188553458e-8
z 0.02999999999985763
$end




