$molecule
0 1
C 0.6656280492 2.4851e-6 8.344e-7
C -0.6714763208 -3.4654e-6 6.463e-7
H 1.2371381026 0.9191484857 -7.4971e-6
H 1.2371326661 -0.9191449596 6.7001e-6
H -1.2342077126 0.9282626557 6.7699e-6
H -1.2342147843 -0.9282654503 -7.4535e-6
$end


$rem
N_FROZEN_CORE FC
MEM_TOTAL 3750
MEM_STATIC 1500
AUX_BASIS_CORR rimp2-def2-QZVPPD
SCF_CONVERGENCE 7
SCF_ALGORITHM  GDM
method DSD-PBEPBE-D3
GEN_SCFMAN TRUE
UNRESTRICTED True
THRESH  14
SYMMETRY FALSE
SYM_IGNORE TRUE
max_scf_cycles 200

XC_GRID 000099000590
BASIS AUG-CC-PVQZ


$end





$multipole_field
x -0.019999999999994494
y -1.484036139155312e-8
z -3.4477607273305245e-11
$end




