$molecule
0 1
C 9.421e-7 4.712e-7 0.6052096097
F 5.0191e-6 -4.4401e-6 -0.7236263287
H 1.0392599323 4.8619e-6 0.9825352375
H -0.5196360115 -0.9000223928 0.9825397061
H -0.5196298818 0.9000214998 0.9825484168
$end


$rem
N_FROZEN_CORE FC
MEM_TOTAL 3750
MEM_STATIC 1500
AUX_BASIS_CORR rimp2-def2-QZVPPD
SCF_CONVERGENCE 7
SCF_ALGORITHM  GDM
method DSD-PBEPBE-D3
GEN_SCFMAN TRUE
UNRESTRICTED True
THRESH  14
SYMMETRY FALSE
SYM_IGNORE TRUE
max_scf_cycles 200

XC_GRID 000099000590
BASIS AUG-CC-PVQZ


$end





$multipole_field
x -1.2642728974277917e-7
y 8.800320314255765e-8
z 0.04999999999976272
$end




