$molecule
0 1
C -2.3854e-6 -2.7897e-6 0.6391954222
F 3.941e-6 2.0894e-6 -0.7617050321
H 1.0312860543 2.3522e-6 0.9839015839
H -0.5156456399 -0.893121979 0.9839088615
H -0.51564197 0.893120327 0.9839058057
$end


$rem
N_FROZEN_CORE FC
MEM_TOTAL 3750
MEM_STATIC 1500
AUX_BASIS_CORR rimp2-def2-QZVPPD
SCF_CONVERGENCE 7
SCF_ALGORITHM  GDM
method DSD-PBEPBE-D3
GEN_SCFMAN TRUE
UNRESTRICTED True
THRESH  14
SYMMETRY FALSE
SYM_IGNORE TRUE
max_scf_cycles 200

XC_GRID 000099000590
BASIS AUG-CC-PVQZ


$end





$multipole_field
x 2.5285457948555833e-8
y -1.760064062851153e-8
z -0.009999999999952543
$end




