$molecule
0 1
C -0.7073859821 -0.0002795449 0.0236929563
N 0.7417611343 -0.0003701554 -0.1116552886
H -1.089538148 0.0013307916 1.0550692435
H -1.1100072008 -0.8795418965 -0.4836367049
H -1.1088112339 0.8787897603 -0.4850423904
H 1.1551634891 -0.8119603161 0.3282803299
H 1.1527055831 0.8119410907 0.3288880519
$end


$rem
N_FROZEN_CORE FC
MEM_TOTAL 3750
MEM_STATIC 1500
AUX_BASIS_CORR rimp2-def2-QZVPPD
SCF_CONVERGENCE 7
SCF_ALGORITHM  GDM
method DSD-PBEPBE-D3
GEN_SCFMAN TRUE
UNRESTRICTED True
THRESH  14
SYMMETRY FALSE
SYM_IGNORE TRUE
max_scf_cycles 200

XC_GRID 000099000590
BASIS AUG-CC-PVQZ


$end





$multipole_field
x -0.00995034074374985
y 4.720290928046117e-7
z 0.0009953486125274028
$end




