$molecule
0 1
C 0.6572795085 -0.0299087088 -1.78294e-5
O -0.7204068347 0.1097972686 -8.2133e-5
H -1.1884233138 -0.7323784069 0.0001048235
H 1.0555735178 0.9905192999 2.85222e-5
H 1.0508132011 -0.5446862516 -0.895549962
H 1.0507356607 -0.5447357379 0.8955165785
$end


$rem
N_FROZEN_CORE FC
MEM_TOTAL 3750
INTERNAL_STABILITY TRUE
MEM_STATIC 1500
AUX_BASIS_CORR rimp2-def2-QZVPPD
SCF_CONVERGENCE 7
SCF_ALGORITHM  GDM
method DSD-PBEPBE-D3
GEN_SCFMAN TRUE
UNRESTRICTED True
THRESH  14
SYMMETRY FALSE
SYM_IGNORE TRUE
max_scf_cycles 200

XC_GRID 000099000590
BASIS AUG-CC-PVQZ


$end





$multipole_field
x 0.029844485371430234
y -0.0030506871698479684
z 8.403638475616817e-7
$end




