$molecule
0 1
C 0.5852623279 -0.0204797511 2.332e-7
N -0.6852791029 0.1635695435 -1.1143e-6
H 1.0503342776 -1.005511997 -2.252e-7
H 1.2560847314 0.8329924663 3.933e-7
H -1.1345289118 -0.7535028879 7.131e-7
$end


$rem
N_FROZEN_CORE FC
MEM_TOTAL 3750
MEM_STATIC 1500
AUX_BASIS_CORR rimp2-def2-QZVPPD
SCF_CONVERGENCE 7
SCF_ALGORITHM  GDM
method DSD-PBEPBE-D3
GEN_SCFMAN TRUE
UNRESTRICTED True
THRESH  14
SYMMETRY FALSE
SYM_IGNORE TRUE
max_scf_cycles 200

XC_GRID 000099000590
BASIS AUG-CC-PVQZ


$end





$multipole_field
x -0.019786097347512903
y 0.002917250718242938
z -4.066815823535375e-8
$end




