$molecule
0 1
C 0.668878704 -0.0162850208 -2.20404e-5
O -0.7598661723 0.127225218 -8.11177e-5
H -1.1243133256 -0.7584054795 0.0001061387
H 1.0908805529 0.9846646218 3.25306e-5
H 1.015039039 -0.5442747459 -0.8900111368
H 1.0149529417 -0.5443171304 0.8899756256
$end


$rem
N_FROZEN_CORE FC
MEM_TOTAL 3750
MEM_STATIC 1500
AUX_BASIS_CORR rimp2-def2-QZVPPD
SCF_CONVERGENCE 7
SCF_ALGORITHM  GDM
method DSD-PBEPBE-D3
GEN_SCFMAN TRUE
UNRESTRICTED True
THRESH  14
SYMMETRY FALSE
SYM_IGNORE TRUE
max_scf_cycles 200

XC_GRID 000099000590
BASIS AUG-CC-PVQZ


$end





$multipole_field
x -0.009948161790476745
y 0.001016895723282656
z -2.801212825205606e-7
$end




