$molecule
0 1
C 0.5920785848 -0.0325761616 1.6448e-6
N -0.6656816021 0.1507148611 -1.3672e-6
H 1.0814548839 -1.0115041457 -8.84e-7
H 1.2385627436 0.8442634995 -1.125e-7
H -1.1745412879 -0.7338306793 7.191e-7
$end


$rem
N_FROZEN_CORE FC
MEM_TOTAL 3750
MEM_STATIC 1500
AUX_BASIS_CORR rimp2-def2-QZVPPD
SCF_CONVERGENCE 7
SCF_ALGORITHM  GDM
method DSD-PBEPBE-D3
GEN_SCFMAN TRUE
UNRESTRICTED True
THRESH  14
SYMMETRY FALSE
SYM_IGNORE TRUE
max_scf_cycles 200

XC_GRID 000099000590
BASIS AUG-CC-PVQZ


$end





$multipole_field
x 0.009893048673756451
y -0.001458625359121469
z 2.0334079117676875e-8
$end




