$molecule
0 1
C 1.1e-9 -1.1e-9 0.6017107898
C 3.4e-9 -4.1e-9 -0.6068851351
H -1.1e-9 1.8e-9 1.672142156
H -3.5e-9 3.4e-9 -1.6669678106
$end


$rem
N_FROZEN_CORE FC
MEM_TOTAL 3750
MEM_STATIC 1500
AUX_BASIS_CORR rimp2-def2-QZVPPD
SCF_CONVERGENCE 7
SCF_ALGORITHM  GDM
method DSD-PBEPBE-D3
GEN_SCFMAN TRUE
UNRESTRICTED True
THRESH  14
SYMMETRY FALSE
SYM_IGNORE TRUE
max_scf_cycles 200

XC_GRID 000099000590
BASIS AUG-CC-PVQZ


$end





$multipole_field
x 0.0
y 0.0
z -0.02
$end




