$molecule
0 1
C -0.1488857073 -0.4007748035 3.42523e-5
O -1.1209463327 0.2679393354 1.24655e-5
O 1.1481676153 0.0931087187 -3.16102e-5
H -0.1178957658 -1.5005367288 -1.37267e-5
H 1.0195146562 1.0568647046 -1.381e-6
$end


$rem
N_FROZEN_CORE FC
MEM_TOTAL 3750
MEM_STATIC 1500
AUX_BASIS_CORR rimp2-def2-QZVPPD
SCF_CONVERGENCE 7
SCF_ALGORITHM  GDM
method DSD-PBEPBE-D3
GEN_SCFMAN TRUE
UNRESTRICTED True
THRESH  14
SYMMETRY FALSE
SYM_IGNORE TRUE
max_scf_cycles 200

XC_GRID 000099000590
BASIS AUG-CC-PVQZ


$end





$multipole_field
x 0.024945837103542732
y -0.01666448951228657
z -7.059757597117569e-7
$end




