$molecule
0 1
C -0.7181122014 6.20909e-5 -0.008963228
N 0.8005131478 0.0001618334 -0.1647331002
H -0.9971885515 0.0011168073 1.0455175983
H -1.1394472293 -0.8834434521 -0.4808556764
H -1.139961906 0.8823065047 -0.4827730447
H 1.1140370458 -0.8046784825 0.3732561703
H 1.1140473362 0.8043844279 0.3741474784
$end


$rem
N_FROZEN_CORE FC
MEM_TOTAL 3750
MEM_STATIC 1500
AUX_BASIS_CORR rimp2-def2-QZVPPD
SCF_CONVERGENCE 7
SCF_ALGORITHM  GDM
method DSD-PBEPBE-D3
GEN_SCFMAN TRUE
UNRESTRICTED True
THRESH  14
SYMMETRY FALSE
SYM_IGNORE TRUE
max_scf_cycles 200

XC_GRID 000099000590
BASIS AUG-CC-PVQZ


$end





$multipole_field
x 0.0398013629749994
y -1.8881163712184468e-6
z -0.003981394450109611
$end




