$molecule
0 1
C 0.6513922715 -0.0360652298 -1.20017e-5
O -0.7035093201 0.0940072824 -8.32339e-5
H -1.2423004174 -0.7142490099 0.0001043002
H 1.036705055 0.9959586536 3.06589e-5
H 1.0816788584 -0.545499651 -0.9019496241
H 1.0816052922 -0.5455445818 0.9019099004
$end


$rem
N_FROZEN_CORE FC
MEM_TOTAL 3750
MEM_STATIC 1500
AUX_BASIS_CORR rimp2-def2-QZVPPD
SCF_CONVERGENCE 7
SCF_ALGORITHM  GDM
method DSD-PBEPBE-D3
GEN_SCFMAN TRUE
UNRESTRICTED True
THRESH  14
SYMMETRY FALSE
SYM_IGNORE TRUE
max_scf_cycles 200

XC_GRID 000099000590
BASIS AUG-CC-PVQZ


$end





$multipole_field
x 0.049740808952383725
y -0.0050844786164132814
z 1.400606412602803e-6
$end




