$molecule
0 1
C 0.1688592481 -0.3887866614 -2.17821e-5
O 1.1906982014 0.2476213299 1.4355e-5
N -1.0856242229 0.160268425 9.934e-6
H -1.9007549523 -0.4207174155 8.6165e-6
H -1.1776410561 1.1617879099 -1.07852e-5
H 0.1466760167 -1.4931513591 -3.381e-7
$end


$rem
N_FROZEN_CORE FC
MEM_TOTAL 3750
MEM_STATIC 1500
AUX_BASIS_CORR rimp2-def2-QZVPPD
SCF_CONVERGENCE 7
SCF_ALGORITHM  GDM
method DSD-PBEPBE-D3
GEN_SCFMAN TRUE
UNRESTRICTED True
THRESH  14
SYMMETRY FALSE
SYM_IGNORE TRUE
max_scf_cycles 200

XC_GRID 000099000590
BASIS AUG-CC-PVQZ


$end





$multipole_field
x -0.00851279567096257
y -0.005247123959059722
z -1.506729273486076e-7
$end




