$molecule
0 1
C -3.0733e-6 -2.7661e-6 0.6463052985
F 3.0836e-6 2.0749e-6 -0.7729920597
H 1.0318315496 2.412e-6 0.9852951167
H -0.5159176693 -0.8935965713 0.9853006541
H -0.5159138907 0.8935948506 0.9852976315
$end


$rem
N_FROZEN_CORE FC
MEM_TOTAL 3750
MEM_STATIC 1500
AUX_BASIS_CORR rimp2-def2-QZVPPD
SCF_CONVERGENCE 7
SCF_ALGORITHM  GDM
method DSD-PBEPBE-D3
GEN_SCFMAN TRUE
UNRESTRICTED True
THRESH  14
SYMMETRY FALSE
SYM_IGNORE TRUE
max_scf_cycles 200

XC_GRID 000099000590
BASIS AUG-CC-PVQZ


$end





$multipole_field
x 5.0570915897111665e-8
y -3.520128125702306e-8
z -0.019999999999905087
$end




