$molecule
0 1
C 0.6682538988 3.1152e-6 -3.1719e-6
C -0.6826211335 -1.5606e-6 -3.338e-6
H 1.2597832558 0.913424915 -6.9394e-6
H 1.2597764112 -0.9134262227 1.01397e-5
H -1.2525986184 0.9362741711 1.03362e-5
H -1.2525938138 -0.9362746665 -7.0264e-6
$end


$rem
N_FROZEN_CORE FC
MEM_TOTAL 3750
MEM_STATIC 1500
AUX_BASIS_CORR rimp2-def2-QZVPPD
SCF_CONVERGENCE 7
SCF_ALGORITHM  GDM
method DSD-PBEPBE-D3
GEN_SCFMAN TRUE
UNRESTRICTED True
THRESH  14
SYMMETRY FALSE
SYM_IGNORE TRUE
max_scf_cycles 200

XC_GRID 000099000590
BASIS AUG-CC-PVQZ


$end





$multipole_field
x -0.04999999999998624
y -3.7100903478882803e-8
z -8.619401818326313e-11
$end




