$molecule
0 1
C 0.665599686 2.9773e-6 3.413e-7
C -0.6743430785 -6.0102e-6 -1.4848e-6
H 1.2423732445 0.9171147168 -1.00116e-5
H 1.2423678799 -0.9171089321 1.00867e-5
H -1.2379925956 0.9308188712 1.06116e-5
H -1.2380051363 -0.9308218718 -9.5429e-6
$end


$rem
N_FROZEN_CORE FC
MEM_TOTAL 3750
MEM_STATIC 1500
AUX_BASIS_CORR rimp2-def2-QZVPPD
SCF_CONVERGENCE 7
SCF_ALGORITHM  GDM
method DSD-PBEPBE-D3
GEN_SCFMAN TRUE
UNRESTRICTED True
THRESH  14
SYMMETRY FALSE
SYM_IGNORE TRUE
max_scf_cycles 200

XC_GRID 000099000590
BASIS AUG-CC-PVQZ


$end





$multipole_field
x -0.02999999999999174
y -2.226054208732968e-8
z -5.171641090995787e-11
$end




