$molecule
0 1
C 0.6541911674 -0.0331116502 -1.85447e-5
O -0.7121447915 0.1035108164 -8.79207e-5
H -1.2111534748 -0.7244099945 0.0001096307
H 1.0465992428 0.9931046397 3.14597e-5
H 1.0640781334 -0.5452178334 -0.8981238461
H 1.0640014621 -0.5452685147 0.8980892211
$end


$rem
N_FROZEN_CORE FC
MEM_TOTAL 3750
MEM_STATIC 1500
AUX_BASIS_CORR rimp2-def2-QZVPPD
SCF_CONVERGENCE 7
SCF_ALGORITHM  GDM
method DSD-PBEPBE-D3
GEN_SCFMAN TRUE
UNRESTRICTED True
THRESH  14
SYMMETRY FALSE
SYM_IGNORE TRUE
max_scf_cycles 200

XC_GRID 000099000590
BASIS AUG-CC-PVQZ


$end





$multipole_field
x 0.03979264716190698
y -0.004067582893130624
z 1.1204851300822424e-6
$end




