$molecule
0 1
C -0.7093380244 -4.97579e-5 0.0114481515
N 0.7607401117 -0.0001418139 -0.1370251709
H -1.0495006663 0.0005444694 1.0503471812
H -1.1193774799 -0.8791728146 -0.4824408883
H -1.1193719114 0.8785166346 -0.4834287126
H 1.1353551535 -0.8070173435 0.3487706087
H 1.1353804586 0.8072303554 0.347925028
$end


$rem
N_FROZEN_CORE FC
MEM_TOTAL 3750
MEM_STATIC 1500
AUX_BASIS_CORR rimp2-def2-QZVPPD
SCF_CONVERGENCE 7
SCF_ALGORITHM  GDM
method DSD-PBEPBE-D3
GEN_SCFMAN TRUE
UNRESTRICTED True
THRESH  14
SYMMETRY FALSE
SYM_IGNORE TRUE
max_scf_cycles 200

XC_GRID 000099000590
BASIS AUG-CC-PVQZ


$end





$multipole_field
x 0.00995034074374985
y -4.720290928046117e-7
z -0.0009953486125274028
$end




