$molecule
0 1
C -3.4999e-5 0.000136871 -0.4976274675
N -2.4325e-6 9.5134e-6 0.659924571
H 3.74317e-5 -0.0001463844 -1.5734022961
$end


$rem
N_FROZEN_CORE FC
MEM_TOTAL 3750
MEM_STATIC 1500
AUX_BASIS_CORR rimp2-def2-QZVPPD
SCF_CONVERGENCE 7
SCF_ALGORITHM  GDM
method DSD-PBEPBE-D3
GEN_SCFMAN TRUE
UNRESTRICTED True
THRESH  14
SYMMETRY FALSE
SYM_IGNORE TRUE
max_scf_cycles 200

XC_GRID 000099000590
BASIS AUG-CC-PVQZ


$end





$multipole_field
x 0.0
y 0.0
z 0.02
$end




