$molecule
0 1
C -2.0771e-6 -8.293e-7 0.611056291
F 6.2875e-6 -2.3368e-6 -0.7272811849
H 1.0366877885 2.5231e-6 0.9818039553
H -0.5183472705 -0.8977967091 0.9818112818
H -0.5183447284 0.897797352 0.9818162979
$end


$rem
N_FROZEN_CORE FC
MEM_TOTAL 3750
MEM_STATIC 1500
AUX_BASIS_CORR rimp2-def2-QZVPPD
SCF_CONVERGENCE 7
SCF_ALGORITHM  GDM
method DSD-PBEPBE-D3
GEN_SCFMAN TRUE
UNRESTRICTED True
THRESH  14
SYMMETRY FALSE
SYM_IGNORE TRUE
max_scf_cycles 200

XC_GRID 000099000590
BASIS AUG-CC-PVQZ


$end





$multipole_field
x -1.0114183179422333e-7
y 7.040256251404612e-8
z 0.039999999999810174
$end




