$molecule
0 1
C -0.1318146901 -0.3998031189 2.2974e-6
O -1.1402804044 0.266570195 -2.1265e-6
O 1.1073113235 0.0887617885 1.8684e-6
H -0.1031611103 -1.4925568214 -8.936e-7
H 1.0478993472 1.0536291833 -1.1457e-6
$end


$rem
N_FROZEN_CORE FC
MEM_TOTAL 3750
MEM_STATIC 1500
AUX_BASIS_CORR rimp2-def2-QZVPPD
SCF_CONVERGENCE 7
SCF_ALGORITHM  GDM
method DSD-PBEPBE-D3
GEN_SCFMAN TRUE
UNRESTRICTED True
THRESH  14
SYMMETRY FALSE
SYM_IGNORE TRUE
max_scf_cycles 200

XC_GRID 000099000590
BASIS AUG-CC-PVQZ


$end





$multipole_field
x -0.008315279034514244
y 0.005554829837428856
z 2.353252532372523e-7
$end




