$molecule
0 1
C -0.7071185562 -3.70947e-5 0.0299765875
N 0.7327887245 -0.00011104 -0.0944993779
H -1.1155780242 0.0005736394 1.0579250877
H -1.105033524 -0.8805813788 -0.4845162962
H -1.1050255031 0.8799030885 -0.4855476638
H 1.1669184196 -0.8153830159 0.3165180351
H 1.1669361051 0.8155455313 0.3157398254
$end


$rem
N_FROZEN_CORE FC
MEM_TOTAL 3750
MEM_STATIC 1500
AUX_BASIS_CORR rimp2-def2-QZVPPD
SCF_CONVERGENCE 7
SCF_ALGORITHM  GDM
method DSD-PBEPBE-D3
GEN_SCFMAN TRUE
UNRESTRICTED True
THRESH  14
SYMMETRY FALSE
SYM_IGNORE TRUE
max_scf_cycles 200

XC_GRID 000099000590
BASIS AUG-CC-PVQZ


$end





$multipole_field
x -0.0199006814874997
y 9.440581856092234e-7
z 0.0019906972250548056
$end




