$molecule
0 1
C -2.0674e-6 -1.2469e-6 0.6817661081
F 4.0054e-6 2.9561e-6 -0.8279778422
H 1.0393645694 -1.2179e-6 0.9918021903
H -0.5196826923 -0.9001169168 0.9918108552
H -0.5196838151 0.9001164256 0.9918053297
$end


$rem
N_FROZEN_CORE FC
MEM_TOTAL 3750
MEM_STATIC 1500
AUX_BASIS_CORR rimp2-def2-QZVPPD
SCF_CONVERGENCE 7
SCF_ALGORITHM  GDM
method DSD-PBEPBE-D3
GEN_SCFMAN TRUE
UNRESTRICTED True
THRESH  14
SYMMETRY FALSE
SYM_IGNORE TRUE
max_scf_cycles 200

XC_GRID 000099000590
BASIS AUG-CC-PVQZ


$end





$multipole_field
x 1.2642728974277917e-7
y -8.800320314255765e-8
z -0.04999999999976272
$end




