$molecule
0 1
C 0.6627862169 -0.0231403521 0.001265789
O -0.7383717804 0.1194130529 0.005851992
H -1.1524751022 -0.7460364918 -0.0073952646
H 1.0730435858 0.9866070635 -0.0019954395
H 1.027431294 -0.5458123692 -0.8907502442
H 1.0331575256 -0.54242344 0.8930231674
$end


$rem
N_FROZEN_CORE FC
MEM_TOTAL 3750
MEM_STATIC 1500
AUX_BASIS_CORR rimp2-def2-QZVPPD
SCF_CONVERGENCE 7
SCF_ALGORITHM  GDM
method DSD-PBEPBE-D3
GEN_SCFMAN TRUE
UNRESTRICTED True
THRESH  14
SYMMETRY FALSE
SYM_IGNORE TRUE
max_scf_cycles 200

XC_GRID 000099000590
BASIS AUG-CC-PVQZ


$end





$multipole_field
x 0.009948161790476745
y -0.001016895723282656
z 2.801212825205606e-7
$end




