$molecule
0 1
C 0.6023132311 -0.0459452841 6.35827e-5
N -0.6460342244 0.1185331612 -1.35118e-5
H 1.1574404439 -1.0180851721 -2.13232e-5
H 1.2237968086 0.8590272584 -2.3729e-5
H -1.2656429372 -0.6964625893 -5.0188e-6
$end


$rem
N_FROZEN_CORE FC
MEM_TOTAL 3750
MEM_STATIC 1500
AUX_BASIS_CORR rimp2-def2-QZVPPD
SCF_CONVERGENCE 7
SCF_ALGORITHM  GDM
method DSD-PBEPBE-D3
GEN_SCFMAN TRUE
UNRESTRICTED True
THRESH  14
SYMMETRY FALSE
SYM_IGNORE TRUE
max_scf_cycles 200

XC_GRID 000099000590
BASIS AUG-CC-PVQZ


$end





$multipole_field
x 0.039572194695025806
y -0.005834501436485876
z 8.13363164707075e-8
$end




