$molecule
0 1
C -3.5609e-6 -1.781e-6 0.6548846578
F 2.7976e-6 2.849e-6 -0.7867671805
H 1.0331328103 -2.428e-7 0.9870274956
H -0.5165661215 -0.8947243295 0.9870333334
H -0.5165659255 0.8947235044 0.987028335
$end


$rem
N_FROZEN_CORE FC
MEM_TOTAL 3750
MEM_STATIC 1500
AUX_BASIS_CORR rimp2-def2-QZVPPD
SCF_CONVERGENCE 7
SCF_ALGORITHM  GDM
method DSD-PBEPBE-D3
GEN_SCFMAN TRUE
UNRESTRICTED True
THRESH  14
SYMMETRY FALSE
SYM_IGNORE TRUE
max_scf_cycles 200

XC_GRID 000099000590
BASIS AUG-CC-PVQZ


$end





$multipole_field
x 7.58563738456675e-8
y -5.280192188553458e-8
z -0.02999999999985763
$end




