$molecule
0 1
C 0.1753739226 -0.3891467846 -2.35798e-5
O 1.1882509321 0.2465606737 8.2274e-6
N -1.0906440115 0.1628274911 7.38965e-5
H -1.9028598355 -0.4217545849 -1.71375e-5
H -1.1776174766 1.1658676059 -3.55268e-5
H 0.1497097037 -1.4973321725 -5.8798e-6
$end


$rem
N_FROZEN_CORE FC
MEM_TOTAL 3750
MEM_STATIC 1500
AUX_BASIS_CORR rimp2-def2-QZVPPD
SCF_CONVERGENCE 7
SCF_ALGORITHM  GDM
method DSD-PBEPBE-D3
GEN_SCFMAN TRUE
UNRESTRICTED True
THRESH  14
SYMMETRY FALSE
SYM_IGNORE TRUE
max_scf_cycles 200

XC_GRID 000099000590
BASIS AUG-CC-PVQZ


$end





$multipole_field
x -0.01702559134192514
y -0.010494247918119443
z -3.013458546972152e-7
$end




