$molecule
0 1
C -0.1429411218 -0.4006685662 -1.7257e-6
O -1.1230229314 0.267251256 7.7198e-6
O 1.1374627611 0.0920355886 -1.77533e-5
H -0.1158372771 -1.4977921346 3.8041e-6
H 1.024293035 1.0557750826 7.9551e-6
$end


$rem
N_FROZEN_CORE FC
MEM_TOTAL 3750
MEM_STATIC 1500
AUX_BASIS_CORR rimp2-def2-QZVPPD
SCF_CONVERGENCE 7
SCF_ALGORITHM  GDM
method DSD-PBEPBE-D3
GEN_SCFMAN TRUE
UNRESTRICTED True
THRESH  14
SYMMETRY FALSE
SYM_IGNORE TRUE
max_scf_cycles 200

XC_GRID 000099000590
BASIS AUG-CC-PVQZ


$end





$multipole_field
x 0.016630558069028488
y -0.011109659674857712
z -4.706505064745046e-7
$end




