$molecule
0 1
C -0.7134971657 -5.63554e-5 -0.0012850745
N 0.7848448569 -0.0001573867 -0.1573698405
H -1.015219049 0.0005269191 1.0468179504
H -1.1314919158 -0.8810250436 -0.4813169337
H -1.1314869303 0.8803802862 -0.482292724
H 1.1203541552 -0.804434062 0.3659592367
H 1.1203836902 0.8046753722 0.3650835833
$end


$rem
N_FROZEN_CORE FC
MEM_TOTAL 3750
MEM_STATIC 1500
AUX_BASIS_CORR rimp2-def2-QZVPPD
SCF_CONVERGENCE 7
SCF_ALGORITHM  GDM
method DSD-PBEPBE-D3
GEN_SCFMAN TRUE
UNRESTRICTED True
THRESH  14
SYMMETRY FALSE
SYM_IGNORE TRUE
max_scf_cycles 200

XC_GRID 000099000590
BASIS AUG-CC-PVQZ


$end





$multipole_field
x 0.029851022231249545
y -1.416087278413835e-6
z -0.002986045837582208
$end




