$molecule
0 2
C        0.960825    0.589955   -0.009853 
H        1.589444    0.872062    0.832239 
H        0.917560    1.264402   -0.858540 
C       -0.408087   -0.107857    0.420015 
H       -0.426252   -0.360324    1.480956 
O        0.759258   -0.744331   -0.252671 
O       -1.433905    0.160740   -0.236782 
$end


$rem
N_FROZEN_CORE FC
MEM_TOTAL 3750
MEM_STATIC 1500
AUX_BASIS_CORR rimp2-def2-QZVPPD
SCF_CONVERGENCE 7
SCF_ALGORITHM  GDM
method DSD-PBEPBE-D3
GEN_SCFMAN TRUE
UNRESTRICTED True
THRESH  14
SYMMETRY FALSE
SYM_IGNORE TRUE
max_scf_cycles 200

XC_GRID 000099000590
BASIS DEF2-QZVPPD


$end










