$molecule
0 2
O        1.457985    0.054964   -0.274584 
C        0.469168   -0.004992    0.439874 
C       -0.915365    0.593826   -0.057965 
H       -0.865662    1.191416   -0.967377 
H       -1.476229    1.035716    0.769908 
H        0.464638   -0.232756    1.504821 
O       -0.888680   -0.745886   -0.175267 
$end


$rem
N_FROZEN_CORE FC
MEM_TOTAL 3750
MEM_STATIC 1500
AUX_BASIS_CORR rimp2-def2-QZVPPD
SCF_CONVERGENCE 7
SCF_ALGORITHM  GDM
method DSD-PBEPBE-D3
GEN_SCFMAN TRUE
UNRESTRICTED True
THRESH  14
SYMMETRY FALSE
SYM_IGNORE TRUE
max_scf_cycles 200

XC_GRID 000099000590
BASIS DEF2-QZVPPD


$end










