$molecule
0 2
C        0.001800    1.119179   -0.020034 
C       -0.000773   -0.287477    0.395802 
O       -1.191934   -0.481861   -0.209059 
O        1.190648   -0.484534   -0.208835 
H       -0.000340   -0.497600    1.474477 
H        0.001741    1.935340    0.693664 
H        0.002716    1.303211   -1.079598 
$end


$rem
N_FROZEN_CORE FC
MEM_TOTAL 3750
MEM_STATIC 1500
AUX_BASIS_CORR rimp2-def2-QZVPPD
SCF_CONVERGENCE 7
SCF_ALGORITHM  GDM
method DSD-PBEPBE-D3
GEN_SCFMAN TRUE
UNRESTRICTED True
THRESH  14
SYMMETRY FALSE
SYM_IGNORE TRUE
max_scf_cycles 200

XC_GRID 000099000590
BASIS DEF2-QZVPPD


$end










