$molecule
0 2
O       -0.556376    1.641239    0.000000 
C        0.000000    0.600697    0.000000 
O       -0.471089   -0.649760    0.000000 
C        0.817452   -1.318890    0.000000 
H        1.020670   -1.840452    0.927274 
H        1.020670   -1.840452   -0.927274 
H        1.273669    0.058234    0.000000 
$end


$rem
N_FROZEN_CORE FC
MEM_TOTAL 3750
MEM_STATIC 1500
AUX_BASIS_CORR rimp2-def2-QZVPPD
SCF_CONVERGENCE 7
SCF_ALGORITHM  GDM
method DSD-PBEPBE-D3
GEN_SCFMAN TRUE
UNRESTRICTED True
THRESH  14
SYMMETRY FALSE
SYM_IGNORE TRUE
max_scf_cycles 200

XC_GRID 000099000590
BASIS DEF2-QZVPPD


$end










