$molecule
0 2
O        0.660590    0.699568   -0.040789 
C       -0.676889    0.621077    0.040571 
C       -1.187758   -0.611796   -0.060310 
O        1.140234   -0.634480    0.051990 
H       -2.141019   -1.030343    0.208923 
H        0.089098   -1.133282   -0.228160 
H       -1.166796    1.587235    0.048067 
$end


$rem
N_FROZEN_CORE FC
MEM_TOTAL 3750
MEM_STATIC 1500
AUX_BASIS_CORR rimp2-def2-QZVPPD
SCF_CONVERGENCE 7
SCF_ALGORITHM  GDM
method DSD-PBEPBE-D3
GEN_SCFMAN TRUE
UNRESTRICTED True
THRESH  14
SYMMETRY FALSE
SYM_IGNORE TRUE
max_scf_cycles 200

XC_GRID 000099000590
BASIS DEF2-QZVPPD


$end










