$molecule
0 2
C       -0.636366    0.575231   -0.000541 
C       -1.401514   -0.503519    0.000264 
O        0.754130    0.585511    0.000674 
O        1.328424   -0.603798   -0.000473 
H       -2.474048   -0.387461   -0.000779 
H       -0.976113   -1.494627    0.001427 
H       -0.982988    1.598109   -0.000593 
$end


$rem
N_FROZEN_CORE FC
MEM_TOTAL 3750
MEM_STATIC 1500
AUX_BASIS_CORR rimp2-def2-QZVPPD
SCF_CONVERGENCE 7
SCF_ALGORITHM  GDM
method DSD-PBEPBE-D3
GEN_SCFMAN TRUE
UNRESTRICTED True
THRESH  14
SYMMETRY FALSE
SYM_IGNORE TRUE
max_scf_cycles 200

XC_GRID 000099000590
BASIS DEF2-QZVPPD


$end










