$molecule
0 2
C        0.899695    1.170216    0.000000 
H        0.857436    2.248153    0.000000 
H        1.852496    0.663239    0.000000 
C       -0.311194    0.378890   -0.000000 
H       -1.261838    0.905770   -0.000000 
O       -0.311194   -0.819488    0.743108 
O       -0.311194   -0.819488   -0.743108 
$end


$rem
N_FROZEN_CORE FC
MEM_TOTAL 3750
MEM_STATIC 1500
AUX_BASIS_CORR rimp2-def2-QZVPPD
SCF_CONVERGENCE 7
SCF_ALGORITHM  GDM
method DSD-PBEPBE-D3
GEN_SCFMAN TRUE
UNRESTRICTED True
THRESH  14
SYMMETRY FALSE
SYM_IGNORE TRUE
max_scf_cycles 200

XC_GRID 000099000590
BASIS DEF2-QZVPPD


$end










