$molecule
0 2
O       -1.727153    0.101174   -0.188889 
C       -0.681943   -0.351654    0.166262 
C        0.636868    0.474264    0.150958 
O        1.676590   -0.286168   -0.217533 
H       -0.550771   -1.386276    0.530801 
H        0.736420    0.724791    1.229000 
H        0.489309    1.405769   -0.411744 
$end


$rem
N_FROZEN_CORE FC
MEM_TOTAL 3750
MEM_STATIC 1500
AUX_BASIS_CORR rimp2-def2-QZVPPD
SCF_CONVERGENCE 7
SCF_ALGORITHM  GDM
method DSD-PBEPBE-D3
GEN_SCFMAN TRUE
UNRESTRICTED True
THRESH  14
SYMMETRY FALSE
SYM_IGNORE TRUE
max_scf_cycles 200

XC_GRID 000099000590
BASIS DEF2-QZVPPD


$end










