$molecule
0 2
C        0.343628   -0.305909    0.418112 
C        1.456399    0.188050   -0.188880 
H        1.440416    0.403778   -1.246475 
H        2.357612    0.369453    0.377482 
H        0.294971   -0.571580    1.465870 
O       -0.759943   -0.636287   -0.333311 
O       -1.101703    0.699475    0.086777 
$end


$rem
N_FROZEN_CORE FC
MEM_TOTAL 3750
MEM_STATIC 1500
AUX_BASIS_CORR rimp2-def2-QZVPPD
SCF_CONVERGENCE 7
SCF_ALGORITHM  GDM
method DSD-PBEPBE-D3
GEN_SCFMAN TRUE
UNRESTRICTED True
THRESH  14
SYMMETRY FALSE
SYM_IGNORE TRUE
max_scf_cycles 200

XC_GRID 000099000590
BASIS DEF2-QZVPPD


$end










