$molecule
0 2
C       -0.343831   -0.306492    0.417861 
C       -1.456316    0.188368   -0.188756 
O        0.759906   -0.635880   -0.333872 
O        1.101820    0.699328    0.087447 
H       -2.357650    0.369259    0.377577 
H       -1.440024    0.405323   -1.246101 
H       -0.295254   -0.573429    1.465296 
$end


$rem
N_FROZEN_CORE FC
MEM_TOTAL 3750
MEM_STATIC 1500
AUX_BASIS_CORR rimp2-def2-QZVPPD
SCF_CONVERGENCE 7
SCF_ALGORITHM  GDM
method DSD-PBEPBE-D3
GEN_SCFMAN TRUE
UNRESTRICTED True
THRESH  14
SYMMETRY FALSE
SYM_IGNORE TRUE
max_scf_cycles 200

XC_GRID 000099000590
BASIS DEF2-QZVPPD


$end










