$molecule
0 2
C        0.477415    0.890671   -0.113825 
C       -0.921476    0.416375    0.005921 
H        1.014835    1.699962    0.361252 
H       -1.445862    0.643654    0.940685 
O        0.976892   -0.396847    0.007707 
H       -1.590969    0.570394   -0.843387 
O       -0.391097   -0.947689    0.015903 
$end


$rem
N_FROZEN_CORE FC
MEM_TOTAL 3750
MEM_STATIC 1500
AUX_BASIS_CORR rimp2-def2-QZVPPD
SCF_CONVERGENCE 7
SCF_ALGORITHM  GDM
method DSD-PBEPBE-D3
GEN_SCFMAN TRUE
UNRESTRICTED True
THRESH  14
SYMMETRY FALSE
SYM_IGNORE TRUE
max_scf_cycles 200

XC_GRID 000099000590
BASIS DEF2-QZVPPD


$end










