$molecule
0 2
H        2.280451   -0.318890   -0.197855 
O        1.631843    0.368757    0.016534 
O        0.375200   -0.568072    0.021572 
C       -0.632673    0.154178   -0.003356 
O       -1.817595    0.123544   -0.010857 
$end


$rem
N_FROZEN_CORE FC
MEM_TOTAL 3750
MEM_STATIC 1500
AUX_BASIS_CORR rimp2-def2-QZVPPD
SCF_CONVERGENCE 7
SCF_ALGORITHM  GDM
method DSD-PBEPBE-D3
GEN_SCFMAN TRUE
UNRESTRICTED True
THRESH  14
SYMMETRY FALSE
SYM_IGNORE TRUE
max_scf_cycles 200

XC_GRID 000099000590
BASIS DEF2-QZVPPD


$end










