$molecule
0 2
O       -0.602627    0.698625    0.008776 
C        0.751011    0.498912    0.006570 
C        1.404435   -0.631699   -0.001424 
O       -1.295278   -0.562004   -0.115221 
H        2.424159   -0.963638   -0.024483 
H       -1.405721   -0.808662    0.815529 
H        1.232128    1.476051    0.029635 
$end


$rem
N_FROZEN_CORE FC
MEM_TOTAL 3750
MEM_STATIC 1500
AUX_BASIS_CORR rimp2-def2-QZVPPD
SCF_CONVERGENCE 7
SCF_ALGORITHM  GDM
method DSD-PBEPBE-D3
GEN_SCFMAN TRUE
UNRESTRICTED True
THRESH  14
SYMMETRY FALSE
SYM_IGNORE TRUE
max_scf_cycles 200

XC_GRID 000099000590
BASIS DEF2-QZVPPD


$end










