$molecule
0 2
C       -1.396410   -0.445358    0.000436 
O       -0.577140    0.643292   -0.000039 
C        0.770038    0.446402   -0.000060 
O        1.314762   -0.617664    0.000067 
H       -0.960082   -1.428171   -0.001425 
H       -2.443651   -0.207110   -0.000814 
H        1.260989    1.423999   -0.000244 
$end


$rem
N_FROZEN_CORE FC
MEM_TOTAL 3750
MEM_STATIC 1500
AUX_BASIS_CORR rimp2-def2-QZVPPD
SCF_CONVERGENCE 7
SCF_ALGORITHM  GDM
method DSD-PBEPBE-D3
GEN_SCFMAN TRUE
UNRESTRICTED True
THRESH  14
SYMMETRY FALSE
SYM_IGNORE TRUE
max_scf_cycles 200

XC_GRID 000099000590
BASIS DEF2-QZVPPD


$end










