$molecule
0 2
H       -1.984986   -0.393905    0.785355 
O       -1.723405   -0.206133   -0.127315 
O       -0.571140    0.522839    0.029960 
C        0.876636   -0.462518    0.007809 
O        1.885191    0.079420   -0.006670 
$end


$rem
N_FROZEN_CORE FC
MEM_TOTAL 3750
MEM_STATIC 1500
AUX_BASIS_CORR rimp2-def2-QZVPPD
SCF_CONVERGENCE 7
SCF_ALGORITHM  GDM
method DSD-PBEPBE-D3
GEN_SCFMAN TRUE
UNRESTRICTED True
THRESH  14
SYMMETRY FALSE
SYM_IGNORE TRUE
max_scf_cycles 200

XC_GRID 000099000590
BASIS DEF2-QZVPPD


$end










