$molecule
0 2
H       -2.003542    0.010881    0.762731 
O       -1.619557   -0.247151   -0.086610 
O       -0.394006    0.516959   -0.035976 
C        0.644153   -0.339046    0.014011 
O        1.780891   -0.016883    0.016737 
$end


$rem
N_FROZEN_CORE FC
MEM_TOTAL 3750
MEM_STATIC 1500
AUX_BASIS_CORR rimp2-def2-QZVPPD
SCF_CONVERGENCE 7
SCF_ALGORITHM  GDM
method DSD-PBEPBE-D3
GEN_SCFMAN TRUE
UNRESTRICTED True
THRESH  14
SYMMETRY FALSE
SYM_IGNORE TRUE
max_scf_cycles 200

XC_GRID 000099000590
BASIS DEF2-QZVPPD


$end










