$molecule
0 2
C        0.852024    0.531697    0.050423 
O        0.569026   -0.904444   -0.097356 
C       -0.599301    0.796318    0.042384 
O       -0.962694   -0.488461    0.065224 
H       -1.186363    1.532263   -0.493342 
H        1.399527    0.699509    0.982427 
H        1.419840    0.943380   -0.788867 
$end


$rem
N_FROZEN_CORE FC
MEM_TOTAL 3750
MEM_STATIC 1500
AUX_BASIS_CORR rimp2-def2-QZVPPD
SCF_CONVERGENCE 7
SCF_ALGORITHM  GDM
method DSD-PBEPBE-D3
GEN_SCFMAN TRUE
UNRESTRICTED True
THRESH  14
SYMMETRY FALSE
SYM_IGNORE TRUE
max_scf_cycles 200

XC_GRID 000099000590
BASIS DEF2-QZVPPD


$end










