$molecule
0 2
C       -1.047726    0.559412    0.009807 
C        0.449313   -0.141224    0.403634 
H       -1.028302    1.278551   -0.800907 
H       -1.665783    0.754220    0.882083 
H        0.442662   -0.389961    1.466643 
O       -0.710273   -0.733571   -0.277405 
O        1.440511    0.214578   -0.226153 
$end


$rem
N_FROZEN_CORE FC
MEM_TOTAL 3750
MEM_STATIC 1500
AUX_BASIS_CORR rimp2-def2-QZVPPD
SCF_CONVERGENCE 7
SCF_ALGORITHM  GDM
method DSD-PBEPBE-D3
GEN_SCFMAN TRUE
UNRESTRICTED True
THRESH  14
SYMMETRY FALSE
SYM_IGNORE TRUE
max_scf_cycles 200

XC_GRID 000099000590
BASIS DEF2-QZVPPD


$end










