$molecule
0 1
Sn       0.000000    0.000000    0.000000 
F        1.081183    1.081183    1.081183 
F       -1.081183   -1.081183    1.081183 
F        1.081183   -1.081183   -1.081183 
F       -1.081183    1.081183   -1.081183 
$end


$rem
N_FROZEN_CORE FC
MEM_TOTAL 3750
MEM_STATIC 1500
AUX_BASIS_CORR rimp2-def2-QZVPPD
SCF_CONVERGENCE 7
SCF_ALGORITHM  GDM
method DSD-PBEPBE-D3
GEN_SCFMAN TRUE
UNRESTRICTED True
THRESH  14
SYMMETRY FALSE
SYM_IGNORE TRUE
max_scf_cycles 200

XC_GRID 000250000974
BASIS GENERAL
ECP GEN


$end







$basis
F 0
def2-QZVPPD
****
In     0
S   1   1.00
      1.760480D+01           1.000000D+00
S   1   1.00
      7.507700D+00           1.000000D+00
S   1   1.00
      2.849600D+00           1.000000D+00
S   1   1.00
      1.081600D+00           1.000000D+00
S   14   1.00
   8931.8400000              0.0000190
   1352.2200000              0.0001310
    303.3930000              0.0004780
     45.1229000              0.0117080
     28.1822000             -0.0873300
     17.6048000              0.2595770
      6.9405800             -0.6284710
      4.3337700             -0.1587180
      1.9868400              0.6744040
      1.0430600              0.6065590
      0.5292520              0.1253120
      0.2190990              0.0020400
      0.0980430              0.0002230
      0.0431440             -0.0000260
S   1   1.00
      0.5292520              1.0000000
S   1   1.00
      0.2190990              1.0000000
S   1   1.00
      0.0980430              1.0000000
S   1   1.00
      0.0431440              1.0000000
S   1   1.00
      0.0162000              1.0000000
P   1   1.00
      8.285360D+00           1.000000D+00
P   1   1.00
      3.249600D+00           1.000000D+00
P   1   1.00
      1.592000D+00           1.000000D+00
P   11   1.00
    129.2330000              0.0002790
     29.6284000             -0.0061710
     18.5211000              0.0469120
      8.2853600             -0.2399040
      2.4993900              0.4298110
      1.3221600              0.4861010
      0.6887070              0.2220370
      0.3340160              0.0311680
      0.1425610              0.0012360
      0.0614610              0.0003410
      0.0264010             -0.0000180
P   1   1.00
      7.799000D-01           1.000000D+00
P   1   1.00
      0.3340160              1.0000000
P   1   1.00
      0.1425610              1.0000000
P   1   1.00
      0.0614610              1.0000000
P   1   1.00
      0.0264010              1.0000000
P   1   1.00
      0.0090000              1.0000000
D   1   1.00
      3.978900D+00           1.000000D+00
D   1   1.00
      1.774800D+00           1.000000D+00
D   12   1.00
    295.4920000              0.0000410
     89.4368000              0.0003470
     31.9940000              0.0022300
     12.3422000             -0.0147000
      5.5903300              0.0257070
      3.4772900              0.1634450
      2.0284500              0.2873660
      1.1472200              0.3176730
      0.6305350              0.2485850
      0.3346090              0.1266140
      0.1684080              0.0324150
      0.0692000              0.0019040
D   1   1.00
      7.916000D-01           1.000000D+00
D   1   1.00
      0.3346090              1.0000000
D   1   1.00
      0.1684080              1.0000000
D   1   1.00
      0.0692000              1.0000000
D   1   1.00
      0.0244000              1.0000000
F   1   1.00
      8.080400D+00           1.000000D+00
F   1   1.00
      2.835300D+00           1.000000D+00
F   1   1.00
      9.948000D-01           1.000000D+00
F   1   1.00
      0.3921000              1.0000000
F   1   1.00
      0.1560000              1.0000000
F   1   1.00
      0.0581000              1.0000000
G   1   1.00
      3.434200D+00           1.000000D+00
G   1   1.00
      1.013600D+00           1.000000D+00
G   1   1.00
      0.3419000              1.0000000
G   1   1.00
      0.1419000              1.0000000
H   1   1.00
      1.039300D+00           1.000000D+00
****
Sn     0
S   1   1.00
      1.966850D+01           1.000000D+00
S   1   1.00
      7.882900D+00           1.000000D+00
S   1   1.00
      3.099900D+00           1.000000D+00
S   1   1.00
      1.219000D+00           1.000000D+00
S   14   1.00
  11606.9000000              0.0000290
   1754.8000000              0.0002060
    397.1780000              0.0008070
     90.2990000              0.0024710
     31.4890000             -0.0400250
     19.6685000              0.1631520
      7.0675900             -0.5569830
      4.4149000             -0.1699320
      2.1635600              0.6510280
      1.1428000              0.6316850
      0.5795400              0.1305790
      0.2607870              0.0012750
      0.1188950              0.0007000
      0.0531420             -0.0000840
S   1   1.00
      0.5795400              1.0000000
S   1   1.00
      0.2607870              1.0000000
S   1   1.00
      0.1188950              1.0000000
S   1   1.00
      0.0531420              1.0000000
S   1   1.00
      0.0218000              1.0000000
P   1   1.00
      6.905670D+00           1.000000D+00
P   1   1.00
      3.675500D+00           1.000000D+00
P   1   1.00
      1.835400D+00           1.000000D+00
P   11   1.00
    195.4950000              0.0002580
     18.2563000              0.0443410
     11.4094000             -0.1091420
      6.9056700             -0.1386060
      2.9820600              0.3437430
      1.6084300              0.5182710
      0.8317670              0.2787060
      0.3937310              0.0408180
      0.1818010              0.0006310
      0.0818500              0.0007480
      0.0359930             -0.0000860
P   1   1.00
      9.166000D-01           1.000000D+00
P   1   1.00
      0.3937310              1.0000000
P   1   1.00
      0.1818010              1.0000000
P   1   1.00
      0.0818500              1.0000000
P   1   1.00
      0.0359930              1.0000000
P   1   1.00
      0.0145000              1.0000000
D   1   1.00
      4.520000D+00           1.000000D+00
D   1   1.00
      2.041300D+00           1.000000D+00
D   12   1.00
    308.5020000              0.0000530
     93.6846000              0.0004410
     34.2925000              0.0025780
     13.7172000             -0.0126510
      6.4494700              0.0267690
      3.8827200              0.1591330
      2.2913500              0.2867000
      1.3112700              0.3230030
      0.7302100              0.2475480
      0.3944110              0.1182630
      0.2031800              0.0286880
      0.0866000              0.0019830
D   1   1.00
      9.218000D-01           1.000000D+00
D   1   1.00
      0.3944110              1.0000000
D   1   1.00
      0.2031800              1.0000000
D   1   1.00
      0.0866000              1.0000000
D   1   1.00
      0.0336000              1.0000000
F   1   1.00
      8.749200D+00           1.000000D+00
F   1   1.00
      3.094300D+00           1.000000D+00
F   1   1.00
      1.094300D+00           1.000000D+00
F   1   1.00
      0.4315000              1.0000000
F   1   1.00
      0.1772000              1.0000000
F   1   1.00
      0.0730000              1.0000000
G   1   1.00
      3.767400D+00           1.000000D+00
G   1   1.00
      1.110500D+00           1.000000D+00
G   1   1.00
      0.3774000              1.0000000
G   1   1.00
      0.1720000              1.0000000
H   1   1.00
      1.160400D+00           1.000000D+00
****
Sb     0
S   1   1.00
      1.786480D+01           1.000000D+00
S   1   1.00
      7.916700D+00           1.000000D+00
S   1   1.00
      3.296300D+00           1.000000D+00
S   1   1.00
      1.372500D+00           1.000000D+00
S   14   1.00
  12338.8000000              0.0000380
   1854.7000000              0.0002780
    418.4430000              0.0010970
     99.3430000              0.0028230
     28.5958000             -0.0606100
     17.8648000              0.2803340
      8.4571400             -0.5477250
      5.2841200             -0.3029640
      2.3201200              0.6807890
      1.2105100              0.6523790
      0.5704940              0.1056020
      0.3039500             -0.0059220
      0.1393180              0.0021700
      0.0631980             -0.0003240
S   1   1.00
      0.5704940              1.0000000
S   1   1.00
      0.3039500              1.0000000
S   1   1.00
      0.1393180              1.0000000
S   1   1.00
      0.0631980              1.0000000
S   1   1.00
      0.0260000              1.0000000
P   1   1.00
      9.322560D+00           1.000000D+00
P   1   1.00
      4.287500D+00           1.000000D+00
P   1   1.00
      2.329400D+00           1.000000D+00
P   11   1.00
    162.8930000              0.0003750
     30.3996000             -0.0047980
     19.0004000              0.0547310
      9.3225600             -0.2552840
      3.0166800              0.3453770
      1.8621900              0.4048330
      1.1033100              0.3259220
      0.5872790              0.0901160
      0.2512180              0.0050380
      0.1118480              0.0001080
      0.0485120             -0.0000130
P   1   1.00
      1.265600D+00           1.000000D+00
P   1   1.00
      0.5872790              1.0000000
P   1   1.00
      0.2512180              1.0000000
P   1   1.00
      0.1118480              1.0000000
P   1   1.00
      0.0485120              1.0000000
P   1   1.00
      0.0189000              1.0000000
D   1   1.00
      4.854700D+00           1.000000D+00
D   1   1.00
      2.219700D+00           1.000000D+00
D   12   1.00
    316.7670000              0.0000660
     95.5893000              0.0005560
     35.1117000              0.0030840
     12.7381000             -0.0166890
      7.9547500              0.0189370
      4.4214700              0.1483900
      2.6028200              0.2920600
      1.4822400              0.3384820
      0.8218580              0.2514990
      0.4420520              0.1100510
      0.2273480              0.0233360
      0.1008000              0.0016680
D   1   1.00
      1.015000D+00           1.000000D+00
D   1   1.00
      0.4420520              1.0000000
D   1   1.00
      0.2273480              1.0000000
D   1   1.00
      0.1008000              1.0000000
D   1   1.00
      0.0400000              1.0000000
F   1   1.00
      9.750100D+00           1.000000D+00
F   1   1.00
      3.453500D+00           1.000000D+00
F   1   1.00
      1.223200D+00           1.000000D+00
F   1   1.00
      0.4849000              1.0000000
F   1   1.00
      0.2049000              1.0000000
F   1   1.00
      0.0830000              1.0000000
G   1   1.00
      4.055400D+00           1.000000D+00
G   1   1.00
      1.224900D+00           1.000000D+00
G   1   1.00
      0.4234000              1.0000000
G   1   1.00
      0.1840000              1.0000000
H   1   1.00
      1.287000D+00           1.000000D+00
****
Te     0
S   1   1.00
      8.063600D+00           1.000000D+00
S   1   1.00
      3.556600D+00           1.000000D+00
S   1   1.00
      1.568700D+00           1.000000D+00
S   14   1.00
  15746.3000000              0.0000540
   2369.2500000              0.0003980
    535.8600000              0.0016620
    141.8850000              0.0036360
     27.8197000             -0.0584270
     17.3879000              0.3665200
     10.8656000             -0.3975890
      6.5688500             -0.5191750
      2.4013900              0.6876520
      1.2805500              0.6369910
      0.5900670              0.0981690
      0.3524580             -0.0103560
      0.1618080              0.0026210
      0.0731870             -0.0003090
S   1   1.00
      0.5900670              1.0000000
S   1   1.00
      0.3524580              1.0000000
S   1   1.00
      0.1618080              1.0000000
S   14   1.00
  15746.3000000              0.0000250
   2369.2500000              0.0001860
    535.8600000              0.0007850
    141.8850000              0.0016870
     27.8197000             -0.0231880
     17.3879000              0.1576380
     10.8656000             -0.1992000
      6.5688500             -0.1972300
      2.4013900              0.3695570
      1.2805500              0.5045090
      0.5900670              0.1301460
      0.3524580             -0.5582850
      0.1618080             -0.6340000
      0.0731870             -0.1658250
S   1   1.00
      0.0731870              1.0000000
S   1   1.00
      0.0296000              1.0000000
P   1   1.00
      1.057550D+01           1.000000D+00
P   1   1.00
      4.604600D+00           1.000000D+00
P   1   1.00
      2.657400D+00           1.000000D+00
P   11   1.00
    750.2220000              0.0000520
    163.9610000              0.0004100
     16.9227000              0.0833870
     10.5755000             -0.2682120
      5.7046200             -0.0229320
      2.9802200              0.4955480
      1.5197000              0.5145220
      0.7560490              0.1542180
      0.3279680              0.0088670
      0.1405850              0.0007610
      0.0580960              0.0000920
P   1   1.00
      1.533600D+00           1.000000D+00
P   1   1.00
      0.7560490              1.0000000
P   1   1.00
      0.3279680              1.0000000
P   1   1.00
      0.1405850              1.0000000
P   1   1.00
      0.0580960              1.0000000
P   1   1.00
      0.0226000              1.0000000
D   1   1.00
      5.201600D+00           1.000000D+00
D   1   1.00
      2.281400D+00           1.000000D+00
D   12   1.00
    325.8080000              0.0000820
     98.4206000              0.0006950
     36.4648000              0.0036810
     12.6406000             -0.0179040
      7.8939800              0.0335260
      4.3658100              0.1871400
      2.5251400              0.3230120
      1.4321000              0.3336830
      0.7941060              0.2130980
      0.4286680              0.0737470
      0.2355650              0.0126780
      0.1156000              0.0016330
D   1   1.00
      1.000600D+00           1.000000D+00
D   1   1.00
      0.4286680              1.0000000
D   1   1.00
      0.2355650              1.0000000
D   1   1.00
      0.1156000              1.0000000
D   1   1.00
      0.0531000              1.0000000
F   1   1.00
      1.041090D+01           1.000000D+00
F   1   1.00
      3.709400D+00           1.000000D+00
F   1   1.00
      1.321600D+00           1.000000D+00
F   1   1.00
      0.5184000              1.0000000
F   1   1.00
      0.2135000              1.0000000
F   1   1.00
      0.0931000              1.0000000
G   1   1.00
      4.333000D+00           1.000000D+00
G   1   1.00
      1.309000D+00           1.000000D+00
G   1   1.00
      0.4294000              1.0000000
G   1   1.00
      0.2029000              1.0000000
H   1   1.00
      1.441100D+00           1.000000D+00
****
I     0
S   1   1.00
      8.028600D+00           1.000000D+00
S   1   1.00
      3.742300D+00           1.000000D+00
S   1   1.00
      1.744400D+00           1.000000D+00
S   14   1.00
      1.690000D+04           4.000000D-05
      2.541390D+03           2.940000D-04
      5.744130D+02           1.214000D-03
      1.509450D+02           2.596000D-03
      2.916310D+01          -5.362300D-02
      1.821960D+01           3.439170D-01
      1.133650D+01          -3.674270D-01
      6.924080D+00          -5.389040D-01
      2.509810D+00           7.095670D-01
      1.351130D+00           6.280610D-01
      6.163790D-01           9.184200D-02
      3.834550D-01          -1.224300D-02
      1.800560D-01           2.875000D-03
      8.232700D-02          -2.890000D-04
S   1   1.00
      6.163790D-01           1.000000D+00
S   1   1.00
      3.834550D-01           1.000000D+00
S   1   1.00
      1.800560D-01           1.000000D+00
S   14   1.00
      1.690000D+04           1.900000D-05
      2.541390D+03           1.420000D-04
      5.744130D+02           5.920000D-04
      1.509450D+02           1.243000D-03
      2.916310D+01          -2.272100D-02
      1.821960D+01           1.577080D-01
      1.133650D+01          -2.000920D-01
      6.924080D+00          -2.161520D-01
      2.509810D+00           4.134390D-01
      1.351130D+00           5.345850D-01
      6.163790D-01           9.235200D-02
      3.834550D-01          -5.884630D-01
      1.800560D-01          -6.192810D-01
      8.232700D-02          -1.513990D-01
S   1   1.00
      8.232700D-02           1.000000D+00
S   1   1.00
      3.310000D-02           1.0000000
P   1   1.00
      1.044660D+01           1.000000D+00
P   1   1.00
      4.880300D+00           1.000000D+00
P   1   1.00
      2.837600D+00           1.000000D+00
P   11   1.00
      6.491590D+02           9.500000D-05
      1.480870D+02           6.290000D-04
      2.010180D+01           4.532400D-02
      1.044660D+01          -2.302310D-01
      6.358830D+00          -4.960000D-03
      3.048460D+00           5.139270D-01
      1.559500D+00           5.060930D-01
      7.689110D-01           1.316590D-01
      3.548140D-01           6.125000D-03
      1.547660D-01           1.746000D-03
      6.469900D-02           9.200000D-05
P   1   1.00
      1.650000D+00           1.000000D+00
P   1   1.00
      7.689110D-01           1.000000D+00
P   1   1.00
      3.548140D-01           1.000000D+00
P   1   1.00
      1.547660D-01           1.000000D+00
P   1   1.00
      6.469900D-02           1.000000D+00
P   1   1.00
      2.570000D-02           1.0000000
D   1   1.00
      5.418100D+00           1.000000D+00
D   1   1.00
      2.757000D+00           1.000000D+00
D   12   1.00
      5.854450D+02           2.500000D-05
      1.774680D+02           2.310000D-04
      6.921930D+01           1.173000D-03
      2.863920D+01           5.584000D-03
      1.271530D+01          -2.383000D-02
      5.479270D+00           1.168140D-01
      3.354930D+00           2.727310D-01
      1.984230D+00           3.401740D-01
      1.152540D+00           2.686990D-01
      6.510170D-01           1.298090D-01
      3.474450D-01           3.304400D-02
      1.547000D-01           3.067000D-03
D   1   1.00
      1.402900D+00           1.000000D+00
D   1   1.00
      6.510170D-01           1.000000D+00
D   1   1.00
      3.474450D-01           1.000000D+00
D   1   1.00
      1.547000D-01           1.000000D+00
D   1   1.00
      6.400000D-02           1.0000000
F   1   1.00
      1.144800D+01           1.000000D+00
F   1   1.00
      4.101900D+00           1.000000D+00
F   1   1.00
      1.469700D+00           1.000000D+00
F   1   1.00
      5.865000D-01           1.000000D+00
F   1   1.00
      2.494000D-01           1.000000D+00
F   1   1.00
      1.270000D-01           1.0000000
G   1   1.00
      4.624600D+00           1.000000D+00
G   1   1.00
      1.431300D+00           1.000000D+00
G   1   1.00
      4.730000D-01           1.000000D+00
G   1   1.00
      2.338000D-01           1.0000000
H   1   1.00
      1.586600D+00           1.000000D+00
****
Xe     0
S   1   1.00
      9.749700D+00           1.000000D+00
S   1   1.00
      4.299500D+00           1.000000D+00
S   1   1.00
      1.896100D+00           1.000000D+00
S   14   1.00
  18774.3000000              0.0000680
   2824.8100000              0.0005010
    640.0880000              0.0020970
    172.6160000              0.0044930
     29.5169000             -0.0471510
     18.4448000              0.3740330
     11.5238000             -0.5128260
      6.6189000             -0.4786240
      2.9955200              0.5964710
      1.6493700              0.7153980
      0.8606790              0.1551100
      0.4422460              0.0027430
      0.2081820              0.0014200
      0.0948280              0.0000040
S   1   1.00
      0.8606790              1.0000000
S   1   1.00
      0.4422460              1.0000000
S   1   1.00
      0.2081820              1.0000000
S   14   1.00
  18774.3000000              0.0000360
   2824.8100000              0.0002620
    640.0880000              0.0011090
    172.6160000              0.0023480
     29.5169000             -0.0187980
     18.4448000              0.1713890
     11.5238000             -0.2682230
      6.6189000             -0.1960550
      2.9955200              0.3356460
      1.6493700              0.5968280
      0.8606790              0.1670220
      0.4422460             -0.5752330
      0.2081820             -0.6420550
      0.0948280             -0.1574680
S   1   1.00
      0.0948280              1.0000000
S   1   1.00
      0.0368000              1.0000000
P   1   1.00
      1.103310D+01           1.000000D+00
P   1   1.00
      5.084800D+00           1.000000D+00
P   1   1.00
      2.998200D+00           1.000000D+00
P   11   1.00
    613.3310000              0.0001380
    141.7100000              0.0008530
     20.3106000              0.0550240
     11.0331000             -0.2529880
      6.8951300              0.0097460
      3.2416600              0.5267970
      1.6653500              0.5018320
      0.8197860              0.1215880
      0.3873040              0.0041840
      0.1715660              0.0012140
      0.0726410             -0.0001880
P   1   1.00
      1.767800D+00           1.000000D+00
P   1   1.00
      0.8197860              1.0000000
P   1   1.00
      0.3873040              1.0000000
P   1   1.00
      0.1715660              1.0000000
P   1   1.00
      0.0726410              1.0000000
P   1   1.00
      0.0288000              1.0000000
D   1   1.00
      3.572600D+00           1.000000D+00
D   1   1.00
      2.236200D+00           1.000000D+00
D   12   1.00
    627.6840000              0.0000320
    190.6130000              0.0002980
     74.3150000              0.0015410
     31.4406000              0.0064870
     14.5656000             -0.0148640
      6.1354600              0.1259400
      3.6167000              0.2988020
      2.0846500              0.3522620
      1.1951800              0.2484710
      0.6818480              0.1037500
      0.3807270              0.0267520
      0.1676000              0.0027610
D   1   1.00
      1.399700D+00           1.000000D+00
D   1   1.00
      0.6818480              1.0000000
D   1   1.00
      0.3807270              1.0000000
D   1   1.00
      0.1676000              1.0000000
D   1   1.00
      0.0639000              1.0000000
F   1   1.00
      1.265250D+01           1.000000D+00
F   1   1.00
      4.553100D+00           1.000000D+00
F   1   1.00
      1.638400D+00           1.000000D+00
F   1   1.00
      0.6619000              1.0000000
F   1   1.00
      0.2979000              1.0000000
F   1   1.00
      0.1591000              1.0000000
G   1   1.00
      5.079600D+00           1.000000D+00
G   1   1.00
      1.586700D+00           1.000000D+00
G   1   1.00
      0.5278000              1.0000000
G   1   1.00
      0.2659000              1.0000000
H   1   1.00
      1.760300D+00           1.000000D+00
****
$end

$ecp
IN     0
IN-ECP     4     28
g potential
  1
2      1.0000000              0.0000000
s-g potential
  2
2     15.3928220            281.1223500
2      8.0558640             61.9014700
p-g potential
  4
2     13.9286720             67.4621540
2     13.3472340            134.9492500
2      7.6141320             14.7461400
2      7.3183650             29.6392620
d-g potential
  4
2     14.0347150             35.4932540
2     14.5116160             53.1787730
2      5.5505500              9.1772810
2      5.0594150             12.3924100
f-g potential
  2
2     12.5390560            -13.7280780
2     12.5525610            -18.2068660
****
SN     0
SN-ECP     4     28
g potential
  1
2      1.0000000              0.0000000
s-g potential
  2
2     17.4204140            279.9886820
2      7.6311550             62.3778100
p-g potential
  4
2     16.1310240             66.1625230
2     15.6280770            132.1743960
2      7.3256080             16.3394170
2      6.9425190             32.4889590
d-g potential
  4
2     15.5149760             36.3874410
2     15.1881600             54.5078410
2      5.4560240              8.6968230
2      5.3631050             12.8402080
f-g potential
  2
2     12.2823480            -12.5763330
2     12.2721500            -16.5959440
****
SB     0
SB-ECP     4     28
g potential
  1
2      1.0000000              0.0000000
s-g potential
  2
2     16.3308650            281.0715810
2      8.5565420             61.7166040
p-g potential
  4
2     14.4703370             67.4573800
2     13.8161940            134.9335030
2      8.4249240             14.7163440
2      8.0927280             29.5185120
d-g potential
  4
2     14.8863310             35.4478150
2     15.1463190             53.1434660
2      5.9082670              9.1792230
2      5.5943220             13.2402530
f-g potential
  2
2     14.4449780            -15.3668010
2     14.4492950            -20.2961380
****
TE     0
TE-ECP     4     28
g potential
  1
2      1.0000000              0.0000000
s-g potential
  2
2     16.8144730            281.0458430
2      8.7935260             61.6206560
p-g potential
  4
2     14.8778010             67.4494640
2     14.2697310            134.9043040
2      8.7244350             14.6895470
2      8.2915150             29.4150630
d-g potential
  4
2     15.2050080             35.4320570
2     15.2258480             53.1356870
2      6.0717690              9.0698020
2      5.8047600             13.1223040
f-g potential
  2
2     15.2061680            -15.7454500
2     15.2017020            -20.7424480
****
I     0
I-ECP     4     28
g potential
  1
2      1.00000000             0.00000000
s-g potential
  3
2     40.03337600            49.98964900
2     17.30057600           281.00655600
2      8.85172000            61.41673900
p-g potential
  4
2     15.72014100            67.41623900
2     15.20822200           134.80769600
2      8.29418600            14.56654800
2      7.75394900            28.96842200
d-g potential
  4
2     13.81775100            35.53875600
2     13.58780500            53.33975900
2      6.94763000             9.71646600
2      6.96009900            14.97750000
f-g potential
  4
2     18.52295000           -20.17661800
2     18.25103500           -26.08807700
2      7.55790100            -0.22043400
2      7.59740400            -0.22164600
****
XE     0
XE-ECP     4     28
g potential
  1
2      1.0000000              0.0000000
s-g potential
  3
2     40.0051840             49.9979620
2     17.8122140            281.0133030
2      9.3041500             61.5382550
p-g potential
  4
2     15.7017720             67.4391420
2     15.2586080            134.8747110
2      9.2921840             14.6633000
2      8.5590030             29.3547300
d-g potential
  6
2     15.1856000             35.4369080
2     14.2845000             53.1957720
2      7.1218890              9.0462320
2      6.9919630             13.2236810
2      0.6239460              0.0848530
2      0.6472840              0.0441550
f-g potential
  4
2     20.8815570            -23.0892950
2     20.7834430            -30.0744750
2      5.2533890             -0.2882270
2      5.3611880             -0.3869240
****
$end
