$molecule
1 1
O  0.0  0.0  0.196663948318
H  -0.472067673098  0.817645194416  -0.0655546494394
H  -0.472067673098  -0.817645194416  -0.0655546494394
H  0.944135346195  0.0  -0.0655546494394
$end


$rem
N_FROZEN_CORE FC
MEM_TOTAL 3750
MEM_STATIC 1500
AUX_BASIS_CORR rimp2-def2-QZVPPD
SCF_CONVERGENCE 7
SCF_ALGORITHM  GDM
method DSD-PBEPBE-D3
GEN_SCFMAN TRUE
UNRESTRICTED True
THRESH  14
SYMMETRY FALSE
SYM_IGNORE TRUE
max_scf_cycles 200

XC_GRID 000099000590
BASIS DEF2-QZVPPD


$end










