$molecule
0 1
C     0.2801641    0.2363799    0.4721175 
H     0.7322594    0.4313174    1.4529444 
C     1.1862123   -0.8044421   -0.1870296 
O     2.0175999   -0.2970596   -1.0662146 
H     1.7891604    0.6651618   -1.1179362 
O     1.1742371   -1.9793194    0.0795559 
N     0.3513133    1.4590235   -0.3023605 
H    -0.3899933    1.4955662   -0.9949159 
H     0.2708290    2.2802078    0.2813820 
C    -1.1204881   -0.3106043    0.7260714 
H    -1.0910377   -1.2105235    1.3385829 
H    -1.7002518    0.4341965    1.2725335 
S    -2.0592556   -0.6341794   -0.7983633 
H    -1.4407491   -1.7657248   -1.1563674 
$end


$rem
N_FROZEN_CORE FC
MEM_TOTAL 7500
MEM_STATIC 3000
AUX_BASIS_CORR rimp2-def2-QZVPPD
SCF_CONVERGENCE 7
SCF_ALGORITHM  GDM
method DSD-PBEPBE-D3
GEN_SCFMAN TRUE
UNRESTRICTED True
THRESH  14
SYMMETRY FALSE
SYM_IGNORE TRUE
max_scf_cycles 200

XC_GRID 000099000590
BASIS DEF2-QZVPPD


$end










