$molecule
1 1
C     0.0623612   -1.2645488    0.0000000 
C     1.3009983   -0.5630411    0.0000000 
C     1.2896020    0.7829269    0.0000000 
C     0.0422653    1.5553591    0.0000000 
C    -1.1936433    0.7657106    0.0000000 
C    -1.1858447   -0.5813714    0.0000000 
O     0.1354984   -2.5515201    0.0000000 
H     2.2247691   -1.1276125    0.0000000 
H     2.2233162    1.3320326    0.0000000 
H     0.0361221    2.2474933   -0.8557127 
H    -2.1357382    1.3003304    0.0000000 
H    -2.1083822   -1.1506266    0.0000000 
H    -0.7274465   -2.9926258    0.0000000 
H     0.0361221    2.2474933    0.8557127 
$end


$rem
N_FROZEN_CORE FC
MEM_TOTAL 7500
MEM_STATIC 3000
AUX_BASIS_CORR rimp2-def2-QZVPPD
SCF_CONVERGENCE 7
SCF_ALGORITHM  GDM
method DSD-PBEPBE-D3
GEN_SCFMAN TRUE
UNRESTRICTED True
THRESH  14
SYMMETRY FALSE
SYM_IGNORE TRUE
max_scf_cycles 200

XC_GRID 000099000590
BASIS DEF2-QZVPPD


$end










