$molecule
1 1
SI  0.547683227303  0.0968872896678  0.0
H  -1.20013549226  -0.621431230738  0.0
H  0.355376134126  1.55187701732  0.0
H  0.816514885694  -0.585989575146  1.26831244214
H  0.816514885694  -0.585989575146  -1.26831244214
H  -1.33595364056  0.144646074041  0.0
$end


$rem
N_FROZEN_CORE FC
MEM_TOTAL 3750
MEM_STATIC 1500
AUX_BASIS_CORR rimp2-def2-QZVPPD
SCF_CONVERGENCE 7
SCF_ALGORITHM  GDM
method DSD-PBEPBE-D3
GEN_SCFMAN TRUE
UNRESTRICTED True
THRESH  14
SYMMETRY FALSE
SYM_IGNORE TRUE
max_scf_cycles 200

XC_GRID 000099000590
BASIS DEF2-QZVPPD


$end










