$molecule
1 1
C  0.0  -0.688533018935  -0.154092994486
C  0.0  0.688533018935  -0.154092994486
H  -0.933839191585  -1.24463407783  -0.165839988961
H  0.933839191585  -1.24463407783  -0.165839988961
H  0.0  0.0  0.971545944813
H  -0.933839191585  1.24463407783  -0.165839988961
H  0.933839191585  1.24463407783  -0.165839988961
$end


$rem
N_FROZEN_CORE FC
MEM_TOTAL 3750
MEM_STATIC 1500
AUX_BASIS_CORR rimp2-def2-QZVPPD
SCF_CONVERGENCE 7
SCF_ALGORITHM  GDM
method DSD-PBEPBE-D3
GEN_SCFMAN TRUE
UNRESTRICTED True
THRESH  14
SYMMETRY FALSE
SYM_IGNORE TRUE
max_scf_cycles 200

XC_GRID 000099000590
BASIS DEF2-QZVPPD


$end










