$molecule
1 1
C  0.7885872011  -0.454885351244  0.0
C  2.02761608923  0.117095638287  0.0
C  -0.346931209252  0.359551451028  0.0
C  -1.71928648514  -0.110505248648  0.0
H  0.67695584851  -1.53353322645  0.0
H  2.15580920044  1.19528683988  0.0
H  2.92981234902  -0.485394525407  0.0
H  -0.191388438495  1.43806006121  0.0
H  -1.82763035664  -1.19218597628  0.0
H  -2.24677209938  0.333255168809  0.860414085154
H  -2.24677209938  0.333255168809  -0.860414085154
$end


$rem
N_FROZEN_CORE FC
MEM_TOTAL 3750
MEM_STATIC 1500
AUX_BASIS_CORR rimp2-def2-QZVPPD
SCF_CONVERGENCE 7
SCF_ALGORITHM  GDM
method DSD-PBEPBE-D3
GEN_SCFMAN TRUE
UNRESTRICTED True
THRESH  14
SYMMETRY FALSE
SYM_IGNORE TRUE
max_scf_cycles 200

XC_GRID 000099000590
BASIS DEF2-QZVPPD


$end










