$molecule
1 1
C    -0.8816070   -0.6161277    0.0000000 
C     0.5853281   -0.3054333    0.0000000 
O     0.8438437    1.1631082    0.0000000 
H    -0.9886350   -1.7015647    0.0000000 
H    -1.3819050   -0.2335470    0.8896936 
H    -1.3819050   -0.2335470   -0.8896936 
H     1.1032189   -0.6567368   -0.8878757 
H     1.1032189   -0.6567368    0.8878757 
H     0.4992213    1.6202926   -0.7887614 
H     0.4992213    1.6202926    0.7887614 
$end


$rem
N_FROZEN_CORE FC
MEM_TOTAL 3750
MEM_STATIC 1500
AUX_BASIS_CORR rimp2-def2-QZVPPD
SCF_CONVERGENCE 7
SCF_ALGORITHM  GDM
method DSD-PBEPBE-D3
GEN_SCFMAN TRUE
UNRESTRICTED True
THRESH  14
SYMMETRY FALSE
SYM_IGNORE TRUE
max_scf_cycles 200

XC_GRID 000099000590
BASIS DEF2-QZVPPD


$end










