$molecule
1 1
S  0.0  0.0  0.538829997256
H  -0.578240637834  1.00154216373  -0.179609999085
H  -0.578240637834  -1.00154216373  -0.179609999085
H  1.15648127567  0.0  -0.179609999085
$end


$rem
N_FROZEN_CORE FC
MEM_TOTAL 3750
MEM_STATIC 1500
AUX_BASIS_CORR rimp2-def2-QZVPPD
SCF_CONVERGENCE 7
SCF_ALGORITHM  GDM
method DSD-PBEPBE-D3
GEN_SCFMAN TRUE
UNRESTRICTED True
THRESH  14
SYMMETRY FALSE
SYM_IGNORE TRUE
max_scf_cycles 200

XC_GRID 000099000590
BASIS DEF2-QZVPPD


$end










