$molecule
0 1
C  0.610020181916  -0.395915529428  0.0
C  1.8427593552  0.118267325688  0.0
C  -0.610020181916  0.395915529428  0.0
C  -1.8427593552  -0.118267325688  0.0
H  0.483392044114  -1.4760937783  0.0
H  2.01035254239  1.19008966836  0.0
H  2.72180778741  -0.513631150823  0.0
H  -0.483392044114  1.4760937783  0.0
H  -2.01035254239  -1.19008966836  0.0
H  -2.72180778741  0.513631150823  0.0
$end


$rem
N_FROZEN_CORE FC
MEM_TOTAL 3750
MEM_STATIC 1500
AUX_BASIS_CORR rimp2-def2-QZVPPD
SCF_CONVERGENCE 7
SCF_ALGORITHM  GDM
method DSD-PBEPBE-D3
GEN_SCFMAN TRUE
UNRESTRICTED True
THRESH  14
SYMMETRY FALSE
SYM_IGNORE TRUE
max_scf_cycles 200

XC_GRID 000099000590
BASIS DEF2-QZVPPD


$end










