$molecule
0 1
C  1.86470336669  -0.41189462914  0.0
C  3.06693330747  0.175969662601  0.0
C  0.603932725317  0.298144951042  0.0
C  -0.603932725317  -0.298144951042  0.0
C  -1.86470336669  0.41189462914  0.0
C  -3.06693330747  -0.175969662601  0.0
H  1.80745925087  -1.49799501636  0.0
H  3.17080313725  1.25570681477  0.0
H  3.98132546464  -0.403257812947  0.0
H  0.654941976883  1.38514818953  0.0
H  -0.654941976883  -1.38514818953  0.0
H  -1.80745925087  1.49799501636  0.0
H  -3.17080313725  -1.25570681477  0.0
H  -3.98132546464  0.403257812947  0.0
$end


$rem
N_FROZEN_CORE FC
MEM_TOTAL 3750
MEM_STATIC 1500
AUX_BASIS_CORR rimp2-def2-QZVPPD
SCF_CONVERGENCE 7
SCF_ALGORITHM  GDM
method DSD-PBEPBE-D3
GEN_SCFMAN TRUE
UNRESTRICTED True
THRESH  14
SYMMETRY FALSE
SYM_IGNORE TRUE
max_scf_cycles 200

XC_GRID 000099000590
BASIS DEF2-QZVPPD


$end










