$molecule
1 1
S     0.3082691   -1.1248975    0.0000000 
C     0.2332779    0.4820209    0.0000000 
H    -0.7041702    1.0234675    0.0000000 
H     1.1670468    1.0314181    0.0000000 
H    -1.0044235   -1.4120089    0.0000000 
$end


$rem
N_FROZEN_CORE FC
MEM_TOTAL 3750
MEM_STATIC 1500
AUX_BASIS_CORR rimp2-def2-QZVPPD
SCF_CONVERGENCE 7
SCF_ALGORITHM  GDM
method DSD-PBEPBE-D3
GEN_SCFMAN TRUE
UNRESTRICTED True
THRESH  14
SYMMETRY FALSE
SYM_IGNORE TRUE
max_scf_cycles 200

XC_GRID 000099000590
BASIS DEF2-QZVPPD


$end










