$molecule
1 1
C    -0.0128660    0.4107604   -0.5124283 
C    -0.0766720    0.2079127    1.0709953 
F     1.0274506    0.9503666   -0.9990323 
F     0.1763494   -1.1654798   -1.0124318 
F    -1.0835367    0.7332989   -1.1115148 
F     1.0243820   -0.3792713    1.4625775 
F    -0.1785004    1.4104565    1.5805788 
F    -1.1266138   -0.5175797    1.3555371 
H     0.2500069   -1.6504644   -1.8342815 
$end


$rem
N_FROZEN_CORE FC
MEM_TOTAL 3750
MEM_STATIC 1500
AUX_BASIS_CORR rimp2-def2-QZVPPD
SCF_CONVERGENCE 7
SCF_ALGORITHM  GDM
method DSD-PBEPBE-D3
GEN_SCFMAN TRUE
UNRESTRICTED True
THRESH  14
SYMMETRY FALSE
SYM_IGNORE TRUE
max_scf_cycles 200

XC_GRID 000099000590
BASIS DEF2-QZVPPD


$end










