$molecule
0 1
P     0.0000000    0.0000000   -1.3950074 
C    -1.2957966    0.0000000   -0.2807735 
C    -0.7069001    0.0000000    0.9755261 
C     0.7069001    0.0000000    0.9755261 
C     1.2957966    0.0000000   -0.2807735 
H     0.0000000    0.0000000   -2.7766410 
H    -2.3529057    0.0000000   -0.4955947 
H    -1.2917838    0.0000000    1.8866663 
H     1.2917838    0.0000000    1.8866663 
H     2.3529057    0.0000000   -0.4955947 
$end


$rem
N_FROZEN_CORE FC
MEM_TOTAL 3750
MEM_STATIC 1500
AUX_BASIS_CORR rimp2-def2-QZVPPD
SCF_CONVERGENCE 7
SCF_ALGORITHM  GDM
method DSD-PBEPBE-D3
GEN_SCFMAN TRUE
UNRESTRICTED True
THRESH  14
SYMMETRY FALSE
SYM_IGNORE TRUE
max_scf_cycles 200

XC_GRID 000099000590
BASIS DEF2-QZVPPD


$end










