$molecule
1 1
N    -2.1495290   -0.3973176    0.0000000 
C    -2.6009393    0.8564210    0.0000000 
N    -1.5800015    1.6808618    0.0000000 
C    -0.4198591    0.9439853    0.0000000 
C     0.9548617    1.3158744    0.0000000 
O     1.4284312    2.4325886    0.0000000 
N     1.7502172    0.1731247    0.0000000 
C     1.3039583   -1.1207602    0.0000000 
N     2.2194708   -2.0802945    0.0000000 
N     0.0248926   -1.4386944    0.0000000 
C    -0.7798952   -0.3816016    0.0000000 
H    -2.7384989   -1.2211441    0.0000000 
H     3.2085764   -1.8946105    0.0000000 
H     1.9230259   -3.0423765    0.0000000 
H    -3.6396024    1.1435384    0.0000000 
H     2.7505653    0.3395049    0.0000000 
H    -1.6556740    2.6909003    0.0000000 
$end


$rem
N_FROZEN_CORE FC
MEM_TOTAL 15000
MEM_STATIC 6000
AUX_BASIS_CORR rimp2-def2-QZVPPD
SCF_CONVERGENCE 7
SCF_ALGORITHM  GDM
method DSD-PBEPBE-D3
GEN_SCFMAN TRUE
UNRESTRICTED True
THRESH  14
SYMMETRY FALSE
SYM_IGNORE TRUE
max_scf_cycles 200

XC_GRID 000099000590
BASIS DEF2-QZVPPD


$end










