$molecule
1 1
Si   -0.0057029    1.5911610   -0.0004416 
Si    0.0057029   -1.5911610   -0.0004416 
H     1.4272938    1.8456341   -0.0575775 
H    -0.6735230    1.8434090    1.2683683 
H    -0.7720257    1.8326085   -1.2146930 
H     0.6735230   -1.8434090    1.2683683 
H     0.7720257   -1.8326085   -1.2146930 
H    -1.4272938   -1.8456341   -0.0575775 
H     0.0000000    0.0000000    0.0086873 
$end


$rem
N_FROZEN_CORE FC
MEM_TOTAL 3750
MEM_STATIC 1500
AUX_BASIS_CORR rimp2-def2-QZVPPD
SCF_CONVERGENCE 7
SCF_ALGORITHM  GDM
method DSD-PBEPBE-D3
GEN_SCFMAN TRUE
UNRESTRICTED True
THRESH  14
SYMMETRY FALSE
SYM_IGNORE TRUE
max_scf_cycles 200

XC_GRID 000099000590
BASIS DEF2-QZVPPD


$end










