$molecule
0 1
N    -1.9479424    0.5576837    0.0000000 
N    -0.0437327    2.0008051    0.0000000 
N     1.2174508   -1.3263456    0.0000000 
N     2.0359129    0.7413580    0.0000000 
N    -1.8135416   -1.7438646    0.0000000 
C     2.2946845   -0.5951697    0.0000000 
C     0.6837705    0.8827785    0.0000000 
C    -1.2068603   -0.5560829    0.0000000 
C    -1.3390816    1.7415675    0.0000000 
C     0.1931202   -0.4148842    0.0000000 
H     2.7224589    1.4815189    0.0000000 
H    -2.8179825   -1.8016155    0.0000000 
H    -1.2861324   -2.5999089    0.0000000 
H    -1.9994427    2.6039496    0.0000000 
H     3.3073183   -0.9717899    0.0000000 
$end


$rem
N_FROZEN_CORE FC
MEM_TOTAL 7500
MEM_STATIC 3000
AUX_BASIS_CORR rimp2-def2-QZVPPD
SCF_CONVERGENCE 7
SCF_ALGORITHM  GDM
method DSD-PBEPBE-D3
GEN_SCFMAN TRUE
UNRESTRICTED True
THRESH  14
SYMMETRY FALSE
SYM_IGNORE TRUE
max_scf_cycles 200

XC_GRID 000099000590
BASIS DEF2-QZVPPD


$end










