$molecule
0 1
C    -0.8831710   -0.3953046    0.0224696 
C     0.3686256    0.4103031   -0.1944490 
O     0.4575694    1.3809461   -0.8928870 
O     1.4060740   -0.0807237    0.4942098 
H    -1.1388570   -0.3790546    1.0808175 
H    -0.7005835   -1.4280351   -0.2699744 
H    -1.6972882    0.0218323   -0.5643095 
H     2.1876306    0.4700365    0.3241231 
$end


$rem
N_FROZEN_CORE FC
MEM_TOTAL 3750
MEM_STATIC 1500
AUX_BASIS_CORR rimp2-def2-QZVPPD
SCF_CONVERGENCE 7
SCF_ALGORITHM  GDM
method DSD-PBEPBE-D3
GEN_SCFMAN TRUE
UNRESTRICTED True
THRESH  14
SYMMETRY FALSE
SYM_IGNORE TRUE
max_scf_cycles 200

XC_GRID 000099000590
BASIS DEF2-QZVPPD


$end










