$molecule
0 1
N     0.5060215   -1.5986551    0.0000000 
H     1.1089148   -1.5302068    0.8098394 
C    -0.4642536   -0.5375838    0.0000000 
C     0.0957484    0.8699514    0.0000000 
H    -1.1208023   -0.6367037   -0.8704357 
H    -1.1208023   -0.6367037    0.8704357 
O     1.2661433    1.1493143    0.0000000 
O    -0.8719532    1.7772569    0.0000000 
H    -0.5079315    2.6735373    0.0000000 
H     1.1089148   -1.5302068   -0.8098394 
$end


$rem
N_FROZEN_CORE FC
MEM_TOTAL 3750
MEM_STATIC 1500
AUX_BASIS_CORR rimp2-def2-QZVPPD
SCF_CONVERGENCE 7
SCF_ALGORITHM  GDM
method DSD-PBEPBE-D3
GEN_SCFMAN TRUE
UNRESTRICTED True
THRESH  14
SYMMETRY FALSE
SYM_IGNORE TRUE
max_scf_cycles 200

XC_GRID 000099000590
BASIS DEF2-QZVPPD


$end










