$molecule
1 1
C    -0.2517733    0.2756868    0.0000000 
C     1.0767715    0.1814210    0.0000000 
Cl   -1.2654227    1.5993125    0.0000000 
Cl   -1.0984449   -1.3671875    0.0000000 
Cl    2.0185676    1.5760476    0.0000000 
Cl    1.8533052   -1.3282785    0.0000000 
H    -2.3330034   -0.9370019    0.0000000 
$end


$rem
N_FROZEN_CORE FC
MEM_TOTAL 3750
MEM_STATIC 1500
AUX_BASIS_CORR rimp2-def2-QZVPPD
SCF_CONVERGENCE 7
SCF_ALGORITHM  GDM
method DSD-PBEPBE-D3
GEN_SCFMAN TRUE
UNRESTRICTED True
THRESH  14
SYMMETRY FALSE
SYM_IGNORE TRUE
max_scf_cycles 200

XC_GRID 000099000590
BASIS DEF2-QZVPPD


$end










