$molecule
1 1
C    -0.2968880   -0.7162993   -0.3283118 
H     0.3166179   -1.4795679   -0.8093544 
F    -0.2934503   -1.0497191    1.0972460 
F    -1.5431000   -0.7252533   -0.7136418 
C     0.2968880    0.7162993   -0.3283118 
H    -0.3166179    1.4795679   -0.8093544 
F     0.2934503    1.0497191    1.0972460 
F     1.5431000    0.7252533   -0.7136418 
H     0.0000000    0.0000000    1.5081239 
$end


$rem
N_FROZEN_CORE FC
MEM_TOTAL 3750
MEM_STATIC 1500
AUX_BASIS_CORR rimp2-def2-QZVPPD
SCF_CONVERGENCE 7
SCF_ALGORITHM  GDM
method DSD-PBEPBE-D3
GEN_SCFMAN TRUE
UNRESTRICTED True
THRESH  14
SYMMETRY FALSE
SYM_IGNORE TRUE
max_scf_cycles 200

XC_GRID 000099000590
BASIS DEF2-QZVPPD


$end










