$molecule
1 1
S    -2.3450678    0.4518547    0.0000000 
O    -1.6099144   -0.3171140   -1.2913204 
S    -0.3568496    0.3860458   -2.0634769 
O     0.9790813   -0.3547088   -1.2807195 
S     1.5736225    0.3968778    0.0000000 
O     0.9790813   -0.3547088    1.2807195 
S    -0.3568496    0.3860458    2.0634769 
O    -1.6099144   -0.3171140    1.2913204 
H     2.7468106   -0.2771785    0.0000000 
$end


$rem
N_FROZEN_CORE FC
MEM_TOTAL 3750
MEM_STATIC 1500
AUX_BASIS_CORR rimp2-def2-QZVPPD
SCF_CONVERGENCE 7
SCF_ALGORITHM  GDM
method DSD-PBEPBE-D3
GEN_SCFMAN TRUE
UNRESTRICTED True
THRESH  14
SYMMETRY FALSE
SYM_IGNORE TRUE
max_scf_cycles 200

XC_GRID 000099000590
BASIS DEF2-QZVPPD


$end










