$molecule
1 1
C     0.0000000    0.0000000   -1.9113947 
C     1.2214572    0.0000000   -1.1893726 
C     1.2193799    0.0000000    0.1696302 
C     0.0000000    0.0000000    0.8937233 
C    -1.2193799    0.0000000    0.1696302 
C    -1.2214572    0.0000000   -1.1893726 
N     0.0000000    0.0000000   -3.2397138 
H     0.8565304    0.0000000   -3.7683901 
H    -0.8565304    0.0000000   -3.7683901 
H     2.1622549    0.0000000   -1.7263730 
H     2.1685059    0.0000000    0.6899102 
C     0.0000000    0.0000000    2.2904331 
H    -2.1685059    0.0000000    0.6899102 
H    -2.1622549    0.0000000   -1.7263730 
O    -1.1367639    0.0000000    2.9216367 
O     1.1367639    0.0000000    2.9216367 
H    -1.1049796    0.0000000    3.8864347 
H     1.1049796    0.0000000    3.8864347 
$end


$rem
N_FROZEN_CORE FC
MEM_TOTAL 15000
MEM_STATIC 6000
AUX_BASIS_CORR rimp2-def2-QZVPPD
SCF_CONVERGENCE 7
SCF_ALGORITHM  GDM
method DSD-PBEPBE-D3
GEN_SCFMAN TRUE
UNRESTRICTED True
THRESH  14
SYMMETRY FALSE
SYM_IGNORE TRUE
max_scf_cycles 200

XC_GRID 000099000590
BASIS DEF2-QZVPPD


$end










