$molecule
1 1
N    -1.7242534    0.5426557    0.0000000 
N     0.1331907    1.9831976    0.0000000 
N     1.3664360   -1.3587371    0.0000000 
N     2.1966386    0.7056792    0.0000000 
N    -1.6128572   -1.7994093    0.0000000 
C     2.4482280   -0.6412658    0.0000000 
C     0.8569887    0.8540845    0.0000000 
C    -1.0224393   -0.6202637    0.0000000 
C    -1.1356043    1.7825821    0.0000000 
C     0.3641860   -0.4430550    0.0000000 
H     2.8801235    1.4507628    0.0000000 
H    -2.6113970   -1.9311738    0.0000000 
H    -1.0359678   -2.6288386    0.0000000 
H    -1.8219882    2.6201994    0.0000000 
H     3.4551511   -1.0324273    0.0000000 
H    -2.7364356    0.5160094    0.0000000 
$end


$rem
N_FROZEN_CORE FC
MEM_TOTAL 15000
MEM_STATIC 6000
AUX_BASIS_CORR rimp2-def2-QZVPPD
SCF_CONVERGENCE 7
SCF_ALGORITHM  GDM
method DSD-PBEPBE-D3
GEN_SCFMAN TRUE
UNRESTRICTED True
THRESH  14
SYMMETRY FALSE
SYM_IGNORE TRUE
max_scf_cycles 200

XC_GRID 000099000590
BASIS DEF2-QZVPPD


$end










