$molecule
1 1
C     0.6667106    0.0000000    0.3702088 
C    -0.6667106    0.0000000    0.3702088 
Cl    1.6541389    0.0000000    1.7151679 
Cl    1.4734245    0.0000000   -1.2029026 
Cl   -1.6541389    0.0000000    1.7151679 
Cl   -1.4734245    0.0000000   -1.2029026 
H     0.0000000    0.0000000   -1.7649483 
$end


$rem
N_FROZEN_CORE FC
MEM_TOTAL 3750
MEM_STATIC 1500
AUX_BASIS_CORR rimp2-def2-QZVPPD
SCF_CONVERGENCE 7
SCF_ALGORITHM  GDM
method DSD-PBEPBE-D3
GEN_SCFMAN TRUE
UNRESTRICTED True
THRESH  14
SYMMETRY FALSE
SYM_IGNORE TRUE
max_scf_cycles 200

XC_GRID 000099000590
BASIS DEF2-QZVPPD


$end










