$molecule
1 1
C     0.1420326   -0.0897922   -1.0440759 
H     0.1850146    0.9477928   -1.3878573 
F     1.1657615   -0.8062957   -1.5365024 
F    -1.0148390   -0.6636034   -1.3477715 
C     0.3824688   -0.2552379    0.4528209 
H     0.1722700   -1.2015672    0.9573516 
F     1.2956425    0.4566122    0.9665240 
F    -1.1573215    0.5862531    1.0449593 
H    -1.1710295    1.0258382    1.8945512 
$end


$rem
N_FROZEN_CORE FC
MEM_TOTAL 3750
MEM_STATIC 1500
AUX_BASIS_CORR rimp2-def2-QZVPPD
SCF_CONVERGENCE 7
SCF_ALGORITHM  GDM
method DSD-PBEPBE-D3
GEN_SCFMAN TRUE
UNRESTRICTED True
THRESH  14
SYMMETRY FALSE
SYM_IGNORE TRUE
max_scf_cycles 200

XC_GRID 000099000590
BASIS DEF2-QZVPPD


$end










