$molecule
0 1 
N     0.7939788   -1.5251896    0.0000000 
F    -0.0140210   -2.6757912    0.0000000 
H     1.3875296   -1.6632915    0.8147108 
H     1.3875296   -1.6632915   -0.8147108 
$end


$rem
N_FROZEN_CORE FC
MEM_TOTAL 3750
MEM_STATIC 1500
AUX_BASIS_CORR rimp2-def2-QZVPPD
SCF_CONVERGENCE 7
SCF_ALGORITHM  GDM
method DSD-PBEPBE-D3
GEN_SCFMAN TRUE
UNRESTRICTED True
THRESH  14
SYMMETRY FALSE
SYM_IGNORE TRUE
max_scf_cycles 200

XC_GRID 000099000590
BASIS DEF2-QZVPPD


$end










