$molecule
0 1 
P 0.000000 1.046315 0.000000
P -0.233372 -2.146790 0.000000
F 0.370350 2.631529 0.000000
H 0.554010 -3.323495 0.000000
H 0.896532 0.647206 1.028172
H -1.089819 -2.573778 1.041690
H 0.896532 0.647206 -1.028172
H -1.089819 -2.573778 -1.041690
$end


$rem
N_FROZEN_CORE FC
MEM_TOTAL 3750
MEM_STATIC 1500
AUX_BASIS_CORR rimp2-def2-QZVPPD
SCF_CONVERGENCE 7
SCF_ALGORITHM  GDM
method DSD-PBEPBE-D3
GEN_SCFMAN TRUE
UNRESTRICTED True
THRESH  14
SYMMETRY FALSE
SYM_IGNORE TRUE
max_scf_cycles 200

XC_GRID 000099000590
BASIS DEF2-QZVPPD


$end










