$molecule
0 1 
N 2.962583 -0.202885 0.000000
H 3.324416 0.277473 0.813414
H 3.324416 0.277473 -0.813414
H 3.358772 -1.133640 0.000000
P 0.000000 0.259570 0.000000
H 0.247605 -0.660083 -1.041782
H 0.247605 -0.660083 1.041782
C -1.784996 -0.008789 0.000000
N -2.932988 -0.074536 0.000000
$end


$rem
N_FROZEN_CORE FC
MEM_TOTAL 3750
MEM_STATIC 1500
AUX_BASIS_CORR rimp2-def2-QZVPPD
SCF_CONVERGENCE 7
SCF_ALGORITHM  GDM
method DSD-PBEPBE-D3
GEN_SCFMAN TRUE
UNRESTRICTED True
THRESH  14
SYMMETRY FALSE
SYM_IGNORE TRUE
max_scf_cycles 200

XC_GRID 000099000590
BASIS DEF2-QZVPPD


$end










