$molecule
0 1 
N    -0.6688908   -2.1530704    0.0000000 
H    -1.5478446   -1.6513405    0.0000000 
H    -0.6651608   -2.7538722   -0.8134068 
H    -0.6651608   -2.7538722    0.8134068 
$end


$rem
N_FROZEN_CORE FC
MEM_TOTAL 3750
MEM_STATIC 1500
AUX_BASIS_CORR rimp2-def2-QZVPPD
SCF_CONVERGENCE 7
SCF_ALGORITHM  GDM
method DSD-PBEPBE-D3
GEN_SCFMAN TRUE
UNRESTRICTED True
THRESH  14
SYMMETRY FALSE
SYM_IGNORE TRUE
max_scf_cycles 200

XC_GRID 000099000590
BASIS DEF2-QZVPPD


$end










