$molecule
0 1 
P 0.110874 1.775085 0.000000
H 1.068952 1.760698 1.040784
H 1.068952 1.760698 -1.040784
C -0.110874 3.550593 0.000000
N -0.355873 4.673225 0.000000
P -0.110874 -1.775085 0.000000
H -1.068952 -1.760698 1.040784
H -1.068952 -1.760698 -1.040784
C 0.110874 -3.550593 0.000000
N 0.355873 -4.673225 0.000000
$end


$rem
N_FROZEN_CORE FC
MEM_TOTAL 3750
MEM_STATIC 1500
AUX_BASIS_CORR rimp2-def2-QZVPPD
SCF_CONVERGENCE 7
SCF_ALGORITHM  GDM
method DSD-PBEPBE-D3
GEN_SCFMAN TRUE
UNRESTRICTED True
THRESH  14
SYMMETRY FALSE
SYM_IGNORE TRUE
max_scf_cycles 200

XC_GRID 000099000590
BASIS DEF2-QZVPPD


$end










