$molecule
0 1 
P -0.017200 1.940565 0.000000
H 0.803910 1.567187 1.081384
H 0.803910 1.567187 -1.081384
B 0.017200 3.805403 0.000000
H -0.048814 4.392872 1.033706
H -0.048814 4.392872 -1.033706
P 0.017200 -1.940565 0.000000
H -0.803910 -1.567187 1.081384
H -0.803910 -1.567187 -1.081384
B -0.017200 -3.805403 0.000000
H 0.048814 -4.392872 1.033706
H 0.048814 -4.392872 -1.033706
$end


$rem
N_FROZEN_CORE FC
MEM_TOTAL 3750
MEM_STATIC 1500
AUX_BASIS_CORR rimp2-def2-QZVPPD
SCF_CONVERGENCE 7
SCF_ALGORITHM  GDM
method DSD-PBEPBE-D3
GEN_SCFMAN TRUE
UNRESTRICTED True
THRESH  14
SYMMETRY FALSE
SYM_IGNORE TRUE
max_scf_cycles 200

XC_GRID 000099000590
BASIS DEF2-QZVPPD


$end










