$molecule
0 1 
P     0.0000000    1.8457105    0.0000000 
H    -0.0361210    3.2635341    0.0000000 
H    -0.9589297    1.7214075    1.0352627 
H    -0.9589297    1.7214075   -1.0352627 
$end


$rem
N_FROZEN_CORE FC
MEM_TOTAL 3750
MEM_STATIC 1500
AUX_BASIS_CORR rimp2-def2-QZVPPD
SCF_CONVERGENCE 7
SCF_ALGORITHM  GDM
method DSD-PBEPBE-D3
GEN_SCFMAN TRUE
UNRESTRICTED True
THRESH  14
SYMMETRY FALSE
SYM_IGNORE TRUE
max_scf_cycles 200

XC_GRID 000099000590
BASIS DEF2-QZVPPD


$end










