$molecule
0 1 
P 0.354522 -1.221043 0.000000
P -0.354522 1.221043 0.000000
F 0.354522 -2.846969 0.000000
F -0.354522 2.846969 0.000000
H 1.280139 -1.020796 1.050923
H -1.280139 1.020796 1.050923
H 1.280139 -1.020796 -1.050923
H -1.280139 1.020796 -1.050923
$end


$rem
N_FROZEN_CORE FC
MEM_TOTAL 3750
MEM_STATIC 1500
AUX_BASIS_CORR rimp2-def2-QZVPPD
SCF_CONVERGENCE 7
SCF_ALGORITHM  GDM
method DSD-PBEPBE-D3
GEN_SCFMAN TRUE
UNRESTRICTED True
THRESH  14
SYMMETRY FALSE
SYM_IGNORE TRUE
max_scf_cycles 200

XC_GRID 000099000590
BASIS DEF2-QZVPPD


$end










