$molecule
0 1 
N     2.9625822   -0.2028849    0.0000000 
H     3.3244151    0.2774729    0.8134138 
H     3.3244151    0.2774729   -0.8134138 
H     3.3587711   -1.1336397    0.0000000 
$end


$rem
N_FROZEN_CORE FC
MEM_TOTAL 3750
MEM_STATIC 1500
AUX_BASIS_CORR rimp2-def2-QZVPPD
SCF_CONVERGENCE 7
SCF_ALGORITHM  GDM
method DSD-PBEPBE-D3
GEN_SCFMAN TRUE
UNRESTRICTED True
THRESH  14
SYMMETRY FALSE
SYM_IGNORE TRUE
max_scf_cycles 200

XC_GRID 000099000590
BASIS DEF2-QZVPPD


$end










