$molecule
0 1 
P     0.0691000    1.7546715    0.0000000 
H     1.0250537    1.6471505    1.0390297 
H     1.0250537    1.6471505   -1.0390297 
C    -0.0691000    3.5237640    0.0000000 
C    -0.2855349    4.7044717    0.0000000 
H    -0.4632309    5.7524234    0.0000000 
$end


$rem
N_FROZEN_CORE FC
MEM_TOTAL 3750
MEM_STATIC 1500
AUX_BASIS_CORR rimp2-def2-QZVPPD
SCF_CONVERGENCE 7
SCF_ALGORITHM  GDM
method DSD-PBEPBE-D3
GEN_SCFMAN TRUE
UNRESTRICTED True
THRESH  14
SYMMETRY FALSE
SYM_IGNORE TRUE
max_scf_cycles 200

XC_GRID 000099000590
BASIS DEF2-QZVPPD


$end










