$molecule
0 1 
N 0.000000 1.322577 0.000000
P 0.029829 -1.919883 0.000000
F -0.006578 2.737428 0.000000
H 0.309774 -3.308635 0.000000
H 0.580573 1.107075 0.807904
H -0.929576 -2.001083 1.037458
H 0.580573 1.107075 -0.807904
H -0.929576 -2.001083 -1.037458
$end


$rem
N_FROZEN_CORE FC
MEM_TOTAL 3750
MEM_STATIC 1500
AUX_BASIS_CORR rimp2-def2-QZVPPD
SCF_CONVERGENCE 7
SCF_ALGORITHM  GDM
method DSD-PBEPBE-D3
GEN_SCFMAN TRUE
UNRESTRICTED True
THRESH  14
SYMMETRY FALSE
SYM_IGNORE TRUE
max_scf_cycles 200

XC_GRID 000099000590
BASIS DEF2-QZVPPD


$end










