$molecule
0 1 
P     0.0993640    1.5147676    0.0000000 
H     1.0636157    1.4120976    1.0344567 
H     1.0636157    1.4120976   -1.0344567 
O    -0.0993640    3.1671101    0.0000000 
H    -1.0311267    3.3832930    0.0000000 
$end


$rem
N_FROZEN_CORE FC
MEM_TOTAL 3750
MEM_STATIC 1500
AUX_BASIS_CORR rimp2-def2-QZVPPD
SCF_CONVERGENCE 7
SCF_ALGORITHM  GDM
method DSD-PBEPBE-D3
GEN_SCFMAN TRUE
UNRESTRICTED True
THRESH  14
SYMMETRY FALSE
SYM_IGNORE TRUE
max_scf_cycles 200

XC_GRID 000099000590
BASIS DEF2-QZVPPD


$end










