$molecule
0 1 
N 0.873758 -2.118284 0.000000
P 0.000000 0.418134 0.000000
H 0.209450 -2.880727 0.000000
F -0.864586 1.813387 0.000000
H 1.463126 -2.221816 0.815071
H -0.735368 -0.220068 1.031927
H 1.463126 -2.221816 -0.815071
H -0.735368 -0.220068 -1.031927
$end


$rem
N_FROZEN_CORE FC
MEM_TOTAL 3750
MEM_STATIC 1500
AUX_BASIS_CORR rimp2-def2-QZVPPD
SCF_CONVERGENCE 7
SCF_ALGORITHM  GDM
method DSD-PBEPBE-D3
GEN_SCFMAN TRUE
UNRESTRICTED True
THRESH  14
SYMMETRY FALSE
SYM_IGNORE TRUE
max_scf_cycles 200

XC_GRID 000099000590
BASIS DEF2-QZVPPD


$end










