$molecule
0 1 
P    -0.0172000    1.9405645    0.0000000 
H     0.8039098    1.5671866    1.0813837 
H     0.8039098    1.5671866   -1.0813837 
B     0.0172000    3.8054019    0.0000000 
H    -0.0488140    4.3928708    1.0337057 
H    -0.0488140    4.3928708   -1.0337057 
$end


$rem
N_FROZEN_CORE FC
MEM_TOTAL 3750
MEM_STATIC 1500
AUX_BASIS_CORR rimp2-def2-QZVPPD
SCF_CONVERGENCE 7
SCF_ALGORITHM  GDM
method DSD-PBEPBE-D3
GEN_SCFMAN TRUE
UNRESTRICTED True
THRESH  14
SYMMETRY FALSE
SYM_IGNORE TRUE
max_scf_cycles 200

XC_GRID 000099000590
BASIS DEF2-QZVPPD


$end










