$molecule
0 1 
P 0.067728 1.682160 -0.083681
H 0.302005 1.468273 -1.472269
H 1.431498 1.514275 0.260008
N -0.040556 3.383870 0.046680
H -0.976113 3.733213 0.162428
H 0.497415 3.966068 -0.573192
P -0.067728 -1.682160 0.083681
H -1.431498 -1.514275 -0.260008
H -0.302005 -1.468273 1.472269
N 0.040556 -3.383870 -0.046680
H 0.976113 -3.733213 -0.162428
H -0.497415 -3.966068 0.573192
$end


$rem
N_FROZEN_CORE FC
MEM_TOTAL 3750
MEM_STATIC 1500
AUX_BASIS_CORR rimp2-def2-QZVPPD
SCF_CONVERGENCE 7
SCF_ALGORITHM  GDM
method DSD-PBEPBE-D3
GEN_SCFMAN TRUE
UNRESTRICTED True
THRESH  14
SYMMETRY FALSE
SYM_IGNORE TRUE
max_scf_cycles 200

XC_GRID 000099000590
BASIS DEF2-QZVPPD


$end










