$molecule
0 1 
N 0.000000 0.691283 0.000000
N -0.668891 -2.153071 0.000000
F 0.756395 1.890287 0.000000
H -1.547845 -1.651341 0.000000
H 0.376422 0.189509 0.800592
H -0.665161 -2.753873 -0.813407
H 0.376422 0.189509 -0.800592
H -0.665161 -2.753873 0.813407
$end


$rem
N_FROZEN_CORE FC
MEM_TOTAL 3750
MEM_STATIC 1500
AUX_BASIS_CORR rimp2-def2-QZVPPD
SCF_CONVERGENCE 7
SCF_ALGORITHM  GDM
method DSD-PBEPBE-D3
GEN_SCFMAN TRUE
UNRESTRICTED True
THRESH  14
SYMMETRY FALSE
SYM_IGNORE TRUE
max_scf_cycles 200

XC_GRID 000099000590
BASIS DEF2-QZVPPD


$end










