$molecule
0 1 
P 0.069100 1.754672 0.000000
H 1.025054 1.647151 1.039030
H 1.025054 1.647151 -1.039030
C -0.069100 3.523765 0.000000
C -0.285535 4.704473 0.000000
H -0.463231 5.752425 0.000000
P -0.069100 -1.754672 0.000000
H -1.025054 -1.647151 1.039030
H -1.025054 -1.647151 -1.039030
C 0.069100 -3.523765 0.000000
C 0.285535 -4.704473 0.000000
H 0.463231 -5.752425 0.000000
$end


$rem
N_FROZEN_CORE FC
MEM_TOTAL 3750
MEM_STATIC 1500
AUX_BASIS_CORR rimp2-def2-QZVPPD
SCF_CONVERGENCE 7
SCF_ALGORITHM  GDM
method DSD-PBEPBE-D3
GEN_SCFMAN TRUE
UNRESTRICTED True
THRESH  14
SYMMETRY FALSE
SYM_IGNORE TRUE
max_scf_cycles 200

XC_GRID 000099000590
BASIS DEF2-QZVPPD


$end










