$molecule
0 1 
P    -0.2333719   -2.1467894    0.0000000 
H     0.5540098   -3.3234941    0.0000000 
H    -1.0898187   -2.5737773    1.0416897 
H    -1.0898187   -2.5737773   -1.0416897 
$end


$rem
N_FROZEN_CORE FC
MEM_TOTAL 3750
MEM_STATIC 1500
AUX_BASIS_CORR rimp2-def2-QZVPPD
SCF_CONVERGENCE 7
SCF_ALGORITHM  GDM
method DSD-PBEPBE-D3
GEN_SCFMAN TRUE
UNRESTRICTED True
THRESH  14
SYMMETRY FALSE
SYM_IGNORE TRUE
max_scf_cycles 200

XC_GRID 000099000590
BASIS DEF2-QZVPPD


$end










