$molecule
0 1 
N 0.793979 -1.525190 0.000000
P 0.000000 1.006189 0.000000
F -0.014021 -2.675792 0.000000
F -0.739593 2.461924 0.000000
H 1.387530 -1.663292 0.814711
H -0.775191 0.417444 1.031710
H 1.387530 -1.663292 -0.814711
H -0.775191 0.417444 -1.031710
$end


$rem
N_FROZEN_CORE FC
MEM_TOTAL 3750
MEM_STATIC 1500
AUX_BASIS_CORR rimp2-def2-QZVPPD
SCF_CONVERGENCE 7
SCF_ALGORITHM  GDM
method DSD-PBEPBE-D3
GEN_SCFMAN TRUE
UNRESTRICTED True
THRESH  14
SYMMETRY FALSE
SYM_IGNORE TRUE
max_scf_cycles 200

XC_GRID 000099000590
BASIS DEF2-QZVPPD


$end










