$molecule
0 1 
P    -0.1492620   -1.5345736   -0.2582339 
H    -1.0077147   -1.3285336   -1.3719476 
F     0.1492620   -3.1126901   -0.5141779 
C    -1.4627886   -1.6916215    1.0105127 
H    -1.0163147   -1.9752084    1.9620694 
H    -1.9440265   -0.7211388    1.1259697 
H    -2.2054984   -2.4324213    0.7219378 
$end


$rem
N_FROZEN_CORE FC
MEM_TOTAL 3750
MEM_STATIC 1500
AUX_BASIS_CORR rimp2-def2-QZVPPD
SCF_CONVERGENCE 7
SCF_ALGORITHM  GDM
method DSD-PBEPBE-D3
GEN_SCFMAN TRUE
UNRESTRICTED True
THRESH  14
SYMMETRY FALSE
SYM_IGNORE TRUE
max_scf_cycles 200

XC_GRID 000099000590
BASIS DEF2-QZVPPD


$end










