$molecule
0 1 
P     0.0000000    1.0061887    0.0000000 
F    -0.7395928    2.4619233    0.0000000 
H    -0.7751908    0.4174439    1.0317097 
H    -0.7751908    0.4174439   -1.0317097 
$end


$rem
N_FROZEN_CORE FC
MEM_TOTAL 3750
MEM_STATIC 1500
AUX_BASIS_CORR rimp2-def2-QZVPPD
SCF_CONVERGENCE 7
SCF_ALGORITHM  GDM
method DSD-PBEPBE-D3
GEN_SCFMAN TRUE
UNRESTRICTED True
THRESH  14
SYMMETRY FALSE
SYM_IGNORE TRUE
max_scf_cycles 200

XC_GRID 000099000590
BASIS DEF2-QZVPPD


$end










