$molecule
0 1 
N     0.0549810   -2.1255994    0.0000000 
H    -0.4862269   -2.9797602    0.0000000 
H     0.6555228   -2.1464824    0.8134308 
H     0.6555228   -2.1464824   -0.8134308 
$end


$rem
N_FROZEN_CORE FC
MEM_TOTAL 3750
MEM_STATIC 1500
AUX_BASIS_CORR rimp2-def2-QZVPPD
SCF_CONVERGENCE 7
SCF_ALGORITHM  GDM
method DSD-PBEPBE-D3
GEN_SCFMAN TRUE
UNRESTRICTED True
THRESH  14
SYMMETRY FALSE
SYM_IGNORE TRUE
max_scf_cycles 200

XC_GRID 000099000590
BASIS DEF2-QZVPPD


$end










