$molecule
0 1 
P 0.149262 1.534574 -0.258234
H 1.007715 1.328534 -1.371948
F -0.149262 3.112691 -0.514178
C 1.462789 1.691622 1.010513
P -0.149262 -1.534574 -0.258234
H -1.007715 -1.328534 -1.371948
F 0.149262 -3.112691 -0.514178
C -1.462789 -1.691622 1.010513
H 1.016315 1.975209 1.962070
H 1.944027 0.721139 1.125970
H 2.205499 2.432422 0.721938
H -1.016315 -1.975209 1.962070
H -1.944027 -0.721139 1.125970
H -2.205499 -2.432422 0.721938
$end


$rem
N_FROZEN_CORE FC
MEM_TOTAL 7500
MEM_STATIC 3000
AUX_BASIS_CORR rimp2-def2-QZVPPD
SCF_CONVERGENCE 7
SCF_ALGORITHM  GDM
method DSD-PBEPBE-D3
GEN_SCFMAN TRUE
UNRESTRICTED True
THRESH  14
SYMMETRY FALSE
SYM_IGNORE TRUE
max_scf_cycles 200

XC_GRID 000099000590
BASIS DEF2-QZVPPD


$end










