$molecule
0 1 
P 0.131244 1.839958 -0.000008
F 1.171061 1.803348 1.188638
F 1.171132 1.803321 -1.188591
F -0.131244 3.396533 -0.000034
P -0.131244 -1.839958 -0.000008
F -1.171061 -1.803348 1.188638
F -1.171132 -1.803321 -1.188591
F 0.131244 -3.396533 -0.000034
$end


$rem
N_FROZEN_CORE FC
MEM_TOTAL 3750
MEM_STATIC 1500
AUX_BASIS_CORR rimp2-def2-QZVPPD
SCF_CONVERGENCE 7
SCF_ALGORITHM  GDM
method DSD-PBEPBE-D3
GEN_SCFMAN TRUE
UNRESTRICTED True
THRESH  14
SYMMETRY FALSE
SYM_IGNORE TRUE
max_scf_cycles 200

XC_GRID 000099000590
BASIS DEF2-QZVPPD


$end










