$molecule
0 1 
P    -0.0001040   -1.6135895    0.0000000 
H    -0.9622507   -1.6372055    1.0372587 
H    -0.9622507   -1.6372055   -1.0372587 
N     0.3441799   -3.2915191    0.0000000 
C     0.7394648   -4.3926668    0.0000000 
$end


$rem
N_FROZEN_CORE FC
MEM_TOTAL 3750
MEM_STATIC 1500
AUX_BASIS_CORR rimp2-def2-QZVPPD
SCF_CONVERGENCE 7
SCF_ALGORITHM  GDM
method DSD-PBEPBE-D3
GEN_SCFMAN TRUE
UNRESTRICTED True
THRESH  14
SYMMETRY FALSE
SYM_IGNORE TRUE
max_scf_cycles 200

XC_GRID 000099000590
BASIS DEF2-QZVPPD


$end










