$molecule
0 1 
N     0.8737578   -2.1182834    0.0000000 
H     0.2094499   -2.8807262    0.0000000 
H     1.4631256   -2.2218154    0.8150708 
H     1.4631256   -2.2218154   -0.8150708 
$end


$rem
N_FROZEN_CORE FC
MEM_TOTAL 3750
MEM_STATIC 1500
AUX_BASIS_CORR rimp2-def2-QZVPPD
SCF_CONVERGENCE 7
SCF_ALGORITHM  GDM
method DSD-PBEPBE-D3
GEN_SCFMAN TRUE
UNRESTRICTED True
THRESH  14
SYMMETRY FALSE
SYM_IGNORE TRUE
max_scf_cycles 200

XC_GRID 000099000590
BASIS DEF2-QZVPPD


$end










