$molecule
0 1 
P 0.134083 1.477467 0.000000
P -0.134083 -1.477467 0.000000
H 1.098446 1.417328 1.034272
H 1.098446 1.417328 -1.034272
Cl -0.134083 3.541032 0.000000
H -1.098446 -1.417328 -1.034272
H -1.098446 -1.417328 1.034272
Cl 0.134083 -3.541032 0.000000
$end


$rem
N_FROZEN_CORE FC
MEM_TOTAL 3750
MEM_STATIC 1500
AUX_BASIS_CORR rimp2-def2-QZVPPD
SCF_CONVERGENCE 7
SCF_ALGORITHM  GDM
method DSD-PBEPBE-D3
GEN_SCFMAN TRUE
UNRESTRICTED True
THRESH  14
SYMMETRY FALSE
SYM_IGNORE TRUE
max_scf_cycles 200

XC_GRID 000099000590
BASIS DEF2-QZVPPD


$end










