$molecule
0 1 
P 0.099364 1.514768 0.000000
H 1.063616 1.412098 1.034457
H 1.063616 1.412098 -1.034457
O -0.099364 3.167111 0.000000
H -1.031127 3.383294 0.000000
P -0.099364 -1.514768 0.000000
H -1.063616 -1.412098 1.034457
H -1.063616 -1.412098 -1.034457
O 0.099364 -3.167111 0.000000
H 1.031127 -3.383294 0.000000
$end


$rem
N_FROZEN_CORE FC
MEM_TOTAL 3750
MEM_STATIC 1500
AUX_BASIS_CORR rimp2-def2-QZVPPD
SCF_CONVERGENCE 7
SCF_ALGORITHM  GDM
method DSD-PBEPBE-D3
GEN_SCFMAN TRUE
UNRESTRICTED True
THRESH  14
SYMMETRY FALSE
SYM_IGNORE TRUE
max_scf_cycles 200

XC_GRID 000099000590
BASIS DEF2-QZVPPD


$end










