$molecule
0 1 
P     0.0000000    0.2595699    0.0000000 
H     0.2476049   -0.6600828   -1.0417817 
H     0.2476049   -0.6600828    1.0417817 
C    -1.7849955   -0.0087890    0.0000000 
N    -2.9329872   -0.0745360    0.0000000 
$end


$rem
N_FROZEN_CORE FC
MEM_TOTAL 3750
MEM_STATIC 1500
AUX_BASIS_CORR rimp2-def2-QZVPPD
SCF_CONVERGENCE 7
SCF_ALGORITHM  GDM
method DSD-PBEPBE-D3
GEN_SCFMAN TRUE
UNRESTRICTED True
THRESH  14
SYMMETRY FALSE
SYM_IGNORE TRUE
max_scf_cycles 200

XC_GRID 000099000590
BASIS DEF2-QZVPPD


$end










