$molecule
0 1 
P     0.1859829   -0.6363118   -0.2035779 
H    -0.0412530   -1.0266977    1.1312047 
C    -0.3858819    1.0508137   -0.0151780 
C     1.9372185   -0.2698169    0.0461960 
N    -0.8147118    2.1160154    0.0117440 
N     3.0763581   -0.1361160    0.1151700 
$end


$rem
N_FROZEN_CORE FC
MEM_TOTAL 3750
MEM_STATIC 1500
AUX_BASIS_CORR rimp2-def2-QZVPPD
SCF_CONVERGENCE 7
SCF_ALGORITHM  GDM
method DSD-PBEPBE-D3
GEN_SCFMAN TRUE
UNRESTRICTED True
THRESH  14
SYMMETRY FALSE
SYM_IGNORE TRUE
max_scf_cycles 200

XC_GRID 000099000590
BASIS DEF2-QZVPPD


$end










