$molecule
0 1 
P     0.1256880    0.6811688    0.0000000 
C     0.0008570   -0.4713659    1.3629606 
C    -1.6223545    1.1456037    0.0000000 
C     0.0008570   -0.4713659   -1.3629606 
N    -2.6807332    1.5919076    0.0000000 
N     0.0008570   -1.1379587    2.2975974 
N     0.0008570   -1.1379587   -2.2975974 
$end


$rem
N_FROZEN_CORE FC
MEM_TOTAL 3750
MEM_STATIC 1500
AUX_BASIS_CORR rimp2-def2-QZVPPD
SCF_CONVERGENCE 7
SCF_ALGORITHM  GDM
method DSD-PBEPBE-D3
GEN_SCFMAN TRUE
UNRESTRICTED True
THRESH  14
SYMMETRY FALSE
SYM_IGNORE TRUE
max_scf_cycles 200

XC_GRID 000099000590
BASIS DEF2-QZVPPD


$end










