$molecule
0 1 
P     0.0298290   -1.9198825    0.0000000 
H     0.3097739   -3.3086341    0.0000000 
H    -0.9295757   -2.0010824    1.0374577 
H    -0.9295757   -2.0010824   -1.0374577 
$end


$rem
N_FROZEN_CORE FC
MEM_TOTAL 3750
MEM_STATIC 1500
AUX_BASIS_CORR rimp2-def2-QZVPPD
SCF_CONVERGENCE 7
SCF_ALGORITHM  GDM
method DSD-PBEPBE-D3
GEN_SCFMAN TRUE
UNRESTRICTED True
THRESH  14
SYMMETRY FALSE
SYM_IGNORE TRUE
max_scf_cycles 200

XC_GRID 000099000590
BASIS DEF2-QZVPPD


$end










