$molecule
0 1 
P    -0.2379999    0.4706909    0.0000000 
H     0.6783188    0.6601068   -1.0524517 
H     0.6783188    0.6601068    1.0524517 
N     0.0376070   -1.3752516    0.0000000 
O     0.0746930   -1.9351645   -1.0770907 
O     0.0746930   -1.9351645    1.0770907 
$end


$rem
N_FROZEN_CORE FC
MEM_TOTAL 3750
MEM_STATIC 1500
AUX_BASIS_CORR rimp2-def2-QZVPPD
SCF_CONVERGENCE 7
SCF_ALGORITHM  GDM
method DSD-PBEPBE-D3
GEN_SCFMAN TRUE
UNRESTRICTED True
THRESH  14
SYMMETRY FALSE
SYM_IGNORE TRUE
max_scf_cycles 200

XC_GRID 000099000590
BASIS DEF2-QZVPPD


$end










