$molecule
0 1 
N 2.561814 -0.612108 0.000000
H 3.107420 -0.372137 0.817638
H 3.107420 -0.372137 -0.817638
H 2.444121 -1.617674 0.000000
P 0.125688 0.681169 0.000000
C 0.000857 -0.471366 1.362961
C -1.622355 1.145604 0.000000
C 0.000857 -0.471366 -1.362961
N -2.680734 1.591908 0.000000
N 0.000857 -1.137959 2.297598
N 0.000857 -1.137959 -2.297598
$end


$rem
N_FROZEN_CORE FC
MEM_TOTAL 3750
MEM_STATIC 1500
AUX_BASIS_CORR rimp2-def2-QZVPPD
SCF_CONVERGENCE 7
SCF_ALGORITHM  GDM
method DSD-PBEPBE-D3
GEN_SCFMAN TRUE
UNRESTRICTED True
THRESH  14
SYMMETRY FALSE
SYM_IGNORE TRUE
max_scf_cycles 200

XC_GRID 000099000590
BASIS DEF2-QZVPPD


$end










