$molecule
0 1 
N -2.677362 -0.805313 0.086063
H -3.108270 -1.707394 0.239835
H -3.022194 -0.452723 -0.797594
H -3.016044 -0.176598 0.803273
P 0.185983 -0.636312 -0.203578
H -0.041253 -1.026698 1.131205
C -0.385882 1.050814 -0.015178
C 1.937219 -0.269817 0.046196
N -0.814712 2.116016 0.011744
N 3.076359 -0.136116 0.115170
$end


$rem
N_FROZEN_CORE FC
MEM_TOTAL 3750
MEM_STATIC 1500
AUX_BASIS_CORR rimp2-def2-QZVPPD
SCF_CONVERGENCE 7
SCF_ALGORITHM  GDM
method DSD-PBEPBE-D3
GEN_SCFMAN TRUE
UNRESTRICTED True
THRESH  14
SYMMETRY FALSE
SYM_IGNORE TRUE
max_scf_cycles 200

XC_GRID 000099000590
BASIS DEF2-QZVPPD


$end










