$molecule
0 1 
N 0.074693 3.110391 0.000000
H -0.394255 3.483411 0.815085
H -0.394255 3.483411 -0.815085
H 1.020684 3.469256 0.000000
P -0.238000 0.470691 0.000000
H 0.678319 0.660107 -1.052452
H 0.678319 0.660107 1.052452
N 0.037607 -1.375252 0.000000
O 0.074693 -1.935165 -1.077091
O 0.074693 -1.935165 1.077091
$end


$rem
N_FROZEN_CORE FC
MEM_TOTAL 3750
MEM_STATIC 1500
AUX_BASIS_CORR rimp2-def2-QZVPPD
SCF_CONVERGENCE 7
SCF_ALGORITHM  GDM
method DSD-PBEPBE-D3
GEN_SCFMAN TRUE
UNRESTRICTED True
THRESH  14
SYMMETRY FALSE
SYM_IGNORE TRUE
max_scf_cycles 200

XC_GRID 000099000590
BASIS DEF2-QZVPPD


$end










