$molecule
0 1 
N 0.054981 -2.125600 0.000000
P 0.054981 1.199491 0.000000
H -0.486227 -2.979761 0.000000
H -0.385796 2.549904 0.000000
H 0.655523 -2.146483 0.813431
H -0.824297 0.804827 1.035743
H 0.655523 -2.146483 -0.813431
H -0.824297 0.804827 -1.035743
$end


$rem
N_FROZEN_CORE FC
MEM_TOTAL 3750
MEM_STATIC 1500
AUX_BASIS_CORR rimp2-def2-QZVPPD
SCF_CONVERGENCE 7
SCF_ALGORITHM  GDM
method DSD-PBEPBE-D3
GEN_SCFMAN TRUE
UNRESTRICTED True
THRESH  14
SYMMETRY FALSE
SYM_IGNORE TRUE
max_scf_cycles 200

XC_GRID 000099000590
BASIS DEF2-QZVPPD


$end










