$molecule
0 1 
P    -0.3545219    1.2210427    0.0000000 
F    -0.3545219    2.8469682    0.0000000 
H    -1.2801386    1.0207957    1.0509227 
H    -1.2801386    1.0207957   -1.0509227 
$end


$rem
N_FROZEN_CORE FC
MEM_TOTAL 3750
MEM_STATIC 1500
AUX_BASIS_CORR rimp2-def2-QZVPPD
SCF_CONVERGENCE 7
SCF_ALGORITHM  GDM
method DSD-PBEPBE-D3
GEN_SCFMAN TRUE
UNRESTRICTED True
THRESH  14
SYMMETRY FALSE
SYM_IGNORE TRUE
max_scf_cycles 200

XC_GRID 000099000590
BASIS DEF2-QZVPPD


$end










