$molecule
0 1 
P -0.000104 -1.613590 0.000000
H -0.962251 -1.637206 1.037259
H -0.962251 -1.637206 -1.037259
N 0.344180 -3.291520 0.000000
C 0.739465 -4.392668 0.000000
P 0.000000 1.613570 0.000000
H 0.962150 1.637084 1.037259
H 0.962150 1.637084 -1.037259
N -0.344103 3.291540 0.000000
C -0.739261 4.392734 0.000000
$end


$rem
N_FROZEN_CORE FC
MEM_TOTAL 3750
MEM_STATIC 1500
AUX_BASIS_CORR rimp2-def2-QZVPPD
SCF_CONVERGENCE 7
SCF_ALGORITHM  GDM
method DSD-PBEPBE-D3
GEN_SCFMAN TRUE
UNRESTRICTED True
THRESH  14
SYMMETRY FALSE
SYM_IGNORE TRUE
max_scf_cycles 200

XC_GRID 000099000590
BASIS DEF2-QZVPPD


$end










