$molecule
0 1 
P    -0.1108740   -1.7750845    0.0000000 
H    -1.0689517   -1.7606975    1.0407837 
H    -1.0689517   -1.7606975   -1.0407837 
C     0.1108740   -3.5505920    0.0000000 
N     0.3558729   -4.6732237    0.0000000 
$end


$rem
N_FROZEN_CORE FC
MEM_TOTAL 3750
MEM_STATIC 1500
AUX_BASIS_CORR rimp2-def2-QZVPPD
SCF_CONVERGENCE 7
SCF_ALGORITHM  GDM
method DSD-PBEPBE-D3
GEN_SCFMAN TRUE
UNRESTRICTED True
THRESH  14
SYMMETRY FALSE
SYM_IGNORE TRUE
max_scf_cycles 200

XC_GRID 000099000590
BASIS DEF2-QZVPPD


$end










