$molecule
0 1 
N    -2.6773612   -0.8053128    0.0860630 
H    -3.1082691   -1.7073935    0.2398349 
H    -3.0221932   -0.4527229   -0.7975938 
H    -3.0160432   -0.1765980    0.8032728 
$end


$rem
N_FROZEN_CORE FC
MEM_TOTAL 3750
MEM_STATIC 1500
AUX_BASIS_CORR rimp2-def2-QZVPPD
SCF_CONVERGENCE 7
SCF_ALGORITHM  GDM
method DSD-PBEPBE-D3
GEN_SCFMAN TRUE
UNRESTRICTED True
THRESH  14
SYMMETRY FALSE
SYM_IGNORE TRUE
max_scf_cycles 200

XC_GRID 000099000590
BASIS DEF2-QZVPPD


$end










