$molecule
0 1 
N     0.0746930    3.1103901    0.0000000 
H    -0.3942549    3.4834100    0.8150848 
H    -0.3942549    3.4834100   -0.8150848 
H     1.0206837    3.4692550    0.0000000 
$end


$rem
N_FROZEN_CORE FC
MEM_TOTAL 3750
MEM_STATIC 1500
AUX_BASIS_CORR rimp2-def2-QZVPPD
SCF_CONVERGENCE 7
SCF_ALGORITHM  GDM
method DSD-PBEPBE-D3
GEN_SCFMAN TRUE
UNRESTRICTED True
THRESH  14
SYMMETRY FALSE
SYM_IGNORE TRUE
max_scf_cycles 200

XC_GRID 000099000590
BASIS DEF2-QZVPPD


$end










