$molecule
0 1 
P     0.1312440    1.8399575   -0.0000080 
F     1.1710607    1.8033475    1.1886377 
F     1.1711317    1.8033205   -1.1885907 
F    -0.1312440    3.3965320   -0.0000340 
$end


$rem
N_FROZEN_CORE FC
MEM_TOTAL 3750
MEM_STATIC 1500
AUX_BASIS_CORR rimp2-def2-QZVPPD
SCF_CONVERGENCE 7
SCF_ALGORITHM  GDM
method DSD-PBEPBE-D3
GEN_SCFMAN TRUE
UNRESTRICTED True
THRESH  14
SYMMETRY FALSE
SYM_IGNORE TRUE
max_scf_cycles 200

XC_GRID 000099000590
BASIS DEF2-QZVPPD


$end










