$molecule
0 1
          Cl      0.0000000000     0.0000000000     0.0000000000
          N       0.0000000000     0.0000000000     1.7475500000
          H       0.9877064288     0.0000000000     1.9857191054
          H      -0.3322887804    -0.9301334032     1.9857191227
$end


$rem
N_FROZEN_CORE FC
MEM_TOTAL 3750
MEM_STATIC 1500
AUX_BASIS_CORR rimp2-def2-QZVPPD
SCF_CONVERGENCE 7
SCF_ALGORITHM  GDM
method DSD-PBEPBE-D3
GEN_SCFMAN TRUE
UNRESTRICTED True
THRESH  14
SYMMETRY FALSE
SYM_IGNORE TRUE
max_scf_cycles 200

XC_GRID 000099000590
BASIS AUG-PC-3


$end










