$molecule
0 2
        N         0.0000002327   -0.0000000061   -1.2737003115
        C        -0.0000004964    0.0000000123   -0.0271008600
        O         0.0000002638   -0.0000000061    1.1312011715
$end


$rem
N_FROZEN_CORE FC
MEM_TOTAL 3750
MEM_STATIC 1500
AUX_BASIS_CORR rimp2-def2-QZVPPD
SCF_CONVERGENCE 7
SCF_ALGORITHM  GDM
method DSD-PBEPBE-D3
GEN_SCFMAN TRUE
UNRESTRICTED True
THRESH  14
SYMMETRY FALSE
SYM_IGNORE TRUE
max_scf_cycles 200

XC_GRID 000099000590
BASIS AUG-PC-3


$end





$multipole_field
X -0.01
Y 0.0
Z 0.0
$end




