$molecule
0 1
        C        -0.0190572749   -0.6845195756   -0.0000000839
        B        -0.0207972952    0.8729523951   -0.0000000656
        H         1.0512614815   -0.9395660726    0.0000010826
        H        -0.4362896177   -1.1431007759    0.8927422542
        H        -0.4362878975   -1.1431009662   -0.8927431359
        H         0.0151838060    1.4835176231   -1.0228906497
        H         0.0151867978    1.4835173722    1.0228905983
$end


$rem
N_FROZEN_CORE FC
MEM_TOTAL 3750
MEM_STATIC 1500
AUX_BASIS_CORR rimp2-def2-QZVPPD
SCF_CONVERGENCE 7
SCF_ALGORITHM  GDM
method DSD-PBEPBE-D3
GEN_SCFMAN TRUE
UNRESTRICTED True
THRESH  14
SYMMETRY FALSE
SYM_IGNORE TRUE
max_scf_cycles 200

XC_GRID 000099000590
BASIS AUG-PC-3


$end





$multipole_field
X 0.0
Y -0.01
Z 0.0
$end




