$molecule
0 1
P        0.0000000000      0.0000000000     -0.3836153961
H       -1.2521120981      0.0000000000     -1.0264054293
H        0.6260878053     -1.0843997178     -1.0264202208
H        0.6260878053      1.0843997178     -1.0264202208
O        0.0000000000      0.0000000008      1.1041846038
$end


$rem
N_FROZEN_CORE FC
MEM_TOTAL 3750
MEM_STATIC 1500
AUX_BASIS_CORR rimp2-def2-QZVPPD
SCF_CONVERGENCE 7
SCF_ALGORITHM  GDM
method DSD-PBEPBE-D3
GEN_SCFMAN TRUE
UNRESTRICTED True
THRESH  14
SYMMETRY FALSE
SYM_IGNORE TRUE
max_scf_cycles 200

XC_GRID 000099000590
BASIS AUG-PC-3


$end










