$molecule
0 1
          P       0.0000000000     0.0000000000     0.0000000000
          H       0.0000000000     0.0000000000     1.4141500000
          H       1.4127052064     0.0000000000    -0.0639079205
          O      -0.2628101077     1.6275926322    -0.2511898901
          H      -0.9542069755     1.7138775927    -0.9120164663
$end


$rem
N_FROZEN_CORE FC
MEM_TOTAL 3750
MEM_STATIC 1500
AUX_BASIS_CORR rimp2-def2-QZVPPD
SCF_CONVERGENCE 7
SCF_ALGORITHM  GDM
method DSD-PBEPBE-D3
GEN_SCFMAN TRUE
UNRESTRICTED True
THRESH  14
SYMMETRY FALSE
SYM_IGNORE TRUE
max_scf_cycles 200

XC_GRID 000099000590
BASIS AUG-PC-3


$end





$multipole_field
X 0.01
Y 0.0
Z 0.0
$end




