$molecule
0 1
        P         0.0000000000    1.1100000000   -0.0858000000
        P         0.0000000000   -1.1100000000   -0.0858000000
        H        -0.2026000000    1.3478000000    1.2905000000
        H         1.4045000000    1.2216000000   -0.0032000000
        H         0.2026000000   -1.3478000000    1.2905000000
        H        -1.4045000000   -1.2216000000   -0.0032000000
$end


$rem
N_FROZEN_CORE FC
MEM_TOTAL 3750
MEM_STATIC 1500
AUX_BASIS_CORR rimp2-def2-QZVPPD
SCF_CONVERGENCE 7
SCF_ALGORITHM  GDM
method DSD-PBEPBE-D3
GEN_SCFMAN TRUE
UNRESTRICTED True
THRESH  14
SYMMETRY FALSE
SYM_IGNORE TRUE
max_scf_cycles 200

XC_GRID 000099000590
BASIS AUG-PC-3


$end





$multipole_field
X -0.01
Y 0.0
Z 0.0
$end




