$molecule
0 1
C1	-0.0503	0.6685	0.0000
O2	-0.0503	-0.7585	0.0000
H3	-1.0807	1.0417	0.0000
H4	0.4650	1.0417	0.8924
H5	0.4650	1.0417	-0.8924
H6	0.8544	-1.0677	0.0000
$end


$rem
N_FROZEN_CORE FC
MEM_TOTAL 3750
MEM_STATIC 1500
AUX_BASIS_CORR rimp2-def2-QZVPPD
SCF_CONVERGENCE 7
SCF_ALGORITHM  GDM
method DSD-PBEPBE-D3
GEN_SCFMAN TRUE
UNRESTRICTED True
THRESH  14
SYMMETRY FALSE
SYM_IGNORE TRUE
max_scf_cycles 200

XC_GRID 000099000590
BASIS AUG-PC-3


$end










