$molecule
0 1
H 0.965638 1.672535 0.000000
H -0.965638 1.672535 0.000000
H -1.931277 0.000000 0.000000
H -0.965638 -1.672535 0.000000
H 1.931277 0.000000 0.000000
H 0.965638 -1.672535 0.000000
F -1.923203 1.110362 0.260919
F 0.000000 2.220724 -0.260919
F -1.923203 -1.110362 -0.260919
F 1.923203 1.110362 0.260919
F 0.000000 -2.220724 0.260919
F 1.923203 -1.110362 -0.260919
$end


$rem
N_FROZEN_CORE FC
MEM_TOTAL 3750
MEM_STATIC 1500
AUX_BASIS_CORR rimp2-def2-QZVPPD
SCF_CONVERGENCE 7
SCF_ALGORITHM  GDM
method DSD-PBEPBE-D3
GEN_SCFMAN TRUE
UNRESTRICTED True
THRESH  14
SYMMETRY FALSE
SYM_IGNORE TRUE
max_scf_cycles 200

XC_GRID 000099000590
BASIS DEF2-QZVPPD


$end










