$molecule
0 1
O 0.000000 1.098108 0.000000
H 0.000000 0.000000 0.596495
H 0.000000 0.000000 -0.596495
O 0.000000 -1.098108 0.000000
H 0.867311 1.517487 0.000000
H -0.867311 -1.517487 0.000000
$end


$rem
N_FROZEN_CORE FC
MEM_TOTAL 3750
MEM_STATIC 1500
AUX_BASIS_CORR rimp2-def2-QZVPPD
SCF_CONVERGENCE 7
SCF_ALGORITHM  GDM
method DSD-PBEPBE-D3
GEN_SCFMAN TRUE
UNRESTRICTED True
THRESH  14
SYMMETRY FALSE
SYM_IGNORE TRUE
max_scf_cycles 200

XC_GRID 000099000590
BASIS DEF2-QZVPPD


$end










