$molecule
0 1
O 0.000756 1.523252 0.000000
H -0.086365 0.557493 0.000000
H -0.898788 1.860643 0.000000
O 0.000756 -1.396126 0.000000
H 0.486527 -1.717573 0.766199
H 0.486527 -1.717573 -0.766199
$end


$rem
N_FROZEN_CORE FC
MEM_TOTAL 3750
MEM_STATIC 1500
AUX_BASIS_CORR rimp2-def2-QZVPPD
SCF_CONVERGENCE 7
SCF_ALGORITHM  GDM
method DSD-PBEPBE-D3
GEN_SCFMAN TRUE
UNRESTRICTED True
THRESH  14
SYMMETRY FALSE
SYM_IGNORE TRUE
max_scf_cycles 200

XC_GRID 000099000590
BASIS DEF2-QZVPPD


$end










