$molecule
0 1
H -0.829028 1.947972 0.063739
H -2.101507 0.256027 -0.063739
H 0.829028 -1.947972 -0.063739
H 1.272479 1.691945 -0.063739
H -1.272479 -1.691945 0.063739
H 2.101507 -0.256027 0.063739
F 2.077176 1.199258 -0.275173
F 0.000000 2.398517 0.275173
F 0.000000 -2.398517 -0.275173
F -2.077176 1.199258 -0.275173
F -2.077176 -1.199258 0.275173
F 2.077176 -1.199258 0.275173
$end


$rem
N_FROZEN_CORE FC
MEM_TOTAL 3750
MEM_STATIC 1500
AUX_BASIS_CORR rimp2-def2-QZVPPD
SCF_CONVERGENCE 7
SCF_ALGORITHM  GDM
method DSD-PBEPBE-D3
GEN_SCFMAN TRUE
UNRESTRICTED True
THRESH  14
SYMMETRY FALSE
SYM_IGNORE TRUE
max_scf_cycles 200

XC_GRID 000099000590
BASIS DEF2-QZVPPD


$end










