$molecule
0 1
O -0.027616 -0.689983 1.190325
H -0.037707 0.477614 -0.829995
H -0.037707 0.477614 0.829995
O -0.027616 1.374206 0.000000
H 0.055118 -0.961226 0.000000
O -0.027616 -0.689983 -1.190325
H -0.845615 1.879517 0.000000
H 0.764349 -0.913715 1.686779
H 0.764349 -0.913715 -1.686779
$end


$rem
N_FROZEN_CORE FC
MEM_TOTAL 3750
MEM_STATIC 1500
AUX_BASIS_CORR rimp2-def2-QZVPPD
SCF_CONVERGENCE 7
SCF_ALGORITHM  GDM
method DSD-PBEPBE-D3
GEN_SCFMAN TRUE
UNRESTRICTED True
THRESH  14
SYMMETRY FALSE
SYM_IGNORE TRUE
max_scf_cycles 200

XC_GRID 000099000590
BASIS DEF2-QZVPPD


$end










