$molecule
0 1
H 0.673346 0.000000 -0.244115
H -0.673346 0.000000 -0.244115
H 0.000000 0.809962 1.821379
H 0.000000 -0.839127 -1.730643
N 0.000000 0.000000 -1.165033
N 0.000000 0.000000 1.208856
H 0.000000 -0.809962 1.821379
H 0.000000 0.839127 -1.730643
$end


$rem
N_FROZEN_CORE FC
MEM_TOTAL 3750
MEM_STATIC 1500
AUX_BASIS_CORR rimp2-def2-QZVPPD
SCF_CONVERGENCE 7
SCF_ALGORITHM  GDM
method DSD-PBEPBE-D3
GEN_SCFMAN TRUE
UNRESTRICTED True
THRESH  14
SYMMETRY FALSE
SYM_IGNORE TRUE
max_scf_cycles 200

XC_GRID 000099000590
BASIS DEF2-QZVPPD


$end










