$molecule
0 1
H -0.155611 0.718127 0.000000
H -0.421026 2.115582 0.813988
H -0.255988 -2.122455 0.815316
H 1.046178 -1.572039 0.000000
N 0.033104 1.718343 0.000000
N 0.033104 -1.594392 0.000000
H -0.255988 -2.122455 -0.815316
H -0.421026 2.115582 -0.813988
$end


$rem
N_FROZEN_CORE FC
MEM_TOTAL 3750
MEM_STATIC 1500
AUX_BASIS_CORR rimp2-def2-QZVPPD
SCF_CONVERGENCE 7
SCF_ALGORITHM  GDM
method DSD-PBEPBE-D3
GEN_SCFMAN TRUE
UNRESTRICTED True
THRESH  14
SYMMETRY FALSE
SYM_IGNORE TRUE
max_scf_cycles 200

XC_GRID 000099000590
BASIS DEF2-QZVPPD


$end










