$molecule
0 1
O 2.079161 -1.200404 0.095322
H 1.035446 1.793446 0.000000
H 2.070893 0.000000 0.000000
O 2.079161 1.200404 -0.095322
H 1.035446 -1.793446 0.000000
O 0.000000 -2.400809 -0.095322
H -1.035446 -1.793446 0.000000
O 0.000000 2.400809 0.095322
H 0.000000 2.940562 0.889692
H 2.546601 1.470281 -0.889692
H 2.546601 -1.470281 0.889692
H 0.000000 -2.940562 -0.889692
O -2.079161 -1.200404 0.095322
H -1.035446 1.793446 0.000000
H -2.546601 -1.470281 0.889692
O -2.079161 1.200404 -0.095322
H -2.070893 0.000000 0.000000
H -2.546601 1.470281 -0.889692
$end


$rem
N_FROZEN_CORE FC
MEM_TOTAL 7500
MEM_STATIC 3000
AUX_BASIS_CORR rimp2-def2-QZVPPD
SCF_CONVERGENCE 7
SCF_ALGORITHM  GDM
method DSD-PBEPBE-D3
GEN_SCFMAN TRUE
UNRESTRICTED True
THRESH  14
SYMMETRY FALSE
SYM_IGNORE TRUE
max_scf_cycles 200

XC_GRID 000099000590
BASIS DEF2-QZVPPD


$end










