$molecule
0 1
O 0.000000 2.699161 0.140851
H 0.843745 2.201715 0.029190
H 2.328614 0.370153 -0.029190
H -0.110587 -3.233926 -0.931241
H -0.843745 -2.201715 -0.029190
O 0.000000 -2.699161 -0.140851
O 2.337542 1.349580 -0.140851
H -1.484868 1.831562 -0.029190
O -2.337542 1.349580 -0.140851
O 2.337542 -1.349580 0.140851
H 1.484868 -1.831562 0.029190
H 2.745369 -1.712734 0.931241
O -2.337542 -1.349580 0.140851
H -2.328614 -0.370153 0.029190
H -2.855956 -1.521192 0.931241
H 2.855956 1.521192 -0.931241
H 0.110587 3.233926 0.931241
H -2.745369 1.712734 -0.931241
$end


$rem
N_FROZEN_CORE FC
MEM_TOTAL 7500
MEM_STATIC 3000
AUX_BASIS_CORR rimp2-def2-QZVPPD
SCF_CONVERGENCE 7
SCF_ALGORITHM  GDM
method DSD-PBEPBE-D3
GEN_SCFMAN TRUE
UNRESTRICTED True
THRESH  14
SYMMETRY FALSE
SYM_IGNORE TRUE
max_scf_cycles 200

XC_GRID 000099000590
BASIS DEF2-QZVPPD


$end










