$molecule
0 1
O -0.035780 -0.636382 1.949889
H -0.035649 0.518096 1.612107
O -0.035780 1.658768 1.206823
H 0.021069 -1.374305 0.995487
O 0.072669 -2.052065 0.000000
H 0.021069 -1.374305 -0.995487
H 0.678573 2.159363 1.608860
H -0.816587 -0.829109 2.475892
H 0.863288 -2.598008 0.000000
O -0.035780 -0.636382 -1.949889
H 0.005498 1.708271 0.000000
H -0.816587 -0.829109 -2.475892
O -0.035780 1.658768 -1.206823
H -0.035649 0.518096 -1.612107
H 0.678573 2.159363 -1.608860
$end


$rem
N_FROZEN_CORE FC
MEM_TOTAL 7500
MEM_STATIC 3000
AUX_BASIS_CORR rimp2-def2-QZVPPD
SCF_CONVERGENCE 7
SCF_ALGORITHM  GDM
method DSD-PBEPBE-D3
GEN_SCFMAN TRUE
UNRESTRICTED True
THRESH  14
SYMMETRY FALSE
SYM_IGNORE TRUE
max_scf_cycles 200

XC_GRID 000099000590
BASIS DEF2-QZVPPD


$end










