$molecule
0 1
H 0.000000 1.164150 0.000000
H 1.008183 -0.582075 0.000000
H -1.008183 -0.582075 0.000000
F -0.527520 -1.395778 0.000000
F -0.945019 1.154735 0.000000
F 1.472540 0.241043 0.000000
$end


$rem
N_FROZEN_CORE FC
MEM_TOTAL 3750
MEM_STATIC 1500
AUX_BASIS_CORR rimp2-def2-QZVPPD
SCF_CONVERGENCE 7
SCF_ALGORITHM  GDM
method DSD-PBEPBE-D3
GEN_SCFMAN TRUE
UNRESTRICTED True
THRESH  14
SYMMETRY FALSE
SYM_IGNORE TRUE
max_scf_cycles 200

XC_GRID 000099000590
BASIS DEF2-QZVPPD


$end










