$molecule
1 2 
   C          0.00000000      1.15366079      0.20772743
   C          0.00000000      0.70006192     -1.11009727
   C          0.00000000     -0.70006192     -1.11009727
   C          0.00000000     -1.15366079      0.20772743
   C          0.00000000      0.00000000      1.13580020
   H          0.00000000      2.19207431      0.51692222
   H          0.00000000      1.33090392     -1.98945097
   H          0.00000000     -1.33090392     -1.98945097
   H          0.00000000     -2.19207431      0.51692222
   H         -0.87179059      0.00000000      1.80699849
   H          0.87179059      0.00000000      1.80699849
$end


$rem
N_FROZEN_CORE FC
MEM_TOTAL 3750
MEM_STATIC 1500
AUX_BASIS_CORR rimp2-def2-QZVPPD
SCF_CONVERGENCE 7
SCF_ALGORITHM  GDM
method DSD-PBEPBE-D3
GEN_SCFMAN TRUE
UNRESTRICTED True
THRESH  14
SYMMETRY FALSE
SYM_IGNORE TRUE
max_scf_cycles 200

XC_GRID 000099000590
BASIS DEF2-QZVPPD


$end










