$molecule
1 2 
   C          1.26975303      0.91936719     -0.39743466
   C          0.31103019      0.73887248      0.39632747
   C         -0.31103019     -0.73887248      0.39632747
   C         -1.26975303     -0.91936719     -0.39743466
   H          2.05474377      0.91632135     -1.13229815
   H         -0.14592403      1.39378446      1.13340534
   H          0.14592403     -1.39378446      1.13340534
   H         -2.05474377     -0.91632135     -1.13229815
$end


$rem
N_FROZEN_CORE FC
MEM_TOTAL 3750
MEM_STATIC 1500
AUX_BASIS_CORR rimp2-def2-QZVPPD
SCF_CONVERGENCE 7
SCF_ALGORITHM  GDM
method DSD-PBEPBE-D3
GEN_SCFMAN TRUE
UNRESTRICTED True
THRESH  14
SYMMETRY FALSE
SYM_IGNORE TRUE
max_scf_cycles 200

XC_GRID 000099000590
BASIS DEF2-QZVPPD


$end










