$molecule
0 2 
   C         -0.76594544      0.02334475      0.00000000
   C          0.77276718      0.03214442      0.00000000
   O          1.16281071     -1.27097839      0.00000000
   H         -1.11583696      1.05695405      0.00000000
   H         -1.14311380     -0.48290832      0.88837496
   H         -1.14311380     -0.48290832     -0.88837496
   H          1.11621605      0.56217590      0.90157397
   H          1.11621605      0.56217590     -0.90157397
$end


$rem
N_FROZEN_CORE FC
MEM_TOTAL 3750
MEM_STATIC 1500
AUX_BASIS_CORR rimp2-def2-QZVPPD
SCF_CONVERGENCE 7
SCF_ALGORITHM  GDM
method DSD-PBEPBE-D3
GEN_SCFMAN TRUE
UNRESTRICTED True
THRESH  14
SYMMETRY FALSE
SYM_IGNORE TRUE
max_scf_cycles 200

XC_GRID 000200000974
BASIS DEF2-QZVPPD
SCF_GUESS_MIX = 3
SCF_GUESS SADMO
$end










