$molecule
1 2 
   O         -0.30670512      2.64511661      0.00000000
   C         -0.63184325      1.56797693      0.00000000
   C         -1.04096418      0.26154563      0.00000000
   H         -2.11946896      0.12171112      0.00000000
   C         -0.14087031     -0.80470145      0.00000000
   H         -0.58771554     -1.79369082      0.00000000
   C          1.23330569     -0.69024684      0.00000000
   H          1.74031733      0.26987643      0.00000000
   H          1.85394434     -1.57758761      0.00000000
$end


$rem
N_FROZEN_CORE FC
MEM_TOTAL 3750
MEM_STATIC 1500
AUX_BASIS_CORR rimp2-def2-QZVPPD
SCF_CONVERGENCE 7
SCF_ALGORITHM  GDM
method DSD-PBEPBE-D3
GEN_SCFMAN TRUE
UNRESTRICTED True
THRESH  14
SYMMETRY FALSE
SYM_IGNORE TRUE
max_scf_cycles 200

XC_GRID 000099000590
BASIS DEF2-QZVPPD


$end










