$molecule
0 2 
   C         -0.60834592     -0.11111185      0.00000000
   C          0.85549700      0.09771034      0.00000000
   H          1.39705165      0.24293672     -0.92577630
   H          1.39705165      0.24293672      0.92577630
   H         -0.94177423     -0.65780938      0.88583311
   H         -0.94177423     -0.65780938     -0.88583311
   H         -1.15770593      0.84314683      0.00000000
$end


$rem
N_FROZEN_CORE FC
MEM_TOTAL 3750
MEM_STATIC 1500
AUX_BASIS_CORR rimp2-def2-QZVPPD
SCF_CONVERGENCE 7
SCF_ALGORITHM  GDM
method DSD-PBEPBE-D3
GEN_SCFMAN TRUE
UNRESTRICTED True
THRESH  14
SYMMETRY FALSE
SYM_IGNORE TRUE
max_scf_cycles 200

XC_GRID 000099000590
BASIS DEF2-QZVPPD


$end










