$molecule
1 2 
   O         -1.48308171      1.34440159     -0.46201835
   C         -1.40031591      0.14302820     -0.61588426
   O         -1.85007644     -0.50050715     -1.63482264
   C         -0.75641466     -0.40466234      0.59332033
   C          0.58018684     -0.23396033      0.85057845
   C          1.54896052      0.52137503      0.06603999
   H         -1.70062763     -1.45723822     -1.57682164
   H         -1.43131691     -0.81514997      1.34128628
   H          0.95443197     -0.74678166      1.73585701
   H          1.14655639      1.00384397     -0.82161048
   H          2.38885388     -0.13873312     -0.19132533
   H          2.00284365      1.28438399      0.71540064
$end


$rem
N_FROZEN_CORE FC
MEM_TOTAL 3750
MEM_STATIC 1500
AUX_BASIS_CORR rimp2-def2-QZVPPD
SCF_CONVERGENCE 7
SCF_ALGORITHM  GDM
method DSD-PBEPBE-D3
GEN_SCFMAN TRUE
UNRESTRICTED True
THRESH  14
SYMMETRY FALSE
SYM_IGNORE TRUE
max_scf_cycles 200

XC_GRID 000099000590
BASIS DEF2-QZVPPD


$end










