$molecule
1 2 
   C         -2.54326489     -0.52659025      0.49355564
   C         -1.08582628     -0.92162568      0.37919543
   O         -0.70538245     -1.98540316      0.75400786
   C         -0.10910311      0.09358010     -0.25058181
   C          1.34362030     -0.08858601      0.12212722
   C          2.16864916      0.98456147     -0.57481794
   H         -2.82200731     -0.00977131     -0.42608653
   H         -2.58995170      0.17787171      1.33134701
   H         -3.16291464     -1.39834901      0.68727986
   H         -0.51562054      1.07697187      0.00516261
   H         -0.29904162     -0.07304871     -1.32316169
   H          1.67954973     -1.08739669     -0.16733091
   H          1.46288761     -0.00646011      1.20542020
   H          2.09480386      0.90841346     -1.66115302
   H          3.21869084      0.86541796     -0.29903932
   H          1.86491104      1.99041434     -0.27592461
$end


$rem
N_FROZEN_CORE FC
MEM_TOTAL 7500
MEM_STATIC 3000
AUX_BASIS_CORR rimp2-def2-QZVPPD
SCF_CONVERGENCE 7
SCF_ALGORITHM  GDM
method DSD-PBEPBE-D3
GEN_SCFMAN TRUE
UNRESTRICTED True
THRESH  14
SYMMETRY FALSE
SYM_IGNORE TRUE
max_scf_cycles 200

XC_GRID 000099000590
BASIS DEF2-QZVPPD


$end










