$molecule
1 1 
   O         -2.46302041      1.18518077      0.00000000
   C         -1.34180596      1.20364734      0.00000000
   C          0.03389008      1.25250994      0.00000000
   H          0.46725640      2.24892792      0.00000000
   C          0.75528667      0.10042343      0.00000000
   H          1.83617344      0.22628935      0.00000000
   C          0.24416284     -1.26812254      0.00000000
   H         -0.84242816     -1.35331445      0.00000000
   H          0.65524256     -1.79777088      0.86946796
   H          0.65524256     -1.79777088     -0.86946796
$end


$rem
N_FROZEN_CORE FC
MEM_TOTAL 3750
MEM_STATIC 1500
AUX_BASIS_CORR rimp2-def2-QZVPPD
SCF_CONVERGENCE 7
SCF_ALGORITHM  GDM
method DSD-PBEPBE-D3
GEN_SCFMAN TRUE
UNRESTRICTED True
THRESH  14
SYMMETRY FALSE
SYM_IGNORE TRUE
max_scf_cycles 200

XC_GRID 000099000590
BASIS DEF2-QZVPPD


$end










