$molecule
1 2 
   C          0.84650292      0.18760119      0.00000000
   C          0.09367016      0.02436672     -1.24105228
   C         -1.21937266     -0.35283817     -1.22333665
   C         -1.87424750     -0.52791014      0.00000000
   C         -1.21937266     -0.35283817      1.22333665
   C          0.09367016      0.02436672      1.24105228
   C          2.08422575      0.97880417      0.00000000
   H          2.57640722      1.21109612      0.93389911
   H          2.57640722      1.21109612     -0.93389911
   H          0.62461011      0.16020471     -2.17729253
   H         -1.75686339     -0.50273538     -2.15132947
   H         -2.91896516     -0.82025766      0.00000000
   H          0.62461011      0.16020471      2.17729253
   H          1.22558110     -0.89842554      0.00000000
   H         -1.75686339     -0.50273538      2.15132947
$end


$rem
N_FROZEN_CORE FC
MEM_TOTAL 7500
MEM_STATIC 3000
AUX_BASIS_CORR rimp2-def2-QZVPPD
SCF_CONVERGENCE 7
SCF_ALGORITHM  GDM
method DSD-PBEPBE-D3
GEN_SCFMAN TRUE
UNRESTRICTED True
THRESH  14
SYMMETRY FALSE
SYM_IGNORE TRUE
max_scf_cycles 200

XC_GRID 000099000590
BASIS DEF2-QZVPPD


$end










