$molecule
1 1 
   C          0.00000000     -0.68706565     -0.15561651
   C          0.00000000      0.68706565     -0.15561651
   H         -0.93544202      1.24259171     -0.16297374
   H          0.93544202      1.24259171     -0.16297374
   H          0.93544202     -1.24259171     -0.16297374
   H         -0.93544202     -1.24259171     -0.16297374
   H          0.00000000      0.00000000      0.96312797
$end


$rem
N_FROZEN_CORE FC
MEM_TOTAL 3750
MEM_STATIC 1500
AUX_BASIS_CORR rimp2-def2-QZVPPD
SCF_CONVERGENCE 7
SCF_ALGORITHM  GDM
method DSD-PBEPBE-D3
GEN_SCFMAN TRUE
UNRESTRICTED True
THRESH  14
SYMMETRY FALSE
SYM_IGNORE TRUE
max_scf_cycles 200

XC_GRID 000099000590
BASIS DEF2-QZVPPD


$end










