$molecule
1 1
   C         -1.44209978     -0.69447865      0.00000000
   C         -1.44209978      0.69447865      0.00000000
   C         -0.35616923      1.56047937      0.00000000
   C          0.99796401      1.25140729      0.00000000
   C          1.60061000      0.00000000      0.00000000
   C          0.99796401     -1.25140729      0.00000000
   C         -0.35616923     -1.56047937      0.00000000
   H         -2.42013013      1.16547324      0.00000000
   H         -2.42013013     -1.16547324      0.00000000
   H         -0.59772278     -2.61879461      0.00000000
   H          1.67478201     -2.10011022      0.00000000
   H          2.68614179      0.00000000      0.00000000
   H          1.67478201      2.10011022      0.00000000
   H         -0.59772278      2.61879461      0.00000000
$end


$rem
N_FROZEN_CORE FC
MEM_TOTAL 7500
MEM_STATIC 3000
AUX_BASIS_CORR rimp2-def2-QZVPPD
SCF_CONVERGENCE 7
SCF_ALGORITHM  GDM
method DSD-PBEPBE-D3
GEN_SCFMAN TRUE
UNRESTRICTED True
THRESH  14
SYMMETRY FALSE
SYM_IGNORE TRUE
max_scf_cycles 200

XC_GRID 000099000590
BASIS DEF2-QZVPPD


$end










