$molecule
1 2 
   C          1.49491879      0.00000000     -0.46261352
   C          0.70445571      0.00000000      0.66728826
   C         -0.70445571      0.00000000      0.66728826
   C         -1.49491879      0.00000000     -0.46261352
   H          2.57550464      0.00000000     -0.37288559
   H          1.08494569      0.00000000     -1.46616512
   H          1.19820872      0.00000000      1.63437598
   H         -1.19820872      0.00000000      1.63437598
   H         -1.08494569      0.00000000     -1.46616512
   H         -2.57550464      0.00000000     -0.37288559
$end


$rem
N_FROZEN_CORE FC
MEM_TOTAL 3750
MEM_STATIC 1500
AUX_BASIS_CORR rimp2-def2-QZVPPD
SCF_CONVERGENCE 7
SCF_ALGORITHM  GDM
method DSD-PBEPBE-D3
GEN_SCFMAN TRUE
UNRESTRICTED True
THRESH  14
SYMMETRY FALSE
SYM_IGNORE TRUE
max_scf_cycles 200

XC_GRID 000099000590
BASIS DEF2-QZVPPD


$end










