$molecule
1 1 
   C         -1.12992197     -0.96231928      0.00000000
   H         -2.15484264     -0.58142413      0.00000000
   C         -0.13317649     -0.18517972      0.00000000
   H         -0.98029214     -2.04688653      0.00000000
   C          0.93672319      0.71298054      0.00000000
   H          0.40569773      1.69470461      0.00000000
   H          1.52790616      0.68406226     -0.92098974
   H          1.52790616      0.68406226      0.92098974
$end


$rem
N_FROZEN_CORE FC
MEM_TOTAL 3750
MEM_STATIC 1500
AUX_BASIS_CORR rimp2-def2-QZVPPD
SCF_CONVERGENCE 7
SCF_ALGORITHM  GDM
method DSD-PBEPBE-D3
GEN_SCFMAN TRUE
UNRESTRICTED True
THRESH  14
SYMMETRY FALSE
SYM_IGNORE TRUE
max_scf_cycles 200

XC_GRID 000099000590
BASIS DEF2-QZVPPD


$end










