$molecule
1 1 
   C         -1.17819803      0.00000000      0.16558425
   C          0.00000000      0.00000000     -0.54301969
   H          0.00000000      0.00000000     -1.62736557
   C          1.17819803      0.00000000      0.16558425
   H          1.17714072      0.00000000      1.25257680
   H          2.14433964      0.00000000     -0.33296842
   H         -1.17714072      0.00000000      1.25257680
   H         -2.14433964      0.00000000     -0.33296842
$end


$rem
N_FROZEN_CORE FC
MEM_TOTAL 3750
MEM_STATIC 1500
AUX_BASIS_CORR rimp2-def2-QZVPPD
SCF_CONVERGENCE 7
SCF_ALGORITHM  GDM
method DSD-PBEPBE-D3
GEN_SCFMAN TRUE
UNRESTRICTED True
THRESH  14
SYMMETRY FALSE
SYM_IGNORE TRUE
max_scf_cycles 200

XC_GRID 000099000590
BASIS DEF2-QZVPPD


$end










