$molecule
0 1
C     0.7632579    0.0000000   -0.4409810 
C    -0.7632579    0.0000000   -0.4409810 
H     1.1578429    1.0169279   -0.4409257 
H     1.1578429   -0.5085118    0.4396773 
H     1.1578429   -0.5084161   -1.3216946 
H    -1.1578429   -1.0169279   -0.4409257 
H    -1.1578429    0.5085118    0.4396773 
H    -1.1578429    0.5084161   -1.3216946 
Ar    0.0000000   -0.0000000    3.5278481 
$end


$rem
N_FROZEN_CORE FC
MEM_TOTAL 3750
MEM_STATIC 1500
AUX_BASIS_CORR rimp2-def2-QZVPPD
SCF_CONVERGENCE 7
SCF_ALGORITHM  GDM
method DSD-PBEPBE-D3
GEN_SCFMAN TRUE
UNRESTRICTED True
THRESH  14
SYMMETRY FALSE
SYM_IGNORE TRUE
max_scf_cycles 200

XC_GRID 000500000974
BASIS DEF2-QZVPPD


$end










