$molecule
0 1
C    -1.1988023    0.6921288   -0.2788357 
C    -1.1988023   -0.6921288   -0.2788357 
C     0.0000000   -1.3842576   -0.2788357 
C     1.1988023   -0.6921288   -0.2788357 
C     1.1988023    0.6921288   -0.2788357 
C     0.0000000    1.3842576   -0.2788357 
H    -2.1331550   -1.2315776   -0.2788357 
H     0.0000000   -2.4631552   -0.2788357 
H     2.1331550   -1.2315776   -0.2788357 
H     2.1331550    1.2315776   -0.2788357 
H     0.0000000    2.4631552   -0.2788357 
H    -2.1331550    1.2315776   -0.2788357 
Ar    0.0000000    0.0000000    3.3460282 
$end


$rem
N_FROZEN_CORE FC
MEM_TOTAL 7500
MEM_STATIC 3000
AUX_BASIS_CORR rimp2-def2-QZVPPD
SCF_CONVERGENCE 7
SCF_ALGORITHM  GDM
method DSD-PBEPBE-D3
GEN_SCFMAN TRUE
UNRESTRICTED True
THRESH  14
SYMMETRY FALSE
SYM_IGNORE TRUE
max_scf_cycles 200

XC_GRID 000500000974
BASIS DEF2-QZVPPD


$end










