$molecule
0 1
  C   -2.60325102341288     -0.05966604131796      1.01406614778803
  O   -1.18281507590582     -0.05493775528139      1.02482492848665
  H   -3.02635666269836      0.94629405953047      1.09998454185628
  H   -3.02631167406348     -0.68660396229855      1.80547662589398
  H   -2.90898294351895     -0.47348024887966      0.05628611106365
  H   -0.89451262040053      0.30918394824708      1.86811164491141
$end


$rem
N_FROZEN_CORE FC
MEM_TOTAL 3750
MEM_STATIC 1500
AUX_BASIS_CORR rimp2-def2-QZVPPD
SCF_CONVERGENCE 7
SCF_ALGORITHM  GDM
method DSD-PBEPBE-D3
GEN_SCFMAN TRUE
UNRESTRICTED True
THRESH  14
SYMMETRY FALSE
SYM_IGNORE TRUE
max_scf_cycles 200

XC_GRID 000099000590
BASIS DEF2-QZVPP


$end










