$molecule
0 1
  C   0.89373714946655      0.06559800239474     -0.48863883607719
  Cl  2.69528721504165      0.11515429658292     -0.43827721920064
  H   0.53414826326892     -0.31168037265397      0.46105118508703
  H   0.59090828756694     -0.59042529407083     -1.29579513101613
  H   0.52755908465593      1.07065336774714     -0.65995999879306
$end


$rem
N_FROZEN_CORE FC
MEM_TOTAL 3750
MEM_STATIC 1500
AUX_BASIS_CORR rimp2-def2-QZVPPD
SCF_CONVERGENCE 7
SCF_ALGORITHM  GDM
method DSD-PBEPBE-D3
GEN_SCFMAN TRUE
UNRESTRICTED True
THRESH  14
SYMMETRY FALSE
SYM_IGNORE TRUE
max_scf_cycles 200

XC_GRID 000099000590
BASIS DEF2-QZVPP


$end










