$molecule
0 1
  C   1.51726451468284     -0.97767921098680      0.52171629132441
  C   0.74239875219774     -1.46363074972116      1.47849703152318
  H   2.51828583884764     -1.35305753840197      0.35126527056426
  H   1.18518107116184     -0.18277093199817     -0.13390079309440
  H   1.07448095842179     -2.25854150977284      2.13411157579728
  H   -0.25862113531187     -1.08825005911904      1.64895062388526
$end


$rem
N_FROZEN_CORE FC
MEM_TOTAL 3750
MEM_STATIC 1500
AUX_BASIS_CORR rimp2-def2-QZVPPD
SCF_CONVERGENCE 7
SCF_ALGORITHM  GDM
method DSD-PBEPBE-D3
GEN_SCFMAN TRUE
UNRESTRICTED True
THRESH  14
SYMMETRY FALSE
SYM_IGNORE TRUE
max_scf_cycles 200

XC_GRID 000099000590
BASIS DEF2-QZVPP


$end










