$molecule
0 1
  N   -3.60815809062077      1.09355028244381      7.00611354863792
  H   -2.59760235206826      1.12212532916435      7.04428741706991
  H   -3.92254707334387      2.05233297810960      6.93267865805528
  H   -3.92253248396710      0.75369141028225      7.90565037623689
$end


$rem
N_FROZEN_CORE FC
MEM_TOTAL 3750
MEM_STATIC 1500
AUX_BASIS_CORR rimp2-def2-QZVPPD
SCF_CONVERGENCE 7
SCF_ALGORITHM  GDM
method DSD-PBEPBE-D3
GEN_SCFMAN TRUE
UNRESTRICTED True
THRESH  14
SYMMETRY FALSE
SYM_IGNORE TRUE
max_scf_cycles 200

XC_GRID 000099000590
BASIS DEF2-QZVPP


$end










