$molecule
0 1
  C   0.26276865265036     -0.95935760874210     -0.16789453035660
  H   1.34910138949518     -0.95935964147697     -0.16789529961492
  H   -0.09936443131152     -1.84968244765465     -0.67417149424263
  H   -0.09936280003006     -0.07574483016778     -0.68579548502462
  H   -0.09937281080397     -0.95265547195850      0.85628680923875
$end


$rem
N_FROZEN_CORE FC
MEM_TOTAL 3750
MEM_STATIC 1500
AUX_BASIS_CORR rimp2-def2-QZVPPD
SCF_CONVERGENCE 7
SCF_ALGORITHM  GDM
method DSD-PBEPBE-D3
GEN_SCFMAN TRUE
UNRESTRICTED True
THRESH  14
SYMMETRY FALSE
SYM_IGNORE TRUE
max_scf_cycles 200

XC_GRID 000099000590
BASIS DEF2-QZVPP


$end










