$molecule
-1 1
  C   0.73379366637171      1.38375290085274     -4.11631765427935
  H   1.84219712240671      1.40344041188654     -4.19469420623547
  H   0.40249506316544      0.67279636055293     -4.90362723827640
  H   0.40245414805613      2.38278032670779     -4.47299090120880
$end


$rem
N_FROZEN_CORE FC
MEM_TOTAL 3750
MEM_STATIC 1500
AUX_BASIS_CORR rimp2-def2-QZVPPD
SCF_CONVERGENCE 7
SCF_ALGORITHM  GDM
method DSD-PBEPBE-D3
GEN_SCFMAN TRUE
UNRESTRICTED True
THRESH  14
SYMMETRY FALSE
SYM_IGNORE TRUE
max_scf_cycles 200

XC_GRID 000099000590
BASIS DEF2-QZVPP


$end










