$molecule
0 2
  C   0.90537346394717     -1.21136514825042      3.00784303022408
  H   1.97907154568417     -1.28742713667537      2.97434674910113
  H   0.43754951558089     -0.25075378819775      3.14230751683922
  H   0.29954547478775     -2.09591392687648      2.90646270383557
$end


$rem
N_FROZEN_CORE FC
MEM_TOTAL 3750
MEM_STATIC 1500
AUX_BASIS_CORR rimp2-def2-QZVPPD
SCF_CONVERGENCE 7
SCF_ALGORITHM  GDM
method DSD-PBEPBE-D3
GEN_SCFMAN TRUE
UNRESTRICTED True
THRESH  14
SYMMETRY FALSE
SYM_IGNORE TRUE
max_scf_cycles 200

XC_GRID 000099000590
BASIS DEF2-QZVPP


$end










