$molecule
0 1
  O   -1.46766729143296      0.04342085302022      0.72224814322783
  H   -2.05640262947547      0.24962322554676      1.45578794385055
  H   -2.02983007909156     -0.43528407856698      0.10416391292162
$end


$rem
N_FROZEN_CORE FC
MEM_TOTAL 3750
MEM_STATIC 1500
AUX_BASIS_CORR rimp2-def2-QZVPPD
SCF_CONVERGENCE 7
SCF_ALGORITHM  GDM
method DSD-PBEPBE-D3
GEN_SCFMAN TRUE
UNRESTRICTED True
THRESH  14
SYMMETRY FALSE
SYM_IGNORE TRUE
max_scf_cycles 200

XC_GRID 000099000590
BASIS DEF2-QZVPP


$end










