$molecule
0 1
C  -0.942433069235  -0.390948236107  0.0
C  0.327758005265  0.435043574357  0.0
O  1.4412779374  -0.463072418001  0.0
H  2.25487899983  0.0522125397139  0.0
H  -1.82041268954  0.259457152054  0.0
H  -0.985201013189  -1.02878963625  -0.88479825215
H  -0.985201013189  -1.02878963625  0.88479825215
H  0.35466642133  1.08244333024  0.886601663295
H  0.35466642133  1.08244333024  -0.886601663295
$end


$rem
N_FROZEN_CORE FC
MEM_TOTAL 3750
MEM_STATIC 1500
AUX_BASIS_CORR rimp2-def2-QZVPPD
SCF_CONVERGENCE 7
SCF_ALGORITHM  GDM
method DSD-PBEPBE-D3
GEN_SCFMAN TRUE
UNRESTRICTED True
THRESH  14
SYMMETRY FALSE
SYM_IGNORE TRUE
max_scf_cycles 200

XC_GRID 000099000590
BASIS DEF2-QZVPPD


$end










