$molecule
0 1
C  0.0  0.0  -0.805219986381
C  0.0  0.0  0.698339766784
F  0.628027785419  -1.08777603291  1.20195256292
F  0.628027785419  1.08777603291  1.20195256292
F  -1.25605557084  0.0  1.20195256292
H  1.02737854369  0.0  -1.16632582305
H  -0.513689271847  -0.889735918142  -1.16632582305
H  -0.513689271847  0.889735918142  -1.16632582305
$end


$rem
N_FROZEN_CORE FC
MEM_TOTAL 3750
MEM_STATIC 1500
AUX_BASIS_CORR rimp2-def2-QZVPPD
SCF_CONVERGENCE 7
SCF_ALGORITHM  GDM
method DSD-PBEPBE-D3
GEN_SCFMAN TRUE
UNRESTRICTED True
THRESH  14
SYMMETRY FALSE
SYM_IGNORE TRUE
max_scf_cycles 200

XC_GRID 000099000590
BASIS DEF2-QZVPPD


$end










