$molecule
0 1
C  0.663497976959  -0.00785641919832  0.0
N  -0.840391952174  -0.0170914365196  0.0
O  -1.39776887919  -0.00425296772102  -1.0863860073
O  -1.39776887919  -0.00425296772102  1.0863860073
H  1.00250262761  -0.502243991599  0.904671621045
H  0.967426478385  1.03794177436  0.0
H  1.00250262761  -0.502243991599  -0.904671621045
$end


$rem
N_FROZEN_CORE FC
MEM_TOTAL 3750
MEM_STATIC 1500
AUX_BASIS_CORR rimp2-def2-QZVPPD
SCF_CONVERGENCE 7
SCF_ALGORITHM  GDM
method DSD-PBEPBE-D3
GEN_SCFMAN TRUE
UNRESTRICTED True
THRESH  14
SYMMETRY FALSE
SYM_IGNORE TRUE
max_scf_cycles 200

XC_GRID 000099000590
BASIS DEF2-QZVPPD


$end










