$molecule
0 1
C  0.0  -1.17550804457  0.0452183881714
O  0.0  0.0  0.828922431576
C  0.0  1.17550804457  0.0452183881714
H  0.0  -2.02278145565  0.730196961439
H  -0.891497199704  -1.23518723674  -0.594938282699
H  0.891497199704  -1.23518723674  -0.594938282699
H  0.0  2.02278145565  0.730196961439
H  -0.891497199704  1.23518723674  -0.594938282699
H  0.891497199704  1.23518723674  -0.594938282699
$end


$rem
N_FROZEN_CORE FC
MEM_TOTAL 3750
MEM_STATIC 1500
AUX_BASIS_CORR rimp2-def2-QZVPPD
SCF_CONVERGENCE 7
SCF_ALGORITHM  GDM
method DSD-PBEPBE-D3
GEN_SCFMAN TRUE
UNRESTRICTED True
THRESH  14
SYMMETRY FALSE
SYM_IGNORE TRUE
max_scf_cycles 200

XC_GRID 000099000590
BASIS DEF2-QZVPPD


$end










