$molecule
0 2
C  0.0  0.0  0.920032858825
C  1.2151064764  0.0  0.177885808614
C  1.20838493792  0.0  -1.20344049146
C  0.0  0.0  -1.90734503116
C  -1.20838493792  0.0  -1.20344049146
C  -1.2151064764  0.0  0.177885808614
C  0.0  0.0  2.32263869724
H  2.15586158129  0.0  0.716719140237
H  2.14697022897  0.0  -1.74543124706
H  0.0  0.0  -2.99035959369
H  -2.14697022897  0.0  -1.74543124706
H  -2.15586158129  0.0  0.716719140237
H  0.926381325666  0.0  2.88178332406
H  -0.926381325666  0.0  2.88178332406
$end


$rem
N_FROZEN_CORE FC
MEM_TOTAL 7500
MEM_STATIC 3000
AUX_BASIS_CORR rimp2-def2-QZVPPD
SCF_CONVERGENCE 7
SCF_ALGORITHM  GDM
method DSD-PBEPBE-D3
GEN_SCFMAN TRUE
UNRESTRICTED True
THRESH  14
SYMMETRY FALSE
SYM_IGNORE TRUE
max_scf_cycles 200

XC_GRID 000099000590
BASIS DEF2-QZVPPD


$end










