$molecule
1 1
C  -0.731002388639  0.214765500273  0.0
S  1.11935449974  0.291587948355  0.0
H  1.39077948832  -0.593095279545  0.997425251237
H  1.39077948832  -0.593095279545  -0.997425251237
H  -1.05146531098  0.748787170335  0.892206753242
H  -1.06698046579  -0.817737230209  0.0
H  -1.05146531098  0.748787170335  -0.892206753242
$end


$rem
N_FROZEN_CORE FC
MEM_TOTAL 3750
MEM_STATIC 1500
AUX_BASIS_CORR rimp2-def2-QZVPPD
SCF_CONVERGENCE 7
SCF_ALGORITHM  GDM
method DSD-PBEPBE-D3
GEN_SCFMAN TRUE
UNRESTRICTED True
THRESH  14
SYMMETRY FALSE
SYM_IGNORE TRUE
max_scf_cycles 200

XC_GRID 000099000590
BASIS DEF2-QZVPPD


$end










