$molecule
0 2
C  -1.49839768072  0.226528074907  0.0
N  -0.192288552084  -0.2261591907  0.0
C  0.572112881571  -0.0636208959978  1.22355320182
C  0.572112881571  -0.0636208959978  -1.22355320182
H  -2.04244728728  0.14920716803  -0.931348278627
H  -2.04244728728  0.14920716803  0.931348278627
H  -0.0420362421865  -0.350118039056  -2.07804571545
H  0.906440542645  0.974859634763  -1.37134595039
H  1.45127322165  -0.710512309842  -1.19906906915
H  -0.0420362421865  -0.350118039056  2.07804571545
H  0.906440542645  0.974859634763  1.37134595039
H  1.45127322165  -0.710512309842  1.19906906915
$end


$rem
N_FROZEN_CORE FC
MEM_TOTAL 3750
MEM_STATIC 1500
AUX_BASIS_CORR rimp2-def2-QZVPPD
SCF_CONVERGENCE 7
SCF_ALGORITHM  GDM
method DSD-PBEPBE-D3
GEN_SCFMAN TRUE
UNRESTRICTED True
THRESH  14
SYMMETRY FALSE
SYM_IGNORE TRUE
max_scf_cycles 200

XC_GRID 000099000590
BASIS DEF2-QZVPPD


$end










