$molecule
0 1
C  0.228601066575  -0.0194464266267  -1.3747096871
S  -0.798463254234  -0.693319833575  0.0
C  0.228601066575  -0.0194464266267  1.3747096871
H  -0.292851980545  -0.267441618008  -2.2975228736
H  1.21588952132  -0.482944296006  -1.36627372724
H  0.295639392129  1.06273903206  -1.26489010765
H  0.295639392129  1.06273903206  1.26489010765
H  -0.292851980545  -0.267441618008  2.2975228736
H  1.21588952132  -0.482944296006  1.36627372724
O  -2.09609274472  0.107506450743  0.0
$end


$rem
N_FROZEN_CORE FC
MEM_TOTAL 3750
MEM_STATIC 1500
AUX_BASIS_CORR rimp2-def2-QZVPPD
SCF_CONVERGENCE 7
SCF_ALGORITHM  GDM
method DSD-PBEPBE-D3
GEN_SCFMAN TRUE
UNRESTRICTED True
THRESH  14
SYMMETRY FALSE
SYM_IGNORE TRUE
max_scf_cycles 200

XC_GRID 000099000590
BASIS DEF2-QZVPPD


$end










