$molecule
0 1
C  -0.597996338059  0.394226386697  -0.19084659481
C  0.681272906845  -0.413471994938  0.0206030338994
N  1.81490657358  0.319605341403  0.193412826342
N  -1.73711357021  -0.354185841165  0.318252909846
O  0.68394260597  -1.63099043743  -0.0131941226661
H  -2.59389800614  -0.0871348215317  -0.149329537456
H  -1.57573969985  -1.34407847578  0.158798033939
H  1.79515149758  1.3174448006  0.312357980102
H  2.69022481761  -0.166471688997  0.305039212651
H  -0.639974898228  0.604058623383  -1.27248655654
H  -0.520775889109  1.36099810776  0.317392814693
$end


$rem
N_FROZEN_CORE FC
MEM_TOTAL 3750
MEM_STATIC 1500
AUX_BASIS_CORR rimp2-def2-QZVPPD
SCF_CONVERGENCE 7
SCF_ALGORITHM  GDM
method DSD-PBEPBE-D3
GEN_SCFMAN TRUE
UNRESTRICTED True
THRESH  14
SYMMETRY FALSE
SYM_IGNORE TRUE
max_scf_cycles 200

XC_GRID 000099000590
BASIS DEF2-QZVPPD


$end










