$molecule
0 2
C  -0.937133695628  -0.310424556708  0.0783643445477
N  0.186095621844  0.464282063668  -0.0859392187971
H  -0.991620400132  -1.24262993069  -0.462737136361
H  0.212427713862  1.26867066076  0.532762443334
H  -1.82238479883  0.176058086862  0.459968516028
O  1.42437668549  -0.269513866995  0.140633492656
H  1.9282388734  -0.0864424568898  -0.663052441408
$end


$rem
N_FROZEN_CORE FC
MEM_TOTAL 3750
MEM_STATIC 1500
AUX_BASIS_CORR rimp2-def2-QZVPPD
SCF_CONVERGENCE 7
SCF_ALGORITHM  GDM
method DSD-PBEPBE-D3
GEN_SCFMAN TRUE
UNRESTRICTED True
THRESH  14
SYMMETRY FALSE
SYM_IGNORE TRUE
max_scf_cycles 200

XC_GRID 000099000590
BASIS DEF2-QZVPPD


$end










