$molecule
0 2
C  0.682684310848  -0.0247665730805  0.0
N  -0.706279478288  0.0878647477399  0.0
H  1.18727741901  0.199450858616  0.929583222761
H  -1.17547983529  -0.230999945945  -0.83522420345
H  1.18727741901  0.199450858616  -0.929583222761
H  -1.17547983529  -0.230999945945  0.83522420345
$end


$rem
N_FROZEN_CORE FC
MEM_TOTAL 3750
MEM_STATIC 1500
AUX_BASIS_CORR rimp2-def2-QZVPPD
SCF_CONVERGENCE 7
SCF_ALGORITHM  GDM
method DSD-PBEPBE-D3
GEN_SCFMAN TRUE
UNRESTRICTED True
THRESH  14
SYMMETRY FALSE
SYM_IGNORE TRUE
max_scf_cycles 200

XC_GRID 000099000590
BASIS DEF2-QZVPPD


$end










