$molecule
0 1
C  0.0  0.0  -0.488521141202
C  0.0  0.0  0.966972505426
N  0.0  0.0  2.11795716512
H  -0.511937420456  -0.886701622525  -0.865469509782
H  -0.511937420456  0.886701622525  -0.865469509782
H  1.02387484091  0.0  -0.865469509782
$end


$rem
N_FROZEN_CORE FC
MEM_TOTAL 3750
MEM_STATIC 1500
AUX_BASIS_CORR rimp2-def2-QZVPPD
SCF_CONVERGENCE 7
SCF_ALGORITHM  GDM
method DSD-PBEPBE-D3
GEN_SCFMAN TRUE
UNRESTRICTED True
THRESH  14
SYMMETRY FALSE
SYM_IGNORE TRUE
max_scf_cycles 200

XC_GRID 000099000590
BASIS DEF2-QZVPPD


$end










