$molecule
0 2
C  -0.735284580171  0.532186092299  0.0
C  0.270881318499  -0.515365898169  0.0
CL  2.01185906312  0.253935951136  0.0
H  -1.04594024159  0.993158981511  -0.928366497001
H  -1.04594024159  0.993158981511  0.928366497001
H  0.272212340864  -1.12853705414  -0.896086729221
H  0.272212340864  -1.12853705414  0.896086729221
$end


$rem
N_FROZEN_CORE FC
MEM_TOTAL 3750
MEM_STATIC 1500
AUX_BASIS_CORR rimp2-def2-QZVPPD
SCF_CONVERGENCE 7
SCF_ALGORITHM  GDM
method DSD-PBEPBE-D3
GEN_SCFMAN TRUE
UNRESTRICTED True
THRESH  14
SYMMETRY FALSE
SYM_IGNORE TRUE
max_scf_cycles 200

XC_GRID 000099000590
BASIS DEF2-QZVPPD


$end










