$molecule
0 2
H  0.934511533945  0.0  -1.11036704301
C  0.0  0.0  -0.567026946325
C  0.0  0.0  0.810281312737
H  -0.934511533945  0.0  -1.11036704301
N  0.0  0.0  1.97747971962
$end


$rem
N_FROZEN_CORE FC
MEM_TOTAL 3750
MEM_STATIC 1500
AUX_BASIS_CORR rimp2-def2-QZVPPD
SCF_CONVERGENCE 7
SCF_ALGORITHM  GDM
method DSD-PBEPBE-D3
GEN_SCFMAN TRUE
UNRESTRICTED True
THRESH  14
SYMMETRY FALSE
SYM_IGNORE TRUE
max_scf_cycles 200

XC_GRID 000099000590
BASIS DEF2-QZVPPD


$end










