$molecule
0 2
C  -0.564447525754  0.00700613312074  0.0412815048226
C  0.911860346718  -0.0104883417973  -0.0117630277456
F  -1.12140445221  -0.0122687634315  -1.20145709887
F  -1.05730120294  -1.0661773793  0.700037764183
F  -1.03309922823  1.11584543187  0.656381144549
H  1.42048611084  -0.958771454567  -0.0925331162162
H  1.44390595157  0.9248543741  -0.0919471707219
$end


$rem
N_FROZEN_CORE FC
MEM_TOTAL 3750
MEM_STATIC 1500
AUX_BASIS_CORR rimp2-def2-QZVPPD
SCF_CONVERGENCE 7
SCF_ALGORITHM  GDM
method DSD-PBEPBE-D3
GEN_SCFMAN TRUE
UNRESTRICTED True
THRESH  14
SYMMETRY FALSE
SYM_IGNORE TRUE
max_scf_cycles 200

XC_GRID 000099000590
BASIS DEF2-QZVPPD


$end










