$molecule
1 1
C  0.0  0.0  -0.971089391528
P  0.0  0.0  0.844095058847
H  -0.651677005825  1.12873768421  1.37020152125
H  -0.651677005825  -1.12873768421  1.37020152125
H  1.30335401165  0.0  1.37020152125
H  -1.03038565232  0.0  -1.32787007703
H  0.515192826159  0.892340150602  -1.32787007703
H  0.515192826159  -0.892340150602  -1.32787007703
$end


$rem
N_FROZEN_CORE FC
MEM_TOTAL 3750
MEM_STATIC 1500
AUX_BASIS_CORR rimp2-def2-QZVPPD
SCF_CONVERGENCE 7
SCF_ALGORITHM  GDM
method DSD-PBEPBE-D3
GEN_SCFMAN TRUE
UNRESTRICTED True
THRESH  14
SYMMETRY FALSE
SYM_IGNORE TRUE
max_scf_cycles 200

XC_GRID 000099000590
BASIS DEF2-QZVPPD


$end










