$molecule
0 2
C  -2.00696075397  0.0022808402744  0.405321901937
C  -0.771271254743  0.0144488304501  -0.360655803528
N  0.388500867777  0.0381904070289  0.375151804717
O  -0.759324231679  0.0146771906315  -1.59140215419
H  0.335365411361  -0.04827606744  1.37604481355
C  1.69079541358  -0.00167654843888  -0.262931468954
H  -2.02519580392  0.00409298636938  1.48819275802
H  -2.93897124266  -0.00831976184774  -0.139733505217
H  1.7068530237  0.69066117662  -1.10436167762
H  1.92918689028  -0.999341508671  -0.645411759568
H  2.45102168028  0.293262455023  0.45978509085
$end


$rem
N_FROZEN_CORE FC
MEM_TOTAL 3750
MEM_STATIC 1500
AUX_BASIS_CORR rimp2-def2-QZVPPD
SCF_CONVERGENCE 7
SCF_ALGORITHM  GDM
method DSD-PBEPBE-D3
GEN_SCFMAN TRUE
UNRESTRICTED True
THRESH  14
SYMMETRY FALSE
SYM_IGNORE TRUE
max_scf_cycles 200

XC_GRID 000099000590
BASIS DEF2-QZVPPD


$end










