$molecule
1 2
C  -0.8215592245  0.191153863527  0.00406872243593
S  0.950480886777  0.295790927333  0.00496870340698
H  -1.30957900156  0.33694277127  0.957813749621
H  1.24402954239  -0.560847589657  -1.01589853121
H  -1.30975336286  0.327610095459  -0.95092215559
H  1.24638115975  -0.590650067931  0.999969511335
$end


$rem
N_FROZEN_CORE FC
MEM_TOTAL 3750
MEM_STATIC 1500
AUX_BASIS_CORR rimp2-def2-QZVPPD
SCF_CONVERGENCE 7
SCF_ALGORITHM  GDM
method DSD-PBEPBE-D3
GEN_SCFMAN TRUE
UNRESTRICTED True
THRESH  14
SYMMETRY FALSE
SYM_IGNORE TRUE
max_scf_cycles 200

XC_GRID 000099000590
BASIS DEF2-QZVPPD


$end










