$molecule
0 2
C  -0.86977793978  -1.24014057875  0.0431305326026
S  -0.654054684034  0.375471604077  -0.608961232332
O  -1.58554113621  1.34685124311  0.0955259793222
C  1.06528112984  0.698064869355  0.00707099068972
H  -1.84687952612  -1.46071011912  0.451189780547
H  -0.230575479507  -2.03100515271  -0.330382626044
H  1.74228925823  -0.0566614840165  -0.392208046799
H  1.33525132177  1.68656596873  -0.360135701965
H  1.04400705582  0.681563649331  1.09477032398
$end


$rem
N_FROZEN_CORE FC
MEM_TOTAL 3750
MEM_STATIC 1500
AUX_BASIS_CORR rimp2-def2-QZVPPD
SCF_CONVERGENCE 7
SCF_ALGORITHM  GDM
method DSD-PBEPBE-D3
GEN_SCFMAN TRUE
UNRESTRICTED True
THRESH  14
SYMMETRY FALSE
SYM_IGNORE TRUE
max_scf_cycles 200

XC_GRID 000099000590
BASIS DEF2-QZVPPD


$end










