$molecule
0 1
C  -0.464814148148  0.195111019008  0.0
S  1.37476059711  0.251124214159  0.0
H  1.57790566673  -1.08429440523  0.0
H  -0.798784240404  1.23132127267  0.0
H  -0.844533937647  -0.296631050301  -0.893590217323
H  -0.844533937647  -0.296631050301  0.893590217323
$end


$rem
N_FROZEN_CORE FC
MEM_TOTAL 3750
MEM_STATIC 1500
AUX_BASIS_CORR rimp2-def2-QZVPPD
SCF_CONVERGENCE 7
SCF_ALGORITHM  GDM
method DSD-PBEPBE-D3
GEN_SCFMAN TRUE
UNRESTRICTED True
THRESH  14
SYMMETRY FALSE
SYM_IGNORE TRUE
max_scf_cycles 200

XC_GRID 000099000590
BASIS DEF2-QZVPPD


$end










