$molecule
0 1
C  -1.47550957587  0.124475954893  0.0
C  -0.114069369865  -0.530333482672  0.0
C  1.03107521588  0.0905898666485  0.754872811947
C  1.03107521588  0.0905898666485  -0.754872811947
H  -2.05349405035  -0.159658995678  -0.884045607175
H  -2.05349405035  -0.159658995678  0.884045607175
H  -1.38502321371  1.21413547505  0.0
H  -0.137718222361  -1.61563203906  0.0
H  0.849204434367  1.03238665059  1.25933943022
H  1.72937459101  -0.559640475667  1.26697599239
H  0.849204434367  1.03238665059  -1.25933943022
H  1.72937459101  -0.559640475667  -1.26697599239
$end


$rem
N_FROZEN_CORE FC
MEM_TOTAL 3750
MEM_STATIC 1500
AUX_BASIS_CORR rimp2-def2-QZVPPD
SCF_CONVERGENCE 7
SCF_ALGORITHM  GDM
method DSD-PBEPBE-D3
GEN_SCFMAN TRUE
UNRESTRICTED True
THRESH  14
SYMMETRY FALSE
SYM_IGNORE TRUE
max_scf_cycles 200

XC_GRID 000099000590
BASIS DEF2-QZVPPD


$end










