$molecule
0 1
C  -0.962989806413  0.0800749610528  0.0
C  0.530589811767  0.251422533581  0.0
O  1.16969497589  -0.948011753937  0.0
O  1.12511886186  1.29867168568  0.0
H  2.12235470462  -0.763408319376  0.0
H  -1.44059993858  1.05608639028  0.0
H  -1.27208430457  -0.48741774864  0.879729300974
H  -1.27208430457  -0.48741774864  -0.879729300974
$end


$rem
N_FROZEN_CORE FC
MEM_TOTAL 3750
MEM_STATIC 1500
AUX_BASIS_CORR rimp2-def2-QZVPPD
SCF_CONVERGENCE 7
SCF_ALGORITHM  GDM
method DSD-PBEPBE-D3
GEN_SCFMAN TRUE
UNRESTRICTED True
THRESH  14
SYMMETRY FALSE
SYM_IGNORE TRUE
max_scf_cycles 200

XC_GRID 000099000590
BASIS DEF2-QZVPPD


$end










