$molecule
0 2
C  0.0534633037531  -0.501046980691  0.0
C  0.0289156923287  0.955967968893  0.0
CL  -1.68692910824  -1.13948012417  0.0
CL  0.877259486071  -1.13649139506  -1.47819980863
CL  0.877259486071  -1.13649139506  1.47819980863
H  -0.0752313133489  1.47873084082  -0.939035598297
H  -0.0752313133489  1.47873084082  0.939035598297
$end


$rem
N_FROZEN_CORE FC
MEM_TOTAL 3750
MEM_STATIC 1500
AUX_BASIS_CORR rimp2-def2-QZVPPD
SCF_CONVERGENCE 7
SCF_ALGORITHM  GDM
method DSD-PBEPBE-D3
GEN_SCFMAN TRUE
UNRESTRICTED True
THRESH  14
SYMMETRY FALSE
SYM_IGNORE TRUE
max_scf_cycles 200

XC_GRID 000099000590
BASIS DEF2-QZVPPD


$end










