$molecule
0 2
C  -1.35869474334  -0.715774694178  -0.359001023362
S  -0.361144788187  0.560528665917  0.328490815905
C  1.33475238964  0.0629857763664  -0.0776304760391
H  -1.02177148784  -1.74186411837  -0.312952396602
H  -2.38596818148  -0.4503608875  -0.563726940792
O  -0.665648953079  1.81493416762  -0.392156637267
O  -0.503917776714  0.505013440527  1.80389219171
H  1.44449841283  0.0311285840796  -1.15966315355
H  1.97354642585  0.834230676888  0.350543903502
H  1.54434870231  -0.90082161135  0.38220371649
$end


$rem
N_FROZEN_CORE FC
MEM_TOTAL 3750
MEM_STATIC 1500
AUX_BASIS_CORR rimp2-def2-QZVPPD
SCF_CONVERGENCE 7
SCF_ALGORITHM  GDM
method DSD-PBEPBE-D3
GEN_SCFMAN TRUE
UNRESTRICTED True
THRESH  14
SYMMETRY FALSE
SYM_IGNORE TRUE
max_scf_cycles 200

XC_GRID 000099000590
BASIS DEF2-QZVPPD


$end










