$molecule
0 1
C  -0.567600930227  0.0922570763985  0.0
N  0.894011074018  0.175013177342  0.0
H  1.28469252774  -0.281727330997  0.815636945224
H  1.28469252774  -0.281727330997  -0.815636945224
H  -0.95722232436  0.611578913156  0.877952757135
H  -0.981350550556  -0.926973418058  0.0
H  -0.95722232436  0.611578913156  -0.877952757135
$end


$rem
N_FROZEN_CORE FC
MEM_TOTAL 3750
MEM_STATIC 1500
AUX_BASIS_CORR rimp2-def2-QZVPPD
SCF_CONVERGENCE 7
SCF_ALGORITHM  GDM
method DSD-PBEPBE-D3
GEN_SCFMAN TRUE
UNRESTRICTED True
THRESH  14
SYMMETRY FALSE
SYM_IGNORE TRUE
max_scf_cycles 200

XC_GRID 000099000590
BASIS DEF2-QZVPPD


$end










