$molecule
0 2
C  -1.92475663314  -0.512034700262  0.0
C  -0.696621625039  0.247100874375  0.0
O  0.398971361082  -0.558352709217  0.0
O  -0.63156382861  1.46311788886  0.0
C  1.66744599235  0.115132555542  0.0
H  -1.91226680384  -1.59229287716  0.0
H  -2.85917074939  0.0286807504912  0.0
H  2.41596966876  -0.673070627101  0.0
H  1.77099630892  0.740859422237  0.887613120533
H  1.77099630892  0.740859422237  -0.887613120533
$end


$rem
N_FROZEN_CORE FC
MEM_TOTAL 3750
MEM_STATIC 1500
AUX_BASIS_CORR rimp2-def2-QZVPPD
SCF_CONVERGENCE 7
SCF_ALGORITHM  GDM
method DSD-PBEPBE-D3
GEN_SCFMAN TRUE
UNRESTRICTED True
THRESH  14
SYMMETRY FALSE
SYM_IGNORE TRUE
max_scf_cycles 200

XC_GRID 000099000590
BASIS DEF2-QZVPPD


$end










