$molecule
0 2
C  -1.04275413979  -0.458121094332  0.0
C  0.18573307713  0.363169382224  0.0
O  1.32617102549  -0.494514101394  0.0
H  -0.971831933409  -1.53619722038  0.0
H  -2.01334081243  0.0185123362179  0.0
H  0.197677114973  1.02888483348  -0.881589075117
H  0.197677114973  1.02888483348  0.881589075117
H  2.12066855306  0.0493810306948  0.0
$end


$rem
N_FROZEN_CORE FC
MEM_TOTAL 3750
MEM_STATIC 1500
AUX_BASIS_CORR rimp2-def2-QZVPPD
SCF_CONVERGENCE 7
SCF_ALGORITHM  GDM
method DSD-PBEPBE-D3
GEN_SCFMAN TRUE
UNRESTRICTED True
THRESH  14
SYMMETRY FALSE
SYM_IGNORE TRUE
max_scf_cycles 200

XC_GRID 000099000590
BASIS DEF2-QZVPPD


$end










