$molecule
0 1
C  -0.594622672128  0.261915686099  0.0
C  0.791652010964  -0.318468134127  0.0
O  1.80877787365  0.32844988057  0.0
H  -0.560412966613  1.35044670526  0.0
H  -1.14144408897  -0.0966465739821  0.87804037095
H  -1.14144408897  -0.0966465739821  -0.87804037095
H  0.837493932059  -1.42905098983  0.0
$end


$rem
N_FROZEN_CORE FC
MEM_TOTAL 3750
MEM_STATIC 1500
AUX_BASIS_CORR rimp2-def2-QZVPPD
SCF_CONVERGENCE 7
SCF_ALGORITHM  GDM
method DSD-PBEPBE-D3
GEN_SCFMAN TRUE
UNRESTRICTED True
THRESH  14
SYMMETRY FALSE
SYM_IGNORE TRUE
max_scf_cycles 200

XC_GRID 000099000590
BASIS DEF2-QZVPPD


$end










