$molecule
0 1
C  -1.0030357382  -0.688970101525  0.0
S  -0.524028697993  1.07825252718  0.0
C  1.25183643438  0.910460948284  0.0
O  1.86065030351  -0.126199030672  0.0
H  -2.09086651077  -0.714317649264  0.0
H  -0.616404261293  -1.18017999833  -0.889453794725
H  -0.616404261293  -1.18017999833  0.889453794725
H  1.73825273165  1.90113330267  0.0
$end


$rem
N_FROZEN_CORE FC
MEM_TOTAL 3750
MEM_STATIC 1500
AUX_BASIS_CORR rimp2-def2-QZVPPD
SCF_CONVERGENCE 7
SCF_ALGORITHM  GDM
method DSD-PBEPBE-D3
GEN_SCFMAN TRUE
UNRESTRICTED True
THRESH  14
SYMMETRY FALSE
SYM_IGNORE TRUE
max_scf_cycles 200

XC_GRID 000099000590
BASIS DEF2-QZVPPD


$end










