$molecule
0 1
C  -0.667444523454  -0.392941554206  0.0
C  0.593443818712  0.440054240647  0.0
F  1.72185441345  -0.395047878492  0.0
H  -1.54384854729  0.260749453934  0.0
H  -0.713382077909  -1.0279127399  -0.886406607987
H  -0.713382077909  -1.0279127399  0.886406607987
H  0.6613794972  1.07150560896  0.889499994337
H  0.6613794972  1.07150560896  -0.889499994337
$end


$rem
N_FROZEN_CORE FC
MEM_TOTAL 3750
MEM_STATIC 1500
AUX_BASIS_CORR rimp2-def2-QZVPPD
SCF_CONVERGENCE 7
SCF_ALGORITHM  GDM
method DSD-PBEPBE-D3
GEN_SCFMAN TRUE
UNRESTRICTED True
THRESH  14
SYMMETRY FALSE
SYM_IGNORE TRUE
max_scf_cycles 200

XC_GRID 000099000590
BASIS DEF2-QZVPPD


$end










