$molecule
0 2
C  -1.59110755576  0.148910610255  0.0
C  -0.266500862871  -0.49203558876  0.0
C  0.891731846243  0.115316280679  0.754672337768
C  0.891731846243  0.115316280679  -0.754672337768
H  -2.11863352396  0.334860035613  0.928316721811
H  -2.11863352396  0.334860035613  -0.928316721811
H  -0.280871427161  -1.58319792799  0.0
H  1.57611436309  -0.548114931451  1.26856495581
H  0.720027237526  1.06110006841  1.25376603781
H  1.57611436309  -0.548114931451  -1.26856495581
H  0.720027237526  1.06110006841  -1.25376603781
$end


$rem
N_FROZEN_CORE FC
MEM_TOTAL 3750
MEM_STATIC 1500
AUX_BASIS_CORR rimp2-def2-QZVPPD
SCF_CONVERGENCE 7
SCF_ALGORITHM  GDM
method DSD-PBEPBE-D3
GEN_SCFMAN TRUE
UNRESTRICTED True
THRESH  14
SYMMETRY FALSE
SYM_IGNORE TRUE
max_scf_cycles 200

XC_GRID 000099000590
BASIS DEF2-QZVPPD


$end










