$molecule
1 1
C  0.0  0.0  -0.770600848561
N  0.0  0.0  0.744788328072
H  -0.47664433338  0.825572202555  1.11980089105
H  -0.47664433338  -0.825572202555  1.11980089105
H  0.953288666761  0.0  1.11980089105
H  -1.03205456424  0.0  -1.11119671755
H  0.516027282122  0.893785470726  -1.11119671755
H  0.516027282122  -0.893785470726  -1.11119671755
$end


$rem
N_FROZEN_CORE FC
MEM_TOTAL 3750
MEM_STATIC 1500
AUX_BASIS_CORR rimp2-def2-QZVPPD
SCF_CONVERGENCE 7
SCF_ALGORITHM  GDM
method DSD-PBEPBE-D3
GEN_SCFMAN TRUE
UNRESTRICTED True
THRESH  14
SYMMETRY FALSE
SYM_IGNORE TRUE
max_scf_cycles 200

XC_GRID 000099000590
BASIS DEF2-QZVPPD


$end










