$molecule
0 2
C  -0.772851116328  0.417601555443  0.0
C  0.45764014494  -0.398988536297  0.0
F  1.6089668604  0.440556283011  0.0
H  -1.1829236328  0.792852248727  -0.92838996781
H  -1.1829236328  0.792852248727  0.92838996781
H  0.536045688298  -1.02243689981  -0.892550929479
H  0.536045688298  -1.02243689981  0.892550929479
$end


$rem
N_FROZEN_CORE FC
MEM_TOTAL 3750
MEM_STATIC 1500
AUX_BASIS_CORR rimp2-def2-QZVPPD
SCF_CONVERGENCE 7
SCF_ALGORITHM  GDM
method DSD-PBEPBE-D3
GEN_SCFMAN TRUE
UNRESTRICTED True
THRESH  14
SYMMETRY FALSE
SYM_IGNORE TRUE
max_scf_cycles 200

XC_GRID 000099000590
BASIS DEF2-QZVPPD


$end










