$molecule
0 2
H  0.551687790886  0.153298132022  -0.959369658124
C  0.116808953934  -0.0888539867934  0.0
F  -1.22018453571  -0.21774227725  0.0
H  0.551687790886  0.153298132022  0.959369658124
$end


$rem
N_FROZEN_CORE FC
MEM_TOTAL 3750
MEM_STATIC 1500
AUX_BASIS_CORR rimp2-def2-QZVPPD
SCF_CONVERGENCE 7
SCF_ALGORITHM  GDM
method DSD-PBEPBE-D3
GEN_SCFMAN TRUE
UNRESTRICTED True
THRESH  14
SYMMETRY FALSE
SYM_IGNORE TRUE
max_scf_cycles 200

XC_GRID 000099000590
BASIS DEF2-QZVPPD


$end










