$molecule
0 1
N  -0.943179128024  -0.63960716335  -0.149243560243
C  0.0210128451233  0.455086859435  -0.0520544269274
C  1.39674195331  -0.0502636803329  -0.0934369473928
N  2.48018147951  -0.438233179999  -0.0939483632257
H  -1.88564822418  -0.273292332711  -0.207195246787
H  -0.888710060081  -1.24972031485  0.658011698528
H  -0.113212305955  1.11680884241  -0.911706435965
H  -0.067186559701  1.0792209694  0.849573282013
$end


$rem
N_FROZEN_CORE FC
MEM_TOTAL 3750
MEM_STATIC 1500
AUX_BASIS_CORR rimp2-def2-QZVPPD
SCF_CONVERGENCE 7
SCF_ALGORITHM  GDM
method DSD-PBEPBE-D3
GEN_SCFMAN TRUE
UNRESTRICTED True
THRESH  14
SYMMETRY FALSE
SYM_IGNORE TRUE
max_scf_cycles 200

XC_GRID 000099000590
BASIS DEF2-QZVPPD


$end










