$molecule
0 1
C  0.0  -1.39649384419  0.016112791986
S  0.0  0.0  1.1986127771
C  0.0  1.39649384419  0.016112791986
H  0.0  -2.31224655226  0.606215127257
H  -0.892363366394  -1.38056224024  -0.610817153897
H  0.892363366394  -1.38056224024  -0.610817153897
H  0.0  2.31224655226  0.606215127257
H  -0.892363366394  1.38056224024  -0.610817153897
H  0.892363366394  1.38056224024  -0.610817153897
$end


$rem
N_FROZEN_CORE FC
MEM_TOTAL 3750
MEM_STATIC 1500
AUX_BASIS_CORR rimp2-def2-QZVPPD
SCF_CONVERGENCE 7
SCF_ALGORITHM  GDM
method DSD-PBEPBE-D3
GEN_SCFMAN TRUE
UNRESTRICTED True
THRESH  14
SYMMETRY FALSE
SYM_IGNORE TRUE
max_scf_cycles 200

XC_GRID 000099000590
BASIS DEF2-QZVPPD


$end










