$molecule
1 2
C  -0.865304085926  0.0381231645119  0.0
N  0.604373981417  0.0200831346327  0.0
H  -1.34955648618  -0.0520797360012  -0.95893303791
H  0.986432865083  0.492099204297  0.828097713744
H  -1.34955648618  -0.0520797360012  0.95893303791
H  0.987177346707  -0.938245235735  0.0
H  0.986432865083  0.492099204297  -0.828097713744
$end


$rem
N_FROZEN_CORE FC
MEM_TOTAL 3750
MEM_STATIC 1500
AUX_BASIS_CORR rimp2-def2-QZVPPD
SCF_CONVERGENCE 7
SCF_ALGORITHM  GDM
method DSD-PBEPBE-D3
GEN_SCFMAN TRUE
UNRESTRICTED True
THRESH  14
SYMMETRY FALSE
SYM_IGNORE TRUE
max_scf_cycles 200

XC_GRID 000099000590
BASIS DEF2-QZVPPD


$end










