$molecule
0 1
C  0.0  0.0  -0.951124512451
C  0.0  0.0  0.504520953089
C  0.0  0.0  1.70547899659
H  0.51017030646  0.883640891301  -1.3421979225
H  0.51017030646  -0.883640891301  -1.3421979225
H  -1.02034061292  0.0  -1.3421979225
H  0.0  0.0  2.76771833026
$end


$rem
N_FROZEN_CORE FC
MEM_TOTAL 3750
MEM_STATIC 1500
AUX_BASIS_CORR rimp2-def2-QZVPPD
SCF_CONVERGENCE 7
SCF_ALGORITHM  GDM
method DSD-PBEPBE-D3
GEN_SCFMAN TRUE
UNRESTRICTED True
THRESH  14
SYMMETRY FALSE
SYM_IGNORE TRUE
max_scf_cycles 200

XC_GRID 000099000590
BASIS DEF2-QZVPPD


$end










