$molecule
0 2
C  -0.426340007873  0.0751332347861  0.0
O  0.940114014215  0.187157171791  0.0
H  1.36671026959  -0.678776592243  0.0
H  -0.940242137966  0.208243092833  -0.945554117161
H  -0.940242137966  0.208243092833  0.945554117161
$end


$rem
N_FROZEN_CORE FC
MEM_TOTAL 3750
MEM_STATIC 1500
AUX_BASIS_CORR rimp2-def2-QZVPPD
SCF_CONVERGENCE 7
SCF_ALGORITHM  GDM
method DSD-PBEPBE-D3
GEN_SCFMAN TRUE
UNRESTRICTED True
THRESH  14
SYMMETRY FALSE
SYM_IGNORE TRUE
max_scf_cycles 200

XC_GRID 000099000590
BASIS DEF2-QZVPPD


$end










