$molecule
0 1
C  -0.341786445602  0.121293329929  0.0
O  1.07982848531  0.198788368938  0.0
H  1.43664414072  -0.695324768844  0.0
H  -0.713185863795  1.14551854446  0.0
H  -0.730750158314  -0.38513773724  -0.891466419253
H  -0.730750158314  -0.38513773724  0.891466419253
$end


$rem
N_FROZEN_CORE FC
MEM_TOTAL 3750
MEM_STATIC 1500
AUX_BASIS_CORR rimp2-def2-QZVPPD
SCF_CONVERGENCE 7
SCF_ALGORITHM  GDM
method DSD-PBEPBE-D3
GEN_SCFMAN TRUE
UNRESTRICTED True
THRESH  14
SYMMETRY FALSE
SYM_IGNORE TRUE
max_scf_cycles 200

XC_GRID 000099000590
BASIS DEF2-QZVPPD


$end










