$molecule
0 1
C  0.0  0.0  0.0665266644611
F  0.0  0.0  -1.32599112784
H  0.516355664803  0.894354246215  0.419821487793
H  0.516355664803  -0.894354246215  0.419821487793
H  -1.03271132961  0.0  0.419821487793
$end


$rem
N_FROZEN_CORE FC
MEM_TOTAL 3750
MEM_STATIC 1500
AUX_BASIS_CORR rimp2-def2-QZVPPD
SCF_CONVERGENCE 7
SCF_ALGORITHM  GDM
method DSD-PBEPBE-D3
GEN_SCFMAN TRUE
UNRESTRICTED True
THRESH  14
SYMMETRY FALSE
SYM_IGNORE TRUE
max_scf_cycles 200

XC_GRID 000099000590
BASIS DEF2-QZVPPD


$end










