$molecule
0 2
C  -1.32937576346  0.0216561976338  0.0
O  -0.188227404975  0.758146158564  0.0
C  1.04376754925  0.0263769003358  0.0
H  -1.81135840756  -0.183730498373  0.950652853704
H  -1.81135840756  -0.183730498373  -0.950652853704
H  1.84328228968  0.765625352612  0.0
H  1.12663507231  -0.6021718062  -0.892896071139
H  1.12663507231  -0.6021718062  0.892896071139
$end


$rem
N_FROZEN_CORE FC
MEM_TOTAL 3750
MEM_STATIC 1500
AUX_BASIS_CORR rimp2-def2-QZVPPD
SCF_CONVERGENCE 7
SCF_ALGORITHM  GDM
method DSD-PBEPBE-D3
GEN_SCFMAN TRUE
UNRESTRICTED True
THRESH  14
SYMMETRY FALSE
SYM_IGNORE TRUE
max_scf_cycles 200

XC_GRID 000099000590
BASIS DEF2-QZVPPD


$end










