$molecule
0 1
C  0.00615780586653  0.719254585931  0.0
C  -1.19602421485  0.00414318201557  0.0
C  -1.20274922024  -1.38589412099  0.0
C  -0.00214357293078  -2.09218331621  0.0
C  1.20029948938  -1.39451175161  0.0
C  1.20134022706  -0.00151200588712  0.0
C  0.00247515811005  2.22804658852  0.0
H  -2.13734499522  0.543949352223  0.0
H  -2.14605834647  -1.91973236113  0.0
H  -0.00594634879373  -3.17562857827  0.0
H  2.14101321691  -1.93281068692  0.0
H  2.14529106849  0.532731805169  0.0
H  1.01771369014  2.62724752075  0.0
H  -0.51201197873  2.62344989319  -0.880284006461
H  -0.51201197873  2.62344989319  0.880284006461
$end


$rem
N_FROZEN_CORE FC
MEM_TOTAL 7500
MEM_STATIC 3000
AUX_BASIS_CORR rimp2-def2-QZVPPD
SCF_CONVERGENCE 7
SCF_ALGORITHM  GDM
method DSD-PBEPBE-D3
GEN_SCFMAN TRUE
UNRESTRICTED True
THRESH  14
SYMMETRY FALSE
SYM_IGNORE TRUE
max_scf_cycles 200

XC_GRID 000099000590
BASIS DEF2-QZVPPD


$end










