$molecule
0 1
C  0.0  0.0  0.852780302246
C  0.0  0.0  -0.660215273722
CL  -0.850007110061  -1.47225550142  -1.28255715875
CL  -0.850007110061  1.47225550142  -1.28255715875
CL  1.70001422012  0.0  -1.28255715875
H  0.513136097938  -0.888777792825  1.21836881591
H  0.513136097938  0.888777792825  1.21836881591
H  -1.02627219588  0.0  1.21836881591
$end


$rem
N_FROZEN_CORE FC
MEM_TOTAL 3750
MEM_STATIC 1500
AUX_BASIS_CORR rimp2-def2-QZVPPD
SCF_CONVERGENCE 7
SCF_ALGORITHM  GDM
method DSD-PBEPBE-D3
GEN_SCFMAN TRUE
UNRESTRICTED True
THRESH  14
SYMMETRY FALSE
SYM_IGNORE TRUE
max_scf_cycles 200

XC_GRID 000099000590
BASIS DEF2-QZVPPD


$end










