$molecule
0 1
C  -1.02966896476  0.124578364437  0.0
O  0.261894743283  0.75625682762  0.0
C  1.33421833818  -0.0584422648127  0.0
O  2.45666877606  0.349785516572  0.0
H  -1.75565526488  0.93293550701  0.0
H  -1.16920486641  -0.486276534947  -0.894505439494
H  -1.16920486641  -0.486276534947  0.894505439494
H  1.07095210493  -1.13256088093  0.0
$end


$rem
N_FROZEN_CORE FC
MEM_TOTAL 3750
MEM_STATIC 1500
AUX_BASIS_CORR rimp2-def2-QZVPPD
SCF_CONVERGENCE 7
SCF_ALGORITHM  GDM
method DSD-PBEPBE-D3
GEN_SCFMAN TRUE
UNRESTRICTED True
THRESH  14
SYMMETRY FALSE
SYM_IGNORE TRUE
max_scf_cycles 200

XC_GRID 000099000590
BASIS DEF2-QZVPPD


$end










