$molecule
0 1
C  -1.20755722492  0.697183488867  0.0
C  -1.20755722492  -0.697183488867  0.0
C  0.0  -1.39436697773  0.0
C  1.20755722492  -0.697183488867  0.0
C  1.20755722492  0.697183488867  0.0
C  0.0  1.39436697773  0.0
H  -2.1439786671  1.23782666059  0.0
H  -2.1439786671  -1.23782666059  0.0
H  0.0  -2.47565332118  0.0
H  2.1439786671  -1.23782666059  0.0
H  2.1439786671  1.23782666059  0.0
H  0.0  2.47565332118  0.0
$end


$rem
N_FROZEN_CORE FC
MEM_TOTAL 3750
MEM_STATIC 1500
AUX_BASIS_CORR rimp2-def2-QZVPPD
SCF_CONVERGENCE 7
SCF_ALGORITHM  GDM
method DSD-PBEPBE-D3
GEN_SCFMAN TRUE
UNRESTRICTED True
THRESH  14
SYMMETRY FALSE
SYM_IGNORE TRUE
max_scf_cycles 200

XC_GRID 000099000590
BASIS DEF2-QZVPPD


$end










