$molecule
0 1
C  -1.20729471363  -0.697031927908  0.0
C  -1.20729471363  0.697031927908  0.0
C  0.0  1.39406385582  0.0
C  1.20729471363  0.697031927908  0.0
C  1.20729471363  -0.697031927908  0.0
C  0.0  -1.39406385582  0.0
H  -2.14375955893  -1.23770015843  0.0
H  -2.14375955893  1.23770015843  0.0
H  0.0  2.47540031685  0.0
H  2.14375955893  1.23770015843  0.0
H  2.14375955893  -1.23770015843  0.0
H  0.0  -2.47540031685  0.0
$end


$rem
N_FROZEN_CORE FC
MEM_TOTAL 3750
MEM_STATIC 1500
AUX_BASIS_CORR rimp2-def2-QZVPPD
SCF_CONVERGENCE 7
SCF_ALGORITHM  GDM
method DSD-PBEPBE-D3
GEN_SCFMAN TRUE
UNRESTRICTED True
THRESH  14
SYMMETRY FALSE
SYM_IGNORE TRUE
max_scf_cycles 200

XC_GRID 000099000590
BASIS DEF2-QZVPPD


$end










