$molecule
0 1
C  0.0  -0.667578232871  -1.76775615171
C  0.0  0.667578232871  -1.76775615171
C  0.0  0.0  3.25740754879
C  0.0  0.0  2.05014410528
H  -0.923621339922  1.23225345979  -1.76928225187
H  0.923621339922  1.23225345979  -1.76928225187
H  0.923621339922  -1.23225345979  -1.76928225187
H  -0.923621339922  -1.23225345979  -1.76928225187
H  0.0  0.0  0.984255749401
H  0.0  0.0  4.32083390744
$end


$rem
N_FROZEN_CORE FC
MEM_TOTAL 3750
MEM_STATIC 1500
AUX_BASIS_CORR rimp2-def2-QZVPPD
SCF_CONVERGENCE 7
SCF_ALGORITHM  GDM
method DSD-PBEPBE-D3
GEN_SCFMAN TRUE
UNRESTRICTED True
THRESH  14
SYMMETRY FALSE
SYM_IGNORE TRUE
max_scf_cycles 200

XC_GRID 000099000590
BASIS DEF2-QZVPPD


$end










