$molecule
0 1
C  0.0  0.0  -1.85916168016
C  0.0  0.0  1.85916168016
H  0.888621394245  -0.513045801175  -1.49459324916
H  0.0  1.02609160235  -1.49459324916
H  0.0  0.0  -2.94828494013
H  -0.888621394245  -0.513045801175  -1.49459324916
H  0.0  0.0  2.94828494013
H  -0.888621394245  0.513045801175  1.49459324916
H  0.888621394245  0.513045801175  1.49459324916
H  0.0  -1.02609160235  1.49459324916
$end


$rem
N_FROZEN_CORE FC
MEM_TOTAL 3750
MEM_STATIC 1500
AUX_BASIS_CORR rimp2-def2-QZVPPD
SCF_CONVERGENCE 7
SCF_ALGORITHM  GDM
method DSD-PBEPBE-D3
GEN_SCFMAN TRUE
UNRESTRICTED True
THRESH  14
SYMMETRY FALSE
SYM_IGNORE TRUE
max_scf_cycles 200

XC_GRID 000099000590
BASIS DEF2-QZVPPD


$end










