$molecule
0 1
N  -1.29694253362  0.430344862505  -0.0233959079616
N  -1.34139184092  -1.84193005382  0.412369962129
C  0.79405528303  -0.73523548795  0.147057651244
C  1.48888656612  0.439952852752  -0.0600380223777
C  0.780267392005  1.62787642106  -0.252421491489
C  -0.601690235626  1.56170731211  -0.224982583438
C  -0.614283968417  -0.713970829017  0.160664857233
H  2.57023980735  0.432975448637  -0.0737800245769
H  1.28138892468  2.56880649478  -0.420450436947
H  -1.19571639582  2.45575901053  -0.374501745069
H  1.31621746746  -1.66976183293  0.300243298156
H  -0.86023262187  -2.71490375544  0.286593495476
H  -2.32079784437  -1.84162044322  0.12264094762
$end


$rem
N_FROZEN_CORE FC
MEM_TOTAL 7500
MEM_STATIC 3000
AUX_BASIS_CORR rimp2-def2-QZVPPD
SCF_CONVERGENCE 7
SCF_ALGORITHM  GDM
method DSD-PBEPBE-D3
GEN_SCFMAN TRUE
UNRESTRICTED True
THRESH  14
SYMMETRY FALSE
SYM_IGNORE TRUE
max_scf_cycles 200

XC_GRID 000099000590
BASIS DEF2-QZVPPD


$end










