$molecule
0 1
C  -0.471925183903  -0.471925183903  -1.85911171692
C  0.471925183903  0.471925183903  -1.85911171692
C  -0.471925183903  0.471925183903  1.85911171692
C  0.471925183903  -0.471925183903  1.85911171692
H  -0.870464329179  -0.870464329179  -2.78330894013
H  0.870464329179  0.870464329179  -2.78330894013
H  -0.872422294487  -0.872422294487  -0.936125305826
H  0.872422294487  0.872422294487  -0.936125305826
H  -0.872422294487  0.872422294487  0.936125305826
H  0.872422294487  -0.872422294487  0.936125305826
H  -0.870464329179  0.870464329179  2.78330894013
H  0.870464329179  -0.870464329179  2.78330894013
$end


$rem
N_FROZEN_CORE FC
MEM_TOTAL 3750
MEM_STATIC 1500
AUX_BASIS_CORR rimp2-def2-QZVPPD
SCF_CONVERGENCE 7
SCF_ALGORITHM  GDM
method DSD-PBEPBE-D3
GEN_SCFMAN TRUE
UNRESTRICTED True
THRESH  14
SYMMETRY FALSE
SYM_IGNORE TRUE
max_scf_cycles 200

XC_GRID 000099000590
BASIS DEF2-QZVPPD


$end










