$molecule
0 1
O  -1.57235299066  -1.94544785228  0.0
C  -0.712801316561  -0.868696620173  0.0
C  -1.28310355736  0.401490708479  0.0
C  -0.454033669995  1.51850512309  0.0
C  0.932573579137  1.37415780756  0.0
C  1.49051209957  0.0987280726585  0.0
C  0.669692061416  -1.0272716456  0.0
H  -1.05067952346  -2.75459828699  0.0
H  -2.35971157184  0.500222065902  0.0
H  -0.897514230159  2.50439791923  0.0
H  1.57063230339  2.24607136747  0.0
H  2.56429807288  -0.0270448303682  0.0
H  1.10248874363  -2.02051382899  0.0
$end


$rem
N_FROZEN_CORE FC
MEM_TOTAL 7500
MEM_STATIC 3000
AUX_BASIS_CORR rimp2-def2-QZVPPD
SCF_CONVERGENCE 7
SCF_ALGORITHM  GDM
method DSD-PBEPBE-D3
GEN_SCFMAN TRUE
UNRESTRICTED True
THRESH  14
SYMMETRY FALSE
SYM_IGNORE TRUE
max_scf_cycles 200

XC_GRID 000099000590
BASIS DEF2-QZVPPD


$end










