$molecule
0 1
O  -1.65542060993  -0.123300384205  0.0
O  1.246212442  0.102688699732  0.0
H  -0.704090256992  0.031931674107  0.0
H  -2.03867273194  0.753722936356  0.0
H  1.57598557843  -0.382521462995  -0.758561293888
H  1.57598557843  -0.382521462995  0.758561293888
$end


$rem
N_FROZEN_CORE FC
MEM_TOTAL 3750
MEM_STATIC 1500
AUX_BASIS_CORR rimp2-def2-QZVPPD
SCF_CONVERGENCE 7
SCF_ALGORITHM  GDM
method DSD-PBEPBE-D3
GEN_SCFMAN TRUE
UNRESTRICTED True
THRESH  14
SYMMETRY FALSE
SYM_IGNORE TRUE
max_scf_cycles 200

XC_GRID 000099000590
BASIS DEF2-QZVPPD


$end










