$molecule
0 1
C  -1.88889666017  -0.179692064365  0.0
C  1.88889666017  0.179692064365  0.0
O  -1.17043542691  -1.16659040141  0.0
O  -1.49328055309  1.07368943269  0.0
O  1.49328055309  -1.07368943269  0.0
O  1.17043542691  1.16659040141  0.0
H  -0.498833170969  1.10719538056  0.0
H  -2.97948901471  -0.258829097769  0.0
H  2.97948901471  0.258829097769  0.0
H  0.498833170969  -1.10719538056  0.0
$end


$rem
N_FROZEN_CORE FC
MEM_TOTAL 3750
MEM_STATIC 1500
AUX_BASIS_CORR rimp2-def2-QZVPPD
SCF_CONVERGENCE 7
SCF_ALGORITHM  GDM
method DSD-PBEPBE-D3
GEN_SCFMAN TRUE
UNRESTRICTED True
THRESH  14
SYMMETRY FALSE
SYM_IGNORE TRUE
max_scf_cycles 200

XC_GRID 000099000590
BASIS DEF2-QZVPPD


$end










