$molecule
0 1
C  -0.808940037126  0.739223155437  -1.20710838588
C  -1.49580351545  0.619890096626  0.0
C  -0.808940037126  0.739223155437  1.20710838588
C  0.564568400559  0.977984528154  1.20707394265
C  1.25138507142  1.09710140206  0.0
C  0.564568400559  0.977984528154  -1.20707394265
H  -1.34160873229  0.643976198836  -2.14329008777
H  -2.55988025822  0.428582635527  0.0
H  -1.34160873229  0.643976198836  2.14329008777
H  1.09714221912  1.07083326428  2.14369583662
H  2.31670063508  1.28297601093  0.0
H  1.09714221912  1.07083326428  -2.14369583662
H  0.689891049232  -2.92260427905  -0.806073210179
H  0.689891049232  -2.92260427905  0.806073210179
H  -0.0252420356907  -1.72159613034  0.0
N  0.110734303877  -2.72577975013  0.0
$end


$rem
N_FROZEN_CORE FC
MEM_TOTAL 7500
MEM_STATIC 3000
AUX_BASIS_CORR rimp2-def2-QZVPPD
SCF_CONVERGENCE 7
SCF_ALGORITHM  GDM
method DSD-PBEPBE-D3
GEN_SCFMAN TRUE
UNRESTRICTED True
THRESH  14
SYMMETRY FALSE
SYM_IGNORE TRUE
max_scf_cycles 200

XC_GRID 000099000590
BASIS DEF2-QZVPPD


$end










