$molecule
0 1
O  -1.46633206684  1.0121696555  0.0
O  -0.597223135644  5.48640880123  0.0
O  1.46633206684  -1.0121696555  0.0
O  0.597223135644  -5.48640880123  0.0
C  1.27690400137  4.0061776914  0.0
C  -0.128600543638  4.36215645051  0.0
C  -0.628146598055  1.91426845382  0.0
C  0.628146598055  -1.91426845382  0.0
C  -1.63672955229  -2.70527748087  0.0
C  -1.27690400137  -4.0061776914  0.0
C  0.128600543638  -4.36215645051  0.0
C  1.63672955229  2.70527748087  0.0
N  0.720509533199  1.68826937125  0.0
N  -0.977723331667  3.23964442928  0.0
N  -0.720509533199  -1.68826937125  0.0
N  0.977723331667  -3.23964442928  0.0
H  1.02325186026  0.706182220775  0.0
H  -1.97002750571  3.43238623654  0.0
H  2.01035106885  4.79386616372  0.0
H  2.66906288185  2.38834246018  0.0
H  -2.01035106885  -4.79386616372  0.0
H  -1.02325186026  -0.706182220775  0.0
H  1.97002750571  -3.43238623654  0.0
H  -2.66906288185  -2.38834246018  0.0
$end


$rem
N_FROZEN_CORE FC
MEM_TOTAL 30000
MEM_STATIC 8000
AUX_BASIS_CORR rimp2-def2-QZVPPD
SCF_CONVERGENCE 7
SCF_ALGORITHM  GDM
method DSD-PBEPBE-D3
GEN_SCFMAN TRUE
UNRESTRICTED True
THRESH  14
SYMMETRY FALSE
SYM_IGNORE TRUE
max_scf_cycles 200

XC_GRID 000099000590
BASIS DEF2-QZVPPD


$end










