$molecule
0 1
N  -1.57871856904  -0.0466110183697  0.0
N  1.57871856904  0.0466110183697  0.0
H  -2.15862174215  0.136396053385  0.809565287169
H  -0.849471304971  0.658193208935  0.0
H  -2.15862174215  0.136396053385  -0.809565287169
H  2.15862174215  -0.136396053385  -0.809565287169
H  0.849471304971  -0.658193208935  0.0
H  2.15862174215  -0.136396053385  0.809565287169
$end


$rem
N_FROZEN_CORE FC
MEM_TOTAL 3750
MEM_STATIC 1500
AUX_BASIS_CORR rimp2-def2-QZVPPD
SCF_CONVERGENCE 7
SCF_ALGORITHM  GDM
method DSD-PBEPBE-D3
GEN_SCFMAN TRUE
UNRESTRICTED True
THRESH  14
SYMMETRY FALSE
SYM_IGNORE TRUE
max_scf_cycles 200

XC_GRID 000099000590
BASIS DEF2-QZVPPD


$end










