$molecule
0 1
C  -1.20719551734  -0.696974656901  0.0
C  -1.20719551734  0.696974656901  0.0
C  0.0  -1.3939493138  0.0
C  0.0  1.3939493138  0.0
C  1.20719551734  0.696974656901  0.0
C  1.20719551734  -0.696974656901  0.0
H  0.0  -2.47443306833  0.0
H  2.14292189714  -1.23721653416  0.0
H  2.14292189714  1.23721653416  0.0
H  0.0  2.47443306833  0.0
H  -2.14292189714  1.23721653416  0.0
H  -2.14292189714  -1.23721653416  0.0
$end


$rem
N_FROZEN_CORE FC
MEM_TOTAL 3750
MEM_STATIC 1500
AUX_BASIS_CORR rimp2-def2-QZVPPD
SCF_CONVERGENCE 7
SCF_ALGORITHM  GDM
method DSD-PBEPBE-D3
GEN_SCFMAN TRUE
UNRESTRICTED True
THRESH  14
SYMMETRY FALSE
SYM_IGNORE TRUE
max_scf_cycles 200

XC_GRID 000099000590
BASIS DEF2-QZVPPD


$end










