$molecule
1 2 
   N         -1.62488300      0.00000000      0.00000007
   N          1.62488300      0.00000000     -0.00000007
   H         -1.90055702     -0.84259382     -0.48734709
   H         -1.90055696     -0.00075784      0.97338078
   H         -1.90055702      0.84335167     -0.48603446
   H          1.90055702     -0.84335167      0.48603446
   H          1.90055696      0.00075784     -0.97338078
   H          1.90055702      0.84259382      0.48734709
$end


$rem
N_FROZEN_CORE FC
MEM_TOTAL 3750
MEM_STATIC 1500
AUX_BASIS_CORR rimp2-def2-QZVPPD
SCF_CONVERGENCE 7
SCF_ALGORITHM  GDM
method DSD-PBEPBE-D3
GEN_SCFMAN TRUE
UNRESTRICTED True
THRESH  14
SYMMETRY FALSE
SYM_IGNORE TRUE
max_scf_cycles 200

XC_GRID 000099000590
BASIS DEF2-QZVPPD


$end










