$molecule
1 2 
   O          1.26283108      0.00000000      0.07092819
   O         -1.26283108      0.00000000     -0.07092830
   H          1.40203516      0.77513700     -0.50706247
   H          1.40203516     -0.77513700     -0.50706247
   H         -1.40203512      0.77513700      0.50706336
   H         -1.40203512     -0.77513700      0.50706336
$end


$rem
N_FROZEN_CORE FC
MEM_TOTAL 3750
MEM_STATIC 1500
AUX_BASIS_CORR rimp2-def2-QZVPPD
SCF_CONVERGENCE 7
SCF_ALGORITHM  GDM
method DSD-PBEPBE-D3
GEN_SCFMAN TRUE
UNRESTRICTED True
THRESH  14
SYMMETRY FALSE
SYM_IGNORE TRUE
max_scf_cycles 200

XC_GRID 000099000590
BASIS DEF2-QZVPPD


$end










