$molecule
1 2 
   O          1.00689369     -0.10009630      0.00000000
   O         -1.00689369      0.10009630      0.00000000
   H          1.17080281      0.47138028      0.77513729
   H          1.17080281      0.47138028     -0.77513729
   H         -1.17080281     -0.47138028      0.77513729
   H         -1.17080281     -0.47138028     -0.77513729
$end


$rem
N_FROZEN_CORE FC
MEM_TOTAL 3750
MEM_STATIC 1500
AUX_BASIS_CORR rimp2-def2-QZVPPD
SCF_CONVERGENCE 7
SCF_ALGORITHM  GDM
method DSD-PBEPBE-D3
GEN_SCFMAN TRUE
UNRESTRICTED True
THRESH  14
SYMMETRY FALSE
SYM_IGNORE TRUE
max_scf_cycles 200

XC_GRID 000099000590
BASIS DEF2-QZVPPD


$end










