$molecule
0 1
   N          0.00000000      0.00000000     -0.28909448
   H         -0.46758909     -0.80988806      0.09636483
   H         -0.46758909      0.80988806      0.09636483
   H          0.93517818      0.00000000      0.09636483
$end


$rem
N_FROZEN_CORE FC
MEM_TOTAL 3750
MEM_STATIC 1500
AUX_BASIS_CORR rimp2-def2-QZVPPD
SCF_CONVERGENCE 7
SCF_ALGORITHM  GDM
method DSD-PBEPBE-D3
GEN_SCFMAN TRUE
UNRESTRICTED True
THRESH  14
SYMMETRY FALSE
SYM_IGNORE TRUE
max_scf_cycles 200

XC_GRID 000099000590
BASIS DEF2-QZVPPD


$end










