$molecule
1 2 
   O          1.51617785      0.00000000      0.06984280
   O         -1.51617786      0.00000000     -0.06984291
   H          1.64955199      0.77513700     -0.50952092
   H          1.64955199     -0.77513700     -0.50952092
   H         -1.64955195      0.77513700      0.50952180
   H         -1.64955195     -0.77513700      0.50952180
$end


$rem
N_FROZEN_CORE FC
MEM_TOTAL 3750
MEM_STATIC 1500
AUX_BASIS_CORR rimp2-def2-QZVPPD
SCF_CONVERGENCE 7
SCF_ALGORITHM  GDM
method DSD-PBEPBE-D3
GEN_SCFMAN TRUE
UNRESTRICTED True
THRESH  14
SYMMETRY FALSE
SYM_IGNORE TRUE
max_scf_cycles 200

XC_GRID 000099000590
BASIS DEF2-QZVPPD


$end










