$molecule
1 2 
   O          1.76940075      0.00000000      0.06911068
   O         -1.76940075      0.00000000     -0.06911079
   H          1.89871988      0.77513700     -0.51117161
   H          1.89871988     -0.77513700     -0.51117161
   H         -1.89871983      0.77513700      0.51117250
   H         -1.89871983     -0.77513700      0.51117250
$end


$rem
N_FROZEN_CORE FC
MEM_TOTAL 3750
MEM_STATIC 1500
AUX_BASIS_CORR rimp2-def2-QZVPPD
SCF_CONVERGENCE 7
SCF_ALGORITHM  GDM
method DSD-PBEPBE-D3
GEN_SCFMAN TRUE
UNRESTRICTED True
THRESH  14
SYMMETRY FALSE
SYM_IGNORE TRUE
max_scf_cycles 200

XC_GRID 000099000590
BASIS DEF2-QZVPPD


$end










