$molecule
0 1
S -1.333869 -0.074841 -0.191279
O -0.280808 -1.189269 0.481817
N 1.033450 -1.218918 -0.164297
C -0.367982 1.345481 0.076452
C 1.577197 -0.062059 -0.172578
C 0.965100 1.208069 0.174489
H -0.880250 2.298065 0.110510
H 2.586562 -0.065980 -0.571412
H 1.602013 2.063015 0.346729
$end


$rem
N_FROZEN_CORE FC
MEM_TOTAL 7500
MEM_STATIC 3000
AUX_BASIS_CORR rimp2-def2-QZVPPD
SCF_CONVERGENCE 7
SCF_ALGORITHM  GDM
method DSD-PBEPBE-D3
GEN_SCFMAN TRUE
UNRESTRICTED True
THRESH  14
SYMMETRY FALSE
SYM_IGNORE TRUE
max_scf_cycles 200

XC_GRID 000099000590
BASIS AUG-PC-3


$end





$multipole_field
X 0.004
Y 0.0
Z 0.0
$end




