$molecule
0 1
Br 1.062465 -0.122998 0.000390
N -2.784157 -0.413339 -0.127960
C -0.591979 0.821230 0.011881
C -1.727585 0.179592 0.007361
H -3.258320 -0.701178 0.727135
H -0.521463 1.894559 0.039491
$end


$rem
N_FROZEN_CORE FC
MEM_TOTAL 3750
MEM_STATIC 1500
AUX_BASIS_CORR rimp2-def2-QZVPPD
SCF_CONVERGENCE 7
SCF_ALGORITHM  GDM
method DSD-PBEPBE-D3
GEN_SCFMAN TRUE
UNRESTRICTED True
THRESH  14
SYMMETRY FALSE
SYM_IGNORE TRUE
max_scf_cycles 200

XC_GRID 000099000590
BASIS AUG-PC-3


$end





$multipole_field
X 0.004
Y 0.0
Z 0.0
$end




