$molecule
0 1
S 2.159288 0.225879 -0.000022
S -2.159288 -0.225879 -0.000022
N 0.380905 -1.736090 0.000033
N -0.380905 1.736090 0.000033
C 0.630428 -0.433440 0.000013
C -0.630428 0.433440 0.000008
H 1.142640 -2.391307 0.000019
H -0.586716 -2.040345 0.000035
H 0.586717 2.040345 0.000036
H -1.142640 2.391307 0.000026
$end


$rem
N_FROZEN_CORE FC
MEM_TOTAL 7500
MEM_STATIC 3000
AUX_BASIS_CORR rimp2-def2-QZVPPD
SCF_CONVERGENCE 7
SCF_ALGORITHM  GDM
method DSD-PBEPBE-D3
GEN_SCFMAN TRUE
UNRESTRICTED True
THRESH  14
SYMMETRY FALSE
SYM_IGNORE TRUE
max_scf_cycles 200

XC_GRID 000099000590
BASIS AUG-PC-3


$end





$multipole_field
X 0.004
Y 0.0
Z 0.0
$end




