$molecule
0 1
O -2.416628 -0.098841 -0.000028
C 0.087033 -0.011100 0.000005
C -1.117057 -0.002424 -0.000010
C 1.449836 0.001422 0.000013
C 2.655112 0.011669 0.000023
H -2.832487 0.773856 0.000005
H 3.715965 0.019465 0.000027
$end


$rem
N_FROZEN_CORE FC
MEM_TOTAL 3750
MEM_STATIC 1500
AUX_BASIS_CORR rimp2-def2-QZVPPD
SCF_CONVERGENCE 7
SCF_ALGORITHM  GDM
method DSD-PBEPBE-D3
GEN_SCFMAN TRUE
UNRESTRICTED True
THRESH  14
SYMMETRY FALSE
SYM_IGNORE TRUE
max_scf_cycles 200

XC_GRID 000099000590
BASIS AUG-PC-3


$end





$multipole_field
X -0.004
Y 0.0
Z 0.0
$end




