$molecule
0 1
C -2.219388 -1.031508 0.000000
H -2.709797 -0.060794 0.000000
H -2.567570 -1.583635 0.876540
H -2.567570 -1.583635 -0.876540
C 0.000000 0.174336 0.000000
H -0.192077 -1.881945 0.000000
C -0.724178 -0.938568 0.000000
H -0.067567 2.120550 0.878325
H -0.067567 2.120550 -0.878325
C -0.449589 1.597487 0.000000
Cl 1.768594 0.022859 0.000000
H -1.535021 1.669819 0.000000
$end


$rem
N_FROZEN_CORE FC
MEM_TOTAL 15000
MEM_STATIC 6000
AUX_BASIS_CORR rimp2-def2-QZVPPD
SCF_CONVERGENCE 7
SCF_ALGORITHM  GDM
method DSD-PBEPBE-D3
GEN_SCFMAN TRUE
UNRESTRICTED True
THRESH  14
SYMMETRY FALSE
SYM_IGNORE TRUE
max_scf_cycles 200

XC_GRID 000099000590
BASIS AUG-PC-3


$end





$multipole_field
X 0.0
Y 0.004
Z 0.0
$end




