$molecule
0 1
N -1.616715 -0.101498 0.115335
N -2.512940 -0.696208 -0.240366
N 2.592445 -0.787850 0.164792
C -0.601166 0.598614 0.503988
C 0.580873 0.787284 -0.409301
C 1.711258 -0.097097 -0.096653
H -0.609112 0.927289 1.529719
H 0.289318 0.620071 -1.447202
H 0.934469 1.818720 -0.349050
$end


$rem
N_FROZEN_CORE FC
MEM_TOTAL 7500
MEM_STATIC 3000
AUX_BASIS_CORR rimp2-def2-QZVPPD
SCF_CONVERGENCE 7
SCF_ALGORITHM  GDM
method DSD-PBEPBE-D3
GEN_SCFMAN TRUE
UNRESTRICTED True
THRESH  14
SYMMETRY FALSE
SYM_IGNORE TRUE
max_scf_cycles 200

XC_GRID 000099000590
BASIS AUG-PC-3


$end





$multipole_field
X 0.0
Y 0.0
Z -0.004
$end




