$molecule
0 1
F 1.053714 1.101216 0.000007
O 1.153455 -1.111284 0.000013
C 0.490920 -0.130271 -0.000038
C -0.939398 -0.040028 -0.000063
C -2.136840 -0.004245 0.000046
H -3.199160 0.026597 0.000161
$end


$rem
N_FROZEN_CORE FC
MEM_TOTAL 3750
MEM_STATIC 1500
AUX_BASIS_CORR rimp2-def2-QZVPPD
SCF_CONVERGENCE 7
SCF_ALGORITHM  GDM
method DSD-PBEPBE-D3
GEN_SCFMAN TRUE
UNRESTRICTED True
THRESH  14
SYMMETRY FALSE
SYM_IGNORE TRUE
max_scf_cycles 200

XC_GRID 000099000590
BASIS AUG-PC-3


$end





$multipole_field
X 0.0
Y -0.004
Z 0.0
$end




