$molecule
0 1
C -0.591523 -0.910088 0.000000
C 1.806424 0.511742 0.000000
O -1.751511 -1.205927 0.000000
S 0.000000 0.769997 0.000000
H 0.228373 -1.652841 0.000000
H 2.021441 -0.556170 0.000000
H 2.236433 0.963278 0.889535
H 2.236433 0.963278 -0.889535
$end


$rem
N_FROZEN_CORE FC
MEM_TOTAL 3750
MEM_STATIC 1500
AUX_BASIS_CORR rimp2-def2-QZVPPD
SCF_CONVERGENCE 7
SCF_ALGORITHM  GDM
method DSD-PBEPBE-D3
GEN_SCFMAN TRUE
UNRESTRICTED True
THRESH  14
SYMMETRY FALSE
SYM_IGNORE TRUE
max_scf_cycles 200

XC_GRID 000099000590
BASIS AUG-PC-3


$end





$multipole_field
X 0.0
Y 0.0
Z 0.004
$end




