$molecule
0 1
N 2.935965 -0.304877 -0.073828
C 1.606186 0.090118 0.012997
S 0.316726 -1.115816 -0.018860
C -0.949684 0.127458 -0.004415
S -2.581806 -0.148817 0.010440
C 1.075661 1.327803 0.016693
N -0.317561 1.323933 -0.009342
H 3.193890 -1.060264 0.544728
H 3.594248 0.457458 -0.006269
H 1.603851 2.266439 0.028808
H -0.872523 2.164827 -0.002006
$end


$rem
N_FROZEN_CORE FC
MEM_TOTAL 15000
MEM_STATIC 6000
AUX_BASIS_CORR rimp2-def2-QZVPPD
SCF_CONVERGENCE 7
SCF_ALGORITHM  GDM
method DSD-PBEPBE-D3
GEN_SCFMAN TRUE
UNRESTRICTED True
THRESH  14
SYMMETRY FALSE
SYM_IGNORE TRUE
max_scf_cycles 200

XC_GRID 000099000590
BASIS AUG-PC-3


$end





$multipole_field
X 0.0
Y 0.0
Z -0.004
$end




