$molecule
0 1
C -1.639261 1.150479 0.000000
H -2.490302 0.487611 0.000000
H -1.809141 2.216402 0.000000
C -0.417478 0.652524 0.000000
F 0.670083 1.440552 0.000000
C -0.079576 -0.806625 0.000000
H -0.974900 -1.428241 0.000000
F 0.670083 -1.123278 1.097373
F 0.670083 -1.123278 -1.097373
$end


$rem
N_FROZEN_CORE FC
MEM_TOTAL 7500
MEM_STATIC 3000
AUX_BASIS_CORR rimp2-def2-QZVPPD
SCF_CONVERGENCE 7
SCF_ALGORITHM  GDM
method DSD-PBEPBE-D3
GEN_SCFMAN TRUE
UNRESTRICTED True
THRESH  14
SYMMETRY FALSE
SYM_IGNORE TRUE
max_scf_cycles 200

XC_GRID 000099000590
BASIS AUG-PC-3


$end





$multipole_field
X 0.0
Y -0.004
Z 0.0
$end




