$molecule
0 1
Cl 1.571721 -0.909942 0.008496
N -1.173896 0.820814 -0.448314
N -1.762173 -0.193172 -0.081847
N -2.396372 -1.096686 0.152096
C -0.060470 1.285982 0.393333
C 1.295650 0.872078 -0.145488
H -0.103030 2.376437 0.375286
H -0.177806 0.958752 1.427891
H 2.090432 1.359964 0.413029
H 1.387147 1.108808 -1.201250
$end


$rem
N_FROZEN_CORE FC
MEM_TOTAL 7500
MEM_STATIC 3000
AUX_BASIS_CORR rimp2-def2-QZVPPD
SCF_CONVERGENCE 7
SCF_ALGORITHM  GDM
method DSD-PBEPBE-D3
GEN_SCFMAN TRUE
UNRESTRICTED True
THRESH  14
SYMMETRY FALSE
SYM_IGNORE TRUE
max_scf_cycles 200

XC_GRID 000099000590
BASIS AUG-PC-3


$end





$multipole_field
X -0.004
Y 0.0
Z 0.0
$end




