$molecule
0 1
C 0.000000 0.619383 0.000000
C -1.485214 0.718099 0.000000
S 0.874031 -0.744703 0.000000
H 0.520354 1.577729 0.000000
H -1.957612 -0.260850 0.000000
H -1.817979 1.286739 0.874315
H -1.817979 1.286739 -0.874315
$end


$rem
N_FROZEN_CORE FC
MEM_TOTAL 3750
MEM_STATIC 1500
AUX_BASIS_CORR rimp2-def2-QZVPPD
SCF_CONVERGENCE 7
SCF_ALGORITHM  GDM
method DSD-PBEPBE-D3
GEN_SCFMAN TRUE
UNRESTRICTED True
THRESH  14
SYMMETRY FALSE
SYM_IGNORE TRUE
max_scf_cycles 200

XC_GRID 000099000590
BASIS AUG-PC-3


$end





$multipole_field
X -0.004
Y 0.0
Z 0.0
$end




