$molecule
0 1
C -2.176225 -0.108634 0.025106
C 1.750470 -0.864926 0.195527
N -0.860662 -0.714324 0.273353
O 0.496434 1.481896 0.368384
S 0.435590 0.228882 -0.434302
H -2.186081 0.887800 0.460796
H -2.927918 -0.708978 0.535442
H -2.441606 -0.034928 -1.035315
H 1.646109 -0.917873 1.276493
H 2.694683 -0.403665 -0.084828
H 1.666868 -1.848965 -0.264591
H -0.813806 -1.649042 -0.123504
$end


$rem
N_FROZEN_CORE FC
MEM_TOTAL 15000
MEM_STATIC 6000
AUX_BASIS_CORR rimp2-def2-QZVPPD
SCF_CONVERGENCE 7
SCF_ALGORITHM  GDM
method DSD-PBEPBE-D3
GEN_SCFMAN TRUE
UNRESTRICTED True
THRESH  14
SYMMETRY FALSE
SYM_IGNORE TRUE
max_scf_cycles 200

XC_GRID 000099000590
BASIS AUG-PC-3


$end





$multipole_field
X 0.0
Y 0.0
Z 0.004
$end




