$molecule
0 1
O 2.465982 0.020631 -0.000235
N -2.444823 -0.094872 -0.000289
C 0.032526 -0.028629 0.000643
C 1.301270 -0.000338 -0.000035
C -1.244363 0.008532 0.000055
H -3.150699 0.621669 -0.000074
$end


$rem
N_FROZEN_CORE FC
MEM_TOTAL 3750
MEM_STATIC 1500
AUX_BASIS_CORR rimp2-def2-QZVPPD
SCF_CONVERGENCE 7
SCF_ALGORITHM  GDM
method DSD-PBEPBE-D3
GEN_SCFMAN TRUE
UNRESTRICTED True
THRESH  14
SYMMETRY FALSE
SYM_IGNORE TRUE
max_scf_cycles 200

XC_GRID 000099000590
BASIS AUG-PC-3


$end





$multipole_field
X 0.0
Y 0.0
Z -0.004
$end




