$molecule
0 1
C 1.289018 1.047846 0.000000
C 0.000000 0.763426 0.000000
Cl -0.623753 -0.866823 0.000000
H 1.603767 2.082310 0.000000
H 2.051033 0.282196 0.000000
H -0.785113 1.503855 0.000000
$end


$rem
N_FROZEN_CORE FC
MEM_TOTAL 3750
MEM_STATIC 1500
AUX_BASIS_CORR rimp2-def2-QZVPPD
SCF_CONVERGENCE 7
SCF_ALGORITHM  GDM
method DSD-PBEPBE-D3
GEN_SCFMAN TRUE
UNRESTRICTED True
THRESH  14
SYMMETRY FALSE
SYM_IGNORE TRUE
max_scf_cycles 200

XC_GRID 000099000590
BASIS AUG-PC-3


$end





$multipole_field
X 0.0
Y -0.004
Z 0.0
$end




