$molecule
0 1
F -0.675349 -0.769946 1.097109
F -0.675515 -0.770081 -1.096910
N 2.321971 0.174000 -0.000189
C -0.299060 -0.045692 0.000026
C -0.986636 1.297029 -0.000005
C 1.181140 0.048530 -0.000093
H -2.061714 1.126864 0.000085
H -0.703552 1.858035 -0.887970
H -0.703421 1.858143 0.887851
$end


$rem
N_FROZEN_CORE FC
MEM_TOTAL 7500
MEM_STATIC 3000
AUX_BASIS_CORR rimp2-def2-QZVPPD
SCF_CONVERGENCE 7
SCF_ALGORITHM  GDM
method DSD-PBEPBE-D3
GEN_SCFMAN TRUE
UNRESTRICTED True
THRESH  14
SYMMETRY FALSE
SYM_IGNORE TRUE
max_scf_cycles 200

XC_GRID 000099000590
BASIS AUG-PC-3


$end





$multipole_field
X -0.004
Y 0.0
Z 0.0
$end




