$molecule
0 1
O 0.000000 0.802908 0.000000
Cl -0.811552 -0.704077 0.000000
C 1.415082 0.620626 0.000000
H 1.809715 1.636753 0.000000
H 1.748086 0.092767 0.894890
H 1.748086 0.092767 -0.894890
$end


$rem
N_FROZEN_CORE FC
MEM_TOTAL 3750
MEM_STATIC 1500
AUX_BASIS_CORR rimp2-def2-QZVPPD
SCF_CONVERGENCE 7
SCF_ALGORITHM  GDM
method DSD-PBEPBE-D3
GEN_SCFMAN TRUE
UNRESTRICTED True
THRESH  14
SYMMETRY FALSE
SYM_IGNORE TRUE
max_scf_cycles 200

XC_GRID 000099000590
BASIS AUG-PC-3


$end





$multipole_field
X 0.0
Y 0.004
Z 0.0
$end




