$molecule
0 1
Cl -0.142353 1.682318 0.000006
S 0.908059 -1.112252 -0.000003
S -1.983399 -0.651574 -0.000005
C -0.475009 -0.060877 0.000000
C 2.395894 -0.059942 0.000003
H 2.437172 0.555719 0.893120
H 3.225785 -0.764724 0.000001
H 2.437174 0.555726 -0.893110
$end


$rem
N_FROZEN_CORE FC
MEM_TOTAL 3750
MEM_STATIC 1500
AUX_BASIS_CORR rimp2-def2-QZVPPD
SCF_CONVERGENCE 7
SCF_ALGORITHM  GDM
method DSD-PBEPBE-D3
GEN_SCFMAN TRUE
UNRESTRICTED True
THRESH  14
SYMMETRY FALSE
SYM_IGNORE TRUE
max_scf_cycles 200

XC_GRID 000099000590
BASIS AUG-PC-3


$end





$multipole_field
X -0.004
Y 0.0
Z 0.0
$end




