$molecule
0 1
C 1.335737 0.637655 0.000000
C -2.183624 -0.287568 0.000000
C -0.700940 -0.578325 0.000000
O 2.002533 -0.361066 0.000000
O 0.000000 0.693290 0.000000
H 1.739533 1.657904 0.000000
H -2.739422 -1.225778 0.000000
H -2.471547 0.280474 0.884202
H -2.471547 0.280474 -0.884202
H -0.392160 -1.140715 -0.880841
H -0.392160 -1.140715 0.880841
$end


$rem
N_FROZEN_CORE FC
MEM_TOTAL 7500
MEM_STATIC 3000
AUX_BASIS_CORR rimp2-def2-QZVPPD
SCF_CONVERGENCE 7
SCF_ALGORITHM  GDM
method DSD-PBEPBE-D3
GEN_SCFMAN TRUE
UNRESTRICTED True
THRESH  14
SYMMETRY FALSE
SYM_IGNORE TRUE
max_scf_cycles 200

XC_GRID 000099000590
BASIS AUG-PC-3


$end





$multipole_field
X 0.0
Y 0.0
Z -0.004
$end




