$molecule
0 1
C 0.000000 0.000000 -0.316883
S 0.000000 0.000000 1.353097
N 0.000000 1.146987 -1.046835
N 0.000000 -1.146987 -1.046835
H 0.128543 2.000926 -0.533905
H 0.285536 1.143343 -2.012373
H -0.128543 -2.000926 -0.533905
H -0.285536 -1.143343 -2.012373
$end


$rem
N_FROZEN_CORE FC
MEM_TOTAL 3750
MEM_STATIC 1500
AUX_BASIS_CORR rimp2-def2-QZVPPD
SCF_CONVERGENCE 7
SCF_ALGORITHM  GDM
method DSD-PBEPBE-D3
GEN_SCFMAN TRUE
UNRESTRICTED True
THRESH  14
SYMMETRY FALSE
SYM_IGNORE TRUE
max_scf_cycles 200

XC_GRID 000099000590
BASIS AUG-PC-3


$end





$multipole_field
X 0.0
Y -0.004
Z 0.0
$end




