$molecule
0 1
C 0.000000 1.419305 -0.919648
C 0.000000 -1.419305 -0.919648
O -1.263521 0.000000 0.917477
O 1.263521 0.000000 0.917477
S 0.000000 0.000000 0.188195
H 0.000000 2.292780 -0.271559
H 0.900388 1.399538 -1.527965
H -0.900388 1.399538 -1.527965
H 0.900388 -1.399538 -1.527965
H 0.000000 -2.292780 -0.271559
H -0.900388 -1.399538 -1.527965
$end


$rem
N_FROZEN_CORE FC
MEM_TOTAL 7500
MEM_STATIC 3000
AUX_BASIS_CORR rimp2-def2-QZVPPD
SCF_CONVERGENCE 7
SCF_ALGORITHM  GDM
method DSD-PBEPBE-D3
GEN_SCFMAN TRUE
UNRESTRICTED True
THRESH  14
SYMMETRY FALSE
SYM_IGNORE TRUE
max_scf_cycles 200

XC_GRID 000099000590
BASIS AUG-PC-3


$end





$multipole_field
X 0.0
Y 0.0
Z 0.004
$end




