$molecule
0 1
C 2.445855 -0.294356 -0.000008
H 2.499430 -1.373583 0.000358
H 3.364930 0.269880 -0.000226
C 1.282938 0.346338 -0.000141
H 1.226582 1.430931 -0.000503
O 0.088531 -0.298764 0.000118
C -1.073605 0.536374 0.000222
H -1.057562 1.179175 -0.885919
H -1.057825 1.178653 0.886755
C -2.298114 -0.351311 -0.000172
H -2.312414 -0.988238 -0.884210
H -2.312552 -0.988828 0.883437
H -3.201281 0.259848 -0.000035
$end


$rem
N_FROZEN_CORE FC
MEM_TOTAL 15000
MEM_STATIC 6000
AUX_BASIS_CORR rimp2-def2-QZVPPD
SCF_CONVERGENCE 7
SCF_ALGORITHM  GDM
method DSD-PBEPBE-D3
GEN_SCFMAN TRUE
UNRESTRICTED True
THRESH  14
SYMMETRY FALSE
SYM_IGNORE TRUE
max_scf_cycles 200

XC_GRID 000099000590
BASIS AUG-PC-3


$end





$multipole_field
X 0.004
Y 0.0
Z 0.0
$end




