$molecule
0 1
C 0.285090 0.705076 1.402750
C -0.285090 -0.705076 1.402750
C 0.285090 0.705076 -1.402750
C -0.285090 -0.705076 -1.402750
S -0.285090 1.732970 0.000000
S 0.285090 -1.732970 0.000000
H -0.049188 1.244965 2.289919
H 1.374611 0.679803 1.411268
H 0.049188 -1.244965 2.289919
H -1.374611 -0.679803 1.411268
H 1.374611 0.679803 -1.411268
H -0.049188 1.244965 -2.289919
H -1.374611 -0.679803 -1.411268
H 0.049188 -1.244965 -2.289919
$end


$rem
N_FROZEN_CORE FC
MEM_TOTAL 15000
MEM_STATIC 6000
AUX_BASIS_CORR rimp2-def2-QZVPPD
SCF_CONVERGENCE 7
SCF_ALGORITHM  GDM
method DSD-PBEPBE-D3
GEN_SCFMAN TRUE
UNRESTRICTED True
THRESH  14
SYMMETRY FALSE
SYM_IGNORE TRUE
max_scf_cycles 200

XC_GRID 000099000590
BASIS AUG-PC-3


$end










