$molecule
0 1
S -1.756434 -0.365803 -0.000188
N 0.863151 -0.693485 0.000281
N 0.167197 1.487661 -0.000079
N 2.197899 -0.268846 0.000181
C -0.173325 0.187895 0.000004
H 0.618610 -1.671311 0.000117
H 1.137120 1.757055 0.000069
H -0.566962 2.169753 -0.000192
H 2.678241 -0.603657 0.827164
H 2.678150 -0.603667 -0.826856
$end


$rem
N_FROZEN_CORE FC
MEM_TOTAL 7500
MEM_STATIC 3000
AUX_BASIS_CORR rimp2-def2-QZVPPD
SCF_CONVERGENCE 7
SCF_ALGORITHM  GDM
method DSD-PBEPBE-D3
GEN_SCFMAN TRUE
UNRESTRICTED True
THRESH  14
SYMMETRY FALSE
SYM_IGNORE TRUE
max_scf_cycles 200

XC_GRID 000099000590
BASIS AUG-PC-3


$end





$multipole_field
X 0.0
Y 0.0
Z 0.004
$end




