$molecule
0 1
C 1.587197 -0.663411 0.266045
C 1.587197 0.663411 0.266045
C 0.353161 -1.327115 -0.256480
C 0.353161 1.327115 -0.256480
O -1.726065 0.000000 0.869953
S -0.946541 0.000000 -0.417329
H 2.420926 -1.255926 0.620455
H 2.420926 1.255926 0.620455
H 0.494961 -1.789128 -1.236410
H -0.081439 -2.065993 0.417387
H -0.081439 2.065993 0.417387
H 0.494961 1.789128 -1.236410
$end


$rem
N_FROZEN_CORE FC
MEM_TOTAL 15000
MEM_STATIC 6000
AUX_BASIS_CORR rimp2-def2-QZVPPD
SCF_CONVERGENCE 7
SCF_ALGORITHM  GDM
method DSD-PBEPBE-D3
GEN_SCFMAN TRUE
UNRESTRICTED True
THRESH  14
SYMMETRY FALSE
SYM_IGNORE TRUE
max_scf_cycles 200

XC_GRID 000099000590
BASIS AUG-PC-3


$end





$multipole_field
X 0.0
Y 0.0
Z -0.004
$end




