$molecule
0 1
C 0.000000 0.160391 0.000000
C 1.341166 -0.522197 0.000000
C -1.204165 -0.750105 0.000000
N -0.046207 1.430440 0.000000
H 2.139324 0.215075 0.000000
H 1.444083 -1.166052 0.876901
H 1.444083 -1.166052 -0.876901
H -2.134256 -0.183538 0.000000
H -1.190635 -1.402345 0.876352
H -1.190635 -1.402345 -0.876352
H -1.010521 1.763644 0.000000
$end


$rem
N_FROZEN_CORE FC
MEM_TOTAL 7500
MEM_STATIC 3000
AUX_BASIS_CORR rimp2-def2-QZVPPD
SCF_CONVERGENCE 7
SCF_ALGORITHM  GDM
method DSD-PBEPBE-D3
GEN_SCFMAN TRUE
UNRESTRICTED True
THRESH  14
SYMMETRY FALSE
SYM_IGNORE TRUE
max_scf_cycles 200

XC_GRID 000099000590
BASIS AUG-PC-3


$end





$multipole_field
X 0.0
Y 0.0
Z -0.004
$end




