$molecule
0 1
S 0.000000 -0.857107 -0.318004
O 0.000000 -1.053613 1.137761
O 1.279962 0.121780 -0.679264
O -1.279962 0.121780 -0.679265
C 1.785232 1.045978 0.304035
C -1.785232 1.045978 0.304035
H 2.837899 1.182815 0.071216
H -2.837900 1.182815 0.071215
H 1.263493 1.999548 0.224505
H 1.675420 0.638837 1.307173
H -1.675421 0.638836 1.307172
H -1.263493 1.999547 0.224506
$end


$rem
N_FROZEN_CORE FC
MEM_TOTAL 15000
MEM_STATIC 6000
AUX_BASIS_CORR rimp2-def2-QZVPPD
SCF_CONVERGENCE 7
SCF_ALGORITHM  GDM
method DSD-PBEPBE-D3
GEN_SCFMAN TRUE
UNRESTRICTED True
THRESH  14
SYMMETRY FALSE
SYM_IGNORE TRUE
max_scf_cycles 200

XC_GRID 000099000590
BASIS AUG-PC-3


$end





$multipole_field
X -0.004
Y 0.0
Z 0.0
$end




