$molecule
0 1
H 2.655683 0.401193 0.000000
H 2.622682 -1.138527 0.875361
H 2.622682 -1.138527 -0.875361
C 2.242257 -0.606309 0.000000
H 0.256482 -1.562903 0.000000
C 0.752473 -0.598413 0.000000
H 0.451575 1.489847 0.000000
C 0.000000 0.504802 0.000000
N -2.576635 0.473241 0.000000
C -1.423506 0.472625 0.000000
$end


$rem
N_FROZEN_CORE FC
MEM_TOTAL 7500
MEM_STATIC 3000
AUX_BASIS_CORR rimp2-def2-QZVPPD
SCF_CONVERGENCE 7
SCF_ALGORITHM  GDM
method DSD-PBEPBE-D3
GEN_SCFMAN TRUE
UNRESTRICTED True
THRESH  14
SYMMETRY FALSE
SYM_IGNORE TRUE
max_scf_cycles 200

XC_GRID 000099000590
BASIS AUG-PC-3


$end





$multipole_field
X 0.0
Y 0.004
Z 0.0
$end




