$molecule
0 1
S -1.224006 0.049081 -0.107328
O 1.242809 -0.702537 -0.222880
N -0.052232 -1.238625 0.159007
C 0.065658 1.249525 0.142810
C 1.244683 0.655383 0.012729
H -0.124065 2.299324 0.277492
H 2.227513 1.098553 0.002818
H 0.041759 -1.321948 1.173704
$end


$rem
N_FROZEN_CORE FC
MEM_TOTAL 3750
MEM_STATIC 1500
AUX_BASIS_CORR rimp2-def2-QZVPPD
SCF_CONVERGENCE 7
SCF_ALGORITHM  GDM
method DSD-PBEPBE-D3
GEN_SCFMAN TRUE
UNRESTRICTED True
THRESH  14
SYMMETRY FALSE
SYM_IGNORE TRUE
max_scf_cycles 200

XC_GRID 000099000590
BASIS AUG-PC-3


$end





$multipole_field
X 0.0
Y 0.0
Z 0.004
$end




