$molecule
0 1
S -1.212773 -1.207584 0.003315
S 2.042508 -0.178536 -0.008928
N -1.534033 1.415066 -0.011441
C -0.689942 0.359550 0.002786
C 0.740967 0.774182 0.022682
H -1.200704 2.364588 -0.016085
H -2.525891 1.249315 -0.027968
H 0.882911 1.856177 0.061139
$end


$rem
N_FROZEN_CORE FC
MEM_TOTAL 3750
MEM_STATIC 1500
AUX_BASIS_CORR rimp2-def2-QZVPPD
SCF_CONVERGENCE 7
SCF_ALGORITHM  GDM
method DSD-PBEPBE-D3
GEN_SCFMAN TRUE
UNRESTRICTED True
THRESH  14
SYMMETRY FALSE
SYM_IGNORE TRUE
max_scf_cycles 200

XC_GRID 000099000590
BASIS AUG-PC-3


$end





$multipole_field
X 0.0
Y 0.0
Z -0.004
$end




