$molecule
0 1
Br -1.679281 -0.222549 -0.171503
O 0.904198 -0.596180 0.859473
O 1.724404 0.868550 -0.607082
O 2.767002 -1.118360 -0.322274
C -0.059419 0.412716 0.795866
C 1.898097 -0.357530 -0.066646
C 0.648879 1.543670 0.054380
H -0.412430 0.651047 1.790346
H 1.064262 2.270895 0.754952
H 0.032846 2.042043 -0.685213
$end


$rem
N_FROZEN_CORE FC
MEM_TOTAL 7500
MEM_STATIC 3000
AUX_BASIS_CORR rimp2-def2-QZVPPD
SCF_CONVERGENCE 7
SCF_ALGORITHM  GDM
method DSD-PBEPBE-D3
GEN_SCFMAN TRUE
UNRESTRICTED True
THRESH  14
SYMMETRY FALSE
SYM_IGNORE TRUE
max_scf_cycles 200

XC_GRID 000099000590
BASIS AUG-PC-3


$end





$multipole_field
X 0.004
Y 0.0
Z 0.0
$end




