$molecule
0 1
Cl 0.551587 1.629115 0.087511
Cl -2.244644 -0.339481 -0.083117
N 2.790232 -1.254867 0.059102
C 0.482758 -0.120609 -0.375006
C -0.599970 -0.872040 0.395411
C 1.784559 -0.732929 -0.133991
H 0.269104 -0.138557 -1.441420
H -0.528062 -1.933131 0.170399
H -0.494775 -0.714549 1.464113
$end


$rem
N_FROZEN_CORE FC
MEM_TOTAL 7500
MEM_STATIC 3000
AUX_BASIS_CORR rimp2-def2-QZVPPD
SCF_CONVERGENCE 7
SCF_ALGORITHM  GDM
method DSD-PBEPBE-D3
GEN_SCFMAN TRUE
UNRESTRICTED True
THRESH  14
SYMMETRY FALSE
SYM_IGNORE TRUE
max_scf_cycles 200

XC_GRID 000099000590
BASIS AUG-PC-3


$end





$multipole_field
X 0.0
Y 0.004
Z 0.0
$end




