$molecule
0 1
C 0.838039 1.595359 0.000000
O 0.838039 -0.743500 1.259473
O 0.838039 -0.743500 -1.259473
S 0.445322 -0.156189 0.000000
Cl -1.666500 -0.052456 0.000000
H 0.421587 2.033909 0.900953
H 1.925327 1.646800 0.000000
H 0.421587 2.033909 -0.900953
$end


$rem
N_FROZEN_CORE FC
MEM_TOTAL 3750
MEM_STATIC 1500
AUX_BASIS_CORR rimp2-def2-QZVPPD
SCF_CONVERGENCE 7
SCF_ALGORITHM  GDM
method DSD-PBEPBE-D3
GEN_SCFMAN TRUE
UNRESTRICTED True
THRESH  14
SYMMETRY FALSE
SYM_IGNORE TRUE
max_scf_cycles 200

XC_GRID 000099000590
BASIS AUG-PC-3


$end





$multipole_field
X 0.0
Y 0.004
Z 0.0
$end




