$molecule
0 1
C 1.454366 0.512277 0.000000
C -2.231561 -0.577773 0.000000
C 0.000000 0.631202 0.000000
C -0.713585 -0.731881 0.000000
N 2.598842 0.398853 0.000000
H -2.575965 -0.034286 0.881826
H -2.575965 -0.034286 -0.881826
H -2.719763 -1.552135 0.000000
H -0.295422 1.212550 0.876647
H -0.295422 1.212550 -0.876647
H -0.392342 -1.299658 0.874523
H -0.392342 -1.299658 -0.874523
$end


$rem
N_FROZEN_CORE FC
MEM_TOTAL 15000
MEM_STATIC 6000
AUX_BASIS_CORR rimp2-def2-QZVPPD
SCF_CONVERGENCE 7
SCF_ALGORITHM  GDM
method DSD-PBEPBE-D3
GEN_SCFMAN TRUE
UNRESTRICTED True
THRESH  14
SYMMETRY FALSE
SYM_IGNORE TRUE
max_scf_cycles 200

XC_GRID 000099000590
BASIS AUG-PC-3


$end





$multipole_field
X 0.004
Y 0.0
Z 0.0
$end




