$molecule
0 1
N -1.111550 -0.313232 0.000000
O 0.000000 0.559326 0.000000
O -2.159770 0.267328 0.000000
O -0.888584 -1.499078 0.000000
C 2.325207 0.990121 0.000000
C 1.286493 -0.110502 0.000000
H 3.318360 0.540496 0.000000
H 2.232623 1.618133 0.884918
H 2.232623 1.618133 -0.884918
H 1.356935 -0.741228 0.885089
H 1.356935 -0.741228 -0.885089
$end


$rem
N_FROZEN_CORE FC
MEM_TOTAL 7500
MEM_STATIC 3000
AUX_BASIS_CORR rimp2-def2-QZVPPD
SCF_CONVERGENCE 7
SCF_ALGORITHM  GDM
method DSD-PBEPBE-D3
GEN_SCFMAN TRUE
UNRESTRICTED True
THRESH  14
SYMMETRY FALSE
SYM_IGNORE TRUE
max_scf_cycles 200

XC_GRID 000099000590
BASIS AUG-PC-3


$end





$multipole_field
X -0.004
Y 0.0
Z 0.0
$end




