$molecule
0 1
C -2.410690 0.780868 0.000000
C -1.408259 -0.101026 0.000000
C 0.000000 0.249530 0.000000
C 0.998002 -0.639690 0.000000
C 2.453681 -0.304012 0.000000
H -2.224937 1.847997 0.000000
H -3.443962 0.464039 0.000000
H -1.639093 -1.162269 0.000000
H 0.236275 1.310487 0.000000
H 0.747222 -1.697270 0.000000
H 2.617556 0.773488 0.000000
H 2.955266 -0.725245 0.875717
H 2.955266 -0.725245 -0.875717
$end


$rem
N_FROZEN_CORE FC
MEM_TOTAL 15000
MEM_STATIC 6000
AUX_BASIS_CORR rimp2-def2-QZVPPD
SCF_CONVERGENCE 7
SCF_ALGORITHM  GDM
method DSD-PBEPBE-D3
GEN_SCFMAN TRUE
UNRESTRICTED True
THRESH  14
SYMMETRY FALSE
SYM_IGNORE TRUE
max_scf_cycles 200

XC_GRID 000099000590
BASIS AUG-PC-3


$end





$multipole_field
X -0.004
Y 0.0
Z 0.0
$end




