$molecule
0 1
C 0.654473 -1.275757 0.000000
C -0.759568 -1.159013 0.000000
C 1.232534 -0.038075 0.000000
N -1.256067 0.058336 0.000000
S 0.000000 1.151175 0.000000
H 1.194557 -2.209548 0.000000
H -1.446653 -1.995169 0.000000
H 2.279932 0.214642 0.000000
$end


$rem
N_FROZEN_CORE FC
MEM_TOTAL 3750
MEM_STATIC 1500
AUX_BASIS_CORR rimp2-def2-QZVPPD
SCF_CONVERGENCE 7
SCF_ALGORITHM  GDM
method DSD-PBEPBE-D3
GEN_SCFMAN TRUE
UNRESTRICTED True
THRESH  14
SYMMETRY FALSE
SYM_IGNORE TRUE
max_scf_cycles 200

XC_GRID 000099000590
BASIS AUG-PC-3


$end





$multipole_field
X 0.0
Y 0.004
Z 0.0
$end




