$molecule
0 1
C -1.612174 0.568511 0.325815
C -1.359474 -0.903273 0.131974
C -0.398399 1.283143 -0.255369
N -0.231575 -1.335367 -0.251174
O 1.735392 0.014128 0.833141
S 0.935671 -0.012414 -0.425050
H -2.539917 0.860498 -0.169257
H -1.752446 0.764996 1.391742
H -2.153498 -1.621061 0.337364
H -0.586582 1.674298 -1.253682
H 0.019870 2.064161 0.373207
$end


$rem
N_FROZEN_CORE FC
MEM_TOTAL 7500
MEM_STATIC 3000
AUX_BASIS_CORR rimp2-def2-QZVPPD
SCF_CONVERGENCE 7
SCF_ALGORITHM  GDM
method DSD-PBEPBE-D3
GEN_SCFMAN TRUE
UNRESTRICTED True
THRESH  14
SYMMETRY FALSE
SYM_IGNORE TRUE
max_scf_cycles 200

XC_GRID 000099000590
BASIS AUG-PC-3


$end










