$molecule
0 1
S -1.958243 0.228807 0.000000
S 2.220685 -0.683816 0.000001
N -0.289940 -1.729567 0.000001
N 0.650712 2.984496 0.000000
C -0.252301 0.588485 0.000000
C 0.464268 -0.591163 0.000000
C -1.558175 -1.448494 0.000000
C 0.241588 1.904998 0.000000
H 2.237266 -2.028192 0.000001
H -2.334026 -2.199110 0.000000
$end


$rem
N_FROZEN_CORE FC
MEM_TOTAL 15000
MEM_STATIC 6000
AUX_BASIS_CORR rimp2-def2-QZVPPD
SCF_CONVERGENCE 7
SCF_ALGORITHM  GDM
method DSD-PBEPBE-D3
GEN_SCFMAN TRUE
UNRESTRICTED True
THRESH  14
SYMMETRY FALSE
SYM_IGNORE TRUE
max_scf_cycles 200

XC_GRID 000099000590
BASIS AUG-PC-3


$end





$multipole_field
X 0.0
Y -0.004
Z 0.0
$end




