$molecule
0 1
C 0.361772 0.190165 0.000000
C -1.157274 0.243325 0.000000
F 0.843210 1.450981 0.000000
F 0.843210 -0.436999 1.084078
F 0.843210 -0.436999 -1.084078
F -1.667677 -1.036067 0.000000
H -1.492284 0.765414 0.895748
H -1.492284 0.765414 -0.895748
$end


$rem
N_FROZEN_CORE FC
MEM_TOTAL 7500
MEM_STATIC 3000
AUX_BASIS_CORR rimp2-def2-QZVPPD
SCF_CONVERGENCE 7
SCF_ALGORITHM  GDM
method DSD-PBEPBE-D3
GEN_SCFMAN TRUE
UNRESTRICTED True
THRESH  14
SYMMETRY FALSE
SYM_IGNORE TRUE
max_scf_cycles 200

XC_GRID 000099000590
BASIS AUG-PC-3


$end





$multipole_field
X 0.004
Y 0.0
Z 0.0
$end




