$molecule
0 1
S 3.337777 -0.078999 -0.008241
N 0.585203 0.215569 0.016899
N -4.172513 -0.426062 -0.009011
C -0.703901 -0.405684 0.011919
C -1.805058 0.666399 -0.001765
C -3.134377 0.067327 -0.005912
C 1.762573 0.040262 0.005120
H -0.797866 -1.046210 -0.866960
H -0.809327 -1.034429 0.897962
H -1.695465 1.298430 -0.884021
H -1.706021 1.309821 0.873498
$end


$rem
N_FROZEN_CORE FC
MEM_TOTAL 15000
MEM_STATIC 6000
AUX_BASIS_CORR rimp2-def2-QZVPPD
SCF_CONVERGENCE 7
SCF_ALGORITHM  GDM
method DSD-PBEPBE-D3
GEN_SCFMAN TRUE
UNRESTRICTED True
THRESH  14
SYMMETRY FALSE
SYM_IGNORE TRUE
max_scf_cycles 200

XC_GRID 000099000590
BASIS AUG-PC-3


$end





$multipole_field
X 0.0
Y 0.0
Z 0.004
$end




