$molecule
0 1
C -0.691463 -0.825035 0.000000
C 1.451045 0.342396 0.000000
C -0.673160 1.625303 0.000000
N 0.000000 0.344183 0.000000
O -0.204681 -1.939050 0.000000
H -1.782485 -0.660464 0.000000
H 1.835600 0.852868 0.886378
H 1.835600 0.852868 -0.886378
H 1.793661 -0.687964 0.000000
H -0.406192 2.208353 0.885441
H -1.751076 1.473118 0.000000
H -0.406192 2.208353 -0.885441
$end


$rem
N_FROZEN_CORE FC
MEM_TOTAL 15000
MEM_STATIC 6000
AUX_BASIS_CORR rimp2-def2-QZVPPD
SCF_CONVERGENCE 7
SCF_ALGORITHM  GDM
method DSD-PBEPBE-D3
GEN_SCFMAN TRUE
UNRESTRICTED True
THRESH  14
SYMMETRY FALSE
SYM_IGNORE TRUE
max_scf_cycles 200

XC_GRID 000099000590
BASIS AUG-PC-3


$end










