$molecule
0 1
Cl -1.342896 -0.692618 -0.000002
O -0.259567 1.696079 0.000019
C -0.024306 0.532850 -0.000069
C 1.265435 -0.081591 -0.000088
C 2.355970 -0.580206 0.000092
H 3.323175 -1.020441 0.000275
$end


$rem
N_FROZEN_CORE FC
MEM_TOTAL 3750
MEM_STATIC 1500
AUX_BASIS_CORR rimp2-def2-QZVPPD
SCF_CONVERGENCE 7
SCF_ALGORITHM  GDM
method DSD-PBEPBE-D3
GEN_SCFMAN TRUE
UNRESTRICTED True
THRESH  14
SYMMETRY FALSE
SYM_IGNORE TRUE
max_scf_cycles 200

XC_GRID 000099000590
BASIS AUG-PC-3


$end





$multipole_field
X 0.004
Y 0.0
Z 0.0
$end




