$molecule
0 1
C 0.000000 0.735787 -1.400081
C 0.000000 -0.735787 -1.400081
C 0.000000 1.175419 -0.125488
C 0.000000 -1.175419 -0.125488
C 0.000000 0.000000 0.758403
C 0.000000 0.000000 2.096421
H 0.000000 1.347657 -2.289398
H 0.000000 -1.347657 -2.289398
H 0.000000 2.197794 0.217520
H 0.000000 -2.197794 0.217520
H 0.000000 -0.923202 2.660823
H 0.000000 0.923202 2.660823
$end


$rem
N_FROZEN_CORE FC
MEM_TOTAL 15000
MEM_STATIC 6000
AUX_BASIS_CORR rimp2-def2-QZVPPD
SCF_CONVERGENCE 7
SCF_ALGORITHM  GDM
method DSD-PBEPBE-D3
GEN_SCFMAN TRUE
UNRESTRICTED True
THRESH  14
SYMMETRY FALSE
SYM_IGNORE TRUE
max_scf_cycles 200

XC_GRID 000099000590
BASIS AUG-PC-3


$end










