$molecule
0 1
S -1.085714 0.117394 0.777209
S 1.616055 -1.007193 0.004656
C -0.092200 -0.704472 -0.547441
C -2.551811 0.291449 -0.041856
C 2.295903 0.534104 -0.121587
C -3.614199 0.432090 -0.592782
C 2.852247 1.598818 -0.193854
H -0.096062 -0.091324 -1.442322
H -0.512041 -1.685333 -0.754731
H -4.551006 0.558816 -1.074999
H 3.334006 2.542688 -0.252663
$end


$rem
N_FROZEN_CORE FC
MEM_TOTAL 15000
MEM_STATIC 6000
AUX_BASIS_CORR rimp2-def2-QZVPPD
SCF_CONVERGENCE 7
SCF_ALGORITHM  GDM
method DSD-PBEPBE-D3
GEN_SCFMAN TRUE
UNRESTRICTED True
THRESH  14
SYMMETRY FALSE
SYM_IGNORE TRUE
max_scf_cycles 200

XC_GRID 000099000590
BASIS AUG-PC-3


$end





$multipole_field
X 0.004
Y 0.0
Z 0.0
$end




