$molecule
0 1
S -0.180530 -1.510125 0.096697
S -0.180530 1.510125 -0.096698
F 1.690299 -0.019073 -1.077617
F 1.690298 0.019073 1.077618
C 0.856748 0.000000 0.000000
C -1.750263 -0.681445 -0.334640
C -1.750262 0.681445 0.334641
H -2.551770 -1.315256 0.043945
H -1.841107 -0.594140 -1.415457
H -2.551770 1.315257 -0.043944
H -1.841105 0.594141 1.415458
$end


$rem
N_FROZEN_CORE FC
MEM_TOTAL 15000
MEM_STATIC 6000
AUX_BASIS_CORR rimp2-def2-QZVPPD
SCF_CONVERGENCE 7
SCF_ALGORITHM  GDM
method DSD-PBEPBE-D3
GEN_SCFMAN TRUE
UNRESTRICTED True
THRESH  14
SYMMETRY FALSE
SYM_IGNORE TRUE
max_scf_cycles 200

XC_GRID 000099000590
BASIS AUG-PC-3


$end





$multipole_field
X 0.0
Y 0.004
Z 0.0
$end




