$molecule
0 1
Br -0.845069 -0.732631 0.000000
Cl 1.778111 0.964335 0.000000
C 0.000000 1.029529 0.000000
H -0.325234 1.535603 0.898226
H -0.325234 1.535603 -0.898226
$end


$rem
N_FROZEN_CORE FC
MEM_TOTAL 3750
MEM_STATIC 1500
AUX_BASIS_CORR rimp2-def2-QZVPPD
SCF_CONVERGENCE 7
SCF_ALGORITHM  GDM
method DSD-PBEPBE-D3
GEN_SCFMAN TRUE
UNRESTRICTED True
THRESH  14
SYMMETRY FALSE
SYM_IGNORE TRUE
max_scf_cycles 200

XC_GRID 000099000590
BASIS AUG-PC-3


$end





$multipole_field
X 0.0
Y 0.004
Z 0.0
$end




