$molecule
0 1
S -1.176502 1.188742 0.000000
S 3.433639 0.144524 0.000000
N -1.439432 -1.384848 0.000000
N 0.798861 -0.695105 0.000000
C -0.535866 -0.452056 0.000000
C -2.765808 0.515362 0.000000
C -2.694196 -0.843269 0.000000
C 1.922253 -0.288941 0.000000
H -3.639896 1.143256 0.000000
H -3.548597 -1.502417 0.000000
$end


$rem
N_FROZEN_CORE FC
MEM_TOTAL 15000
MEM_STATIC 6000
AUX_BASIS_CORR rimp2-def2-QZVPPD
SCF_CONVERGENCE 7
SCF_ALGORITHM  GDM
method DSD-PBEPBE-D3
GEN_SCFMAN TRUE
UNRESTRICTED True
THRESH  14
SYMMETRY FALSE
SYM_IGNORE TRUE
max_scf_cycles 200

XC_GRID 000099000590
BASIS AUG-PC-3


$end





$multipole_field
X 0.0
Y 0.004
Z 0.0
$end




