$molecule
0 1
S 0.000000 0.000000 2.086086
C 0.000000 0.000000 0.422971
N 0.000000 1.095429 -0.390077
C -0.231274 0.733283 -1.785169
C 0.231274 -0.733283 -1.785169
N 0.000000 -1.095429 -0.390077
H -0.275915 1.980156 -0.001574
H 0.347846 1.354361 -2.465670
H -1.290782 0.811565 -2.048808
H 1.290782 -0.811565 -2.048808
H -0.347846 -1.354361 -2.465670
H 0.275915 -1.980156 -0.001574
$end


$rem
N_FROZEN_CORE FC
MEM_TOTAL 15000
MEM_STATIC 6000
AUX_BASIS_CORR rimp2-def2-QZVPPD
SCF_CONVERGENCE 7
SCF_ALGORITHM  GDM
method DSD-PBEPBE-D3
GEN_SCFMAN TRUE
UNRESTRICTED True
THRESH  14
SYMMETRY FALSE
SYM_IGNORE TRUE
max_scf_cycles 200

XC_GRID 000099000590
BASIS AUG-PC-3


$end





$multipole_field
X 0.0
Y 0.004
Z 0.0
$end




