$molecule
0 1
O -0.000005 1.187716 0.000000
C 0.000009 0.367981 1.174300
C 0.000009 -1.040764 0.662346
C 0.000009 -1.040764 -0.662346
C 0.000009 0.367981 -1.174300
H -0.884524 0.596428 1.780702
H 0.884421 0.596465 1.780810
H 0.884421 0.596465 -1.780810
H -0.884524 0.596428 -1.780702
H 0.000016 -1.907063 1.307178
H 0.000016 -1.907063 -1.307178
$end


$rem
N_FROZEN_CORE FC
MEM_TOTAL 7500
MEM_STATIC 3000
AUX_BASIS_CORR rimp2-def2-QZVPPD
SCF_CONVERGENCE 7
SCF_ALGORITHM  GDM
method DSD-PBEPBE-D3
GEN_SCFMAN TRUE
UNRESTRICTED True
THRESH  14
SYMMETRY FALSE
SYM_IGNORE TRUE
max_scf_cycles 200

XC_GRID 000099000590
BASIS AUG-PC-3


$end





$multipole_field
X -0.004
Y 0.0
Z 0.0
$end




