$molecule
0 1
H 3.165275 -0.906366 0.000000
C 2.248373 -0.372188 0.000000
C 1.205752 0.228394 0.000000
H 0.114647 2.056770 0.000000
C 0.000000 0.978779 0.000000
H -2.064969 1.154769 0.000000
C -1.233830 0.458318 0.000000
H -0.691320 -1.620929 0.000000
H -2.183701 -1.244462 0.875775
H -2.183701 -1.244462 -0.875775
C -1.579666 -0.992523 0.000000
$end


$rem
N_FROZEN_CORE FC
MEM_TOTAL 7500
MEM_STATIC 3000
AUX_BASIS_CORR rimp2-def2-QZVPPD
SCF_CONVERGENCE 7
SCF_ALGORITHM  GDM
method DSD-PBEPBE-D3
GEN_SCFMAN TRUE
UNRESTRICTED True
THRESH  14
SYMMETRY FALSE
SYM_IGNORE TRUE
max_scf_cycles 200

XC_GRID 000099000590
BASIS AUG-PC-3


$end





$multipole_field
X 0.0
Y 0.0
Z 0.004
$end




