$molecule
0 1
C 0.000000 0.607495 0.000000
C -0.022300 -0.607096 0.000000
C 0.032288 1.961729 0.000000
C -0.037787 -1.961626 0.000000
C 0.067261 3.167962 0.000000
C -0.047216 -3.168328 0.000000
H 0.098665 4.228824 0.000000
H -0.052142 -4.229643 0.000000
$end


$rem
N_FROZEN_CORE FC
MEM_TOTAL 3750
MEM_STATIC 1500
AUX_BASIS_CORR rimp2-def2-QZVPPD
SCF_CONVERGENCE 7
SCF_ALGORITHM  GDM
method DSD-PBEPBE-D3
GEN_SCFMAN TRUE
UNRESTRICTED True
THRESH  14
SYMMETRY FALSE
SYM_IGNORE TRUE
max_scf_cycles 200

XC_GRID 000099000590
BASIS AUG-PC-3


$end





$multipole_field
X 0.0
Y -0.004
Z 0.0
$end




