$molecule
0 1
C 0.000000 0.661946 0.959662
C 0.000000 -0.661946 0.959662
Cl 0.000000 1.660082 -0.449807
Cl 0.000000 -1.660082 -0.449807
H 0.000000 1.210752 1.888744
H 0.000000 -1.210752 1.888744
$end


$rem
N_FROZEN_CORE FC
MEM_TOTAL 3750
MEM_STATIC 1500
AUX_BASIS_CORR rimp2-def2-QZVPPD
SCF_CONVERGENCE 7
SCF_ALGORITHM  GDM
method DSD-PBEPBE-D3
GEN_SCFMAN TRUE
UNRESTRICTED True
THRESH  14
SYMMETRY FALSE
SYM_IGNORE TRUE
max_scf_cycles 200

XC_GRID 000099000590
BASIS AUG-PC-3


$end





$multipole_field
X 0.0
Y 0.0
Z -0.004
$end




