$molecule
0 1
C -1.237894 -1.104197 -0.000349
C -0.280575 0.059414 -0.004593
N -0.872923 1.267541 0.000200
S 1.365722 -0.118344 0.000090
H -1.971419 -1.006290 -0.804504
H -0.698836 -2.036611 -0.119837
H -1.784470 -1.132530 0.945767
H -1.873504 1.369103 -0.005404
H -0.302047 2.095742 0.010785
$end


$rem
N_FROZEN_CORE FC
MEM_TOTAL 3750
MEM_STATIC 1500
AUX_BASIS_CORR rimp2-def2-QZVPPD
SCF_CONVERGENCE 7
SCF_ALGORITHM  GDM
method DSD-PBEPBE-D3
GEN_SCFMAN TRUE
UNRESTRICTED True
THRESH  14
SYMMETRY FALSE
SYM_IGNORE TRUE
max_scf_cycles 200

XC_GRID 000099000590
BASIS AUG-PC-3


$end





$multipole_field
X 0.004
Y 0.0
Z 0.0
$end




