$molecule
0 1
C 1.232892 0.302834 0.000000
C 1.206555 -1.054025 0.000000
C -1.049356 -1.149467 0.000000
C 0.000000 1.055988 0.000000
N 0.061359 -1.812046 0.000000
N -1.126414 0.202125 0.000000
O -0.144293 2.264784 0.000000
H 2.159160 0.856946 0.000000
H 2.129679 -1.620129 0.000000
H -1.994198 -1.680952 0.000000
H -2.025462 0.663333 0.000000
$end


$rem
N_FROZEN_CORE FC
MEM_TOTAL 15000
MEM_STATIC 6000
AUX_BASIS_CORR rimp2-def2-QZVPPD
SCF_CONVERGENCE 7
SCF_ALGORITHM  GDM
method DSD-PBEPBE-D3
GEN_SCFMAN TRUE
UNRESTRICTED True
THRESH  14
SYMMETRY FALSE
SYM_IGNORE TRUE
max_scf_cycles 200

XC_GRID 000099000590
BASIS AUG-PC-3


$end





$multipole_field
X -0.004
Y 0.0
Z 0.0
$end




