$molecule
0 1
O 0.500202 0.649433 -0.012191
O 1.498887 -0.464552 -0.099113
C -0.689930 0.150600 0.001728
C -1.824334 -0.241903 0.015562
H 1.923095 -0.355188 0.766050
H -2.830223 -0.576039 0.020646
$end


$rem
N_FROZEN_CORE FC
MEM_TOTAL 3750
MEM_STATIC 1500
AUX_BASIS_CORR rimp2-def2-QZVPPD
SCF_CONVERGENCE 7
SCF_ALGORITHM  GDM
method DSD-PBEPBE-D3
GEN_SCFMAN TRUE
UNRESTRICTED True
THRESH  14
SYMMETRY FALSE
SYM_IGNORE TRUE
max_scf_cycles 200

XC_GRID 000099000590
BASIS AUG-PC-3


$end





$multipole_field
X 0.0
Y 0.0
Z -0.004
$end




