$molecule
0 1
C 0.151624 1.390687 0.000000
C 0.020289 0.194427 0.000000
C 0.300477 2.743694 0.000000
C -0.137549 -1.254142 0.000000
C 0.432336 3.940048 0.000000
H 0.548834 4.995753 0.000000
F 0.432336 -1.811612 1.085585
F 0.432336 -1.811612 -1.085585
F -1.437103 -1.608337 0.000000
$end


$rem
N_FROZEN_CORE FC
MEM_TOTAL 7500
MEM_STATIC 3000
AUX_BASIS_CORR rimp2-def2-QZVPPD
SCF_CONVERGENCE 7
SCF_ALGORITHM  GDM
method DSD-PBEPBE-D3
GEN_SCFMAN TRUE
UNRESTRICTED True
THRESH  14
SYMMETRY FALSE
SYM_IGNORE TRUE
max_scf_cycles 200

XC_GRID 000099000590
BASIS AUG-PC-3


$end





$multipole_field
X 0.0
Y 0.004
Z 0.0
$end




