$molecule
0 1
Br 0.484161 -1.250284 0.042825
N 2.403295 1.993003 0.037945
N -3.263844 0.248113 -0.220851
C 0.212892 0.659505 -0.397179
C -0.947883 1.262384 0.413056
C 1.447752 1.383866 -0.156347
C -2.239957 0.683654 0.064803
H -0.012194 0.667867 -1.460128
H -0.982969 2.336793 0.216444
H -0.763464 1.131030 1.479162
$end


$rem
N_FROZEN_CORE FC
MEM_TOTAL 7500
MEM_STATIC 3000
AUX_BASIS_CORR rimp2-def2-QZVPPD
SCF_CONVERGENCE 7
SCF_ALGORITHM  GDM
method DSD-PBEPBE-D3
GEN_SCFMAN TRUE
UNRESTRICTED True
THRESH  14
SYMMETRY FALSE
SYM_IGNORE TRUE
max_scf_cycles 200

XC_GRID 000099000590
BASIS AUG-PC-3


$end





$multipole_field
X 0.0
Y -0.004
Z 0.0
$end




