$molecule
0 1
Br 1.848237 -0.043396 -0.000002
S -2.496229 -0.509277 0.000004
N -0.646434 1.272501 -0.000002
C -0.042288 0.052832 0.000000
C -0.854899 -1.038080 0.000003
C -1.936788 1.132192 0.000000
H -0.587694 -2.079025 0.000005
H -2.632061 1.957134 -0.000001
$end


$rem
N_FROZEN_CORE FC
MEM_TOTAL 7500
MEM_STATIC 3000
AUX_BASIS_CORR rimp2-def2-QZVPPD
SCF_CONVERGENCE 7
SCF_ALGORITHM  GDM
method DSD-PBEPBE-D3
GEN_SCFMAN TRUE
UNRESTRICTED True
THRESH  14
SYMMETRY FALSE
SYM_IGNORE TRUE
max_scf_cycles 200

XC_GRID 000099000590
BASIS AUG-PC-3


$end





$multipole_field
X -0.004
Y 0.0
Z 0.0
$end




