$molecule
0 1
C 0.566910 -0.338873 0.000000
C -0.170872 1.010509 0.000000
H 1.633086 -0.144099 0.000000
Cl 0.182082 -1.256529 1.476575
Cl 0.182082 -1.256529 -1.476575
F -1.497512 0.873510 0.000000
F 0.182082 1.720816 1.083344
F 0.182082 1.720816 -1.083344
$end


$rem
N_FROZEN_CORE FC
MEM_TOTAL 7500
MEM_STATIC 3000
AUX_BASIS_CORR rimp2-def2-QZVPPD
SCF_CONVERGENCE 7
SCF_ALGORITHM  GDM
method DSD-PBEPBE-D3
GEN_SCFMAN TRUE
UNRESTRICTED True
THRESH  14
SYMMETRY FALSE
SYM_IGNORE TRUE
max_scf_cycles 200

XC_GRID 000099000590
BASIS AUG-PC-3


$end





$multipole_field
X -0.004
Y 0.0
Z 0.0
$end




