$molecule
0 1
C 0.000000 1.283548 0.000000
N 1.195886 0.688755 0.000000
N -1.187170 0.683937 0.000000
C 1.154952 -0.633315 0.000000
C -0.067010 -1.302568 0.000000
N -1.219098 -0.643966 0.000000
H -0.131661 -2.382786 0.000000
H 2.096736 -1.170292 0.000000
H -0.020059 2.366010 0.000000
$end


$rem
N_FROZEN_CORE FC
MEM_TOTAL 7500
MEM_STATIC 3000
AUX_BASIS_CORR rimp2-def2-QZVPPD
SCF_CONVERGENCE 7
SCF_ALGORITHM  GDM
method DSD-PBEPBE-D3
GEN_SCFMAN TRUE
UNRESTRICTED True
THRESH  14
SYMMETRY FALSE
SYM_IGNORE TRUE
max_scf_cycles 200

XC_GRID 000099000590
BASIS AUG-PC-3


$end





$multipole_field
X 0.004
Y 0.0
Z 0.0
$end




