$molecule
0 1
O 0.000000 2.236047 0.597444
C 0.000000 1.129930 0.158173
O 0.000000 0.000000 0.969792
C 0.000000 -1.129930 0.158173
O 0.000000 -2.236047 0.597444
C 0.000000 -0.664242 -1.254113
C 0.000000 0.664242 -1.254113
H 0.000000 -1.352815 -2.083086
H 0.000000 1.352815 -2.083086
$end


$rem
N_FROZEN_CORE FC
MEM_TOTAL 7500
MEM_STATIC 3000
AUX_BASIS_CORR rimp2-def2-QZVPPD
SCF_CONVERGENCE 7
SCF_ALGORITHM  GDM
method DSD-PBEPBE-D3
GEN_SCFMAN TRUE
UNRESTRICTED True
THRESH  14
SYMMETRY FALSE
SYM_IGNORE TRUE
max_scf_cycles 200

XC_GRID 000099000590
BASIS AUG-PC-3


$end





$multipole_field
X 0.004
Y 0.0
Z 0.0
$end




