$molecule
0 1
O 3.189684 -0.076657 -0.064099
O -3.189684 0.076659 -0.064103
C 0.681541 -0.006531 -0.008790
C -0.681541 0.006524 -0.008791
C 1.886110 -0.000033 0.003758
C -1.886111 0.000032 0.003757
H 3.604742 0.550174 0.542991
H -3.604744 -0.550143 0.543017
$end


$rem
N_FROZEN_CORE FC
MEM_TOTAL 3750
MEM_STATIC 1500
AUX_BASIS_CORR rimp2-def2-QZVPPD
SCF_CONVERGENCE 7
SCF_ALGORITHM  GDM
method DSD-PBEPBE-D3
GEN_SCFMAN TRUE
UNRESTRICTED True
THRESH  14
SYMMETRY FALSE
SYM_IGNORE TRUE
max_scf_cycles 200

XC_GRID 000099000590
BASIS AUG-PC-3


$end





$multipole_field
X 0.0
Y 0.0
Z 0.004
$end




