$molecule
0 1
F -0.357644 -0.471312 1.292576
F -1.367380 -0.721561 -0.632011
O 0.767788 -0.495627 -0.659306
O 1.909998 0.165753 -0.077280
C -0.382758 -0.035679 -0.006307
C -0.624405 1.447497 -0.059329
H 2.203516 -0.500296 0.562031
H -0.689198 1.760727 -1.098748
H -1.559522 1.670655 0.449572
H 0.191108 1.972855 0.428559
$end


$rem
N_FROZEN_CORE FC
MEM_TOTAL 7500
MEM_STATIC 3000
AUX_BASIS_CORR rimp2-def2-QZVPPD
SCF_CONVERGENCE 7
SCF_ALGORITHM  GDM
method DSD-PBEPBE-D3
GEN_SCFMAN TRUE
UNRESTRICTED True
THRESH  14
SYMMETRY FALSE
SYM_IGNORE TRUE
max_scf_cycles 200

XC_GRID 000099000590
BASIS AUG-PC-3


$end





$multipole_field
X -0.004
Y 0.0
Z 0.0
$end




