$molecule
0 1
C 0.000000 1.290037 -0.095700
S 0.000000 0.000000 1.123017
C 0.000000 -1.290037 -0.095700
S 0.098380 -2.902976 0.183152
S -0.098380 2.902976 0.183152
N 0.082142 0.693918 -1.317219
N -0.082142 -0.693918 -1.317219
H -0.281158 1.189103 -2.119842
H 0.281158 -1.189103 -2.119842
$end


$rem
N_FROZEN_CORE FC
MEM_TOTAL 7500
MEM_STATIC 3000
AUX_BASIS_CORR rimp2-def2-QZVPPD
SCF_CONVERGENCE 7
SCF_ALGORITHM  GDM
method DSD-PBEPBE-D3
GEN_SCFMAN TRUE
UNRESTRICTED True
THRESH  14
SYMMETRY FALSE
SYM_IGNORE TRUE
max_scf_cycles 200

XC_GRID 000099000590
BASIS AUG-PC-3


$end





$multipole_field
X 0.0
Y 0.004
Z 0.0
$end




