$molecule
0 1
C 0.000000 0.000000 0.000000
C 0.000000 0.000000 1.271509
C 0.000000 0.000000 -1.271509
O 0.000000 0.000000 2.431267
O 0.000000 0.000000 -2.431267
$end


$rem
N_FROZEN_CORE FC
MEM_TOTAL 3750
MEM_STATIC 1500
AUX_BASIS_CORR rimp2-def2-QZVPPD
SCF_CONVERGENCE 7
SCF_ALGORITHM  GDM
method DSD-PBEPBE-D3
GEN_SCFMAN TRUE
UNRESTRICTED True
THRESH  14
SYMMETRY FALSE
SYM_IGNORE TRUE
max_scf_cycles 200

XC_GRID 000099000590
BASIS AUG-PC-3


$end










