$molecule
0 1
C 0.455162 -1.119119 0.000000
C -0.440113 -2.087947 0.000000
Br 0.000000 0.729605 0.000000
H 1.522768 -1.275215 0.000000
H -0.108956 -3.118613 0.000000
H -1.504105 -1.899949 0.000000
$end


$rem
N_FROZEN_CORE FC
MEM_TOTAL 3750
MEM_STATIC 1500
AUX_BASIS_CORR rimp2-def2-QZVPPD
SCF_CONVERGENCE 7
SCF_ALGORITHM  GDM
method DSD-PBEPBE-D3
GEN_SCFMAN TRUE
UNRESTRICTED True
THRESH  14
SYMMETRY FALSE
SYM_IGNORE TRUE
max_scf_cycles 200

XC_GRID 000099000590
BASIS AUG-PC-3


$end





$multipole_field
X 0.0
Y 0.0
Z -0.004
$end




