$molecule
0 1
S -1.711330 -0.591498 0.000002
N -0.125713 -1.050663 0.000000
N 3.206102 -0.162108 -0.000004
C -0.041278 1.287387 0.000000
C 0.631726 0.033488 -0.000001
C -1.390605 1.091295 0.000002
C 2.056708 -0.099158 -0.000002
H 0.453822 2.244922 0.000000
H -2.174575 1.830378 0.000003
$end


$rem
N_FROZEN_CORE FC
MEM_TOTAL 7500
MEM_STATIC 3000
AUX_BASIS_CORR rimp2-def2-QZVPPD
SCF_CONVERGENCE 7
SCF_ALGORITHM  GDM
method DSD-PBEPBE-D3
GEN_SCFMAN TRUE
UNRESTRICTED True
THRESH  14
SYMMETRY FALSE
SYM_IGNORE TRUE
max_scf_cycles 200

XC_GRID 000099000590
BASIS AUG-PC-3


$end










