$molecule
0 1
C 0.000000 0.000000 0.828233
C 0.000000 1.221205 0.021726
C 0.000000 -1.221205 0.021726
H 0.879349 0.000000 1.476388
H -0.879349 0.000000 1.476388
N 0.000000 2.195867 -0.584492
N 0.000000 -2.195867 -0.584492
$end


$rem
N_FROZEN_CORE FC
MEM_TOTAL 3750
MEM_STATIC 1500
AUX_BASIS_CORR rimp2-def2-QZVPPD
SCF_CONVERGENCE 7
SCF_ALGORITHM  GDM
method DSD-PBEPBE-D3
GEN_SCFMAN TRUE
UNRESTRICTED True
THRESH  14
SYMMETRY FALSE
SYM_IGNORE TRUE
max_scf_cycles 200

XC_GRID 000099000590
BASIS AUG-PC-3


$end





$multipole_field
X 0.0
Y 0.0
Z -0.004
$end




