$molecule
0 1
C 0.662598 -0.995432 0.000000
C -0.743268 -0.890370 0.000000
C 1.107645 0.307032 0.000000
N -1.142688 0.375589 0.000000
N 0.000000 1.085189 0.000000
H 1.262650 -1.887482 0.000000
H -1.475618 -1.680369 0.000000
H 2.098322 0.726839 0.000000
H -0.048386 2.088195 0.000000
$end


$rem
N_FROZEN_CORE FC
MEM_TOTAL 7500
MEM_STATIC 3000
AUX_BASIS_CORR rimp2-def2-QZVPPD
SCF_CONVERGENCE 7
SCF_ALGORITHM  GDM
method DSD-PBEPBE-D3
GEN_SCFMAN TRUE
UNRESTRICTED True
THRESH  14
SYMMETRY FALSE
SYM_IGNORE TRUE
max_scf_cycles 200

XC_GRID 000099000590
BASIS AUG-PC-3


$end





$multipole_field
X 0.0
Y 0.0
Z -0.004
$end




