$molecule
0 1
S -1.101935 0.129883 0.766287
S 1.586860 -1.013699 0.024402
N -3.556241 0.444182 -0.651748
C -0.110750 -0.717112 -0.552454
C -2.556688 0.312656 -0.085241
C 2.264315 0.527879 -0.112470
C 2.817305 1.593553 -0.189220
H -0.109558 -0.111181 -1.451631
H -0.538550 -1.696769 -0.745449
H 3.297908 2.537882 -0.255392
$end


$rem
N_FROZEN_CORE FC
MEM_TOTAL 7500
MEM_STATIC 3000
AUX_BASIS_CORR rimp2-def2-QZVPPD
SCF_CONVERGENCE 7
SCF_ALGORITHM  GDM
method DSD-PBEPBE-D3
GEN_SCFMAN TRUE
UNRESTRICTED True
THRESH  14
SYMMETRY FALSE
SYM_IGNORE TRUE
max_scf_cycles 200

XC_GRID 000099000590
BASIS AUG-PC-3


$end





$multipole_field
X 0.004
Y 0.0
Z 0.0
$end




