$molecule
0 1
Br -1.611959 -0.676707 -0.060437
S 3.188561 -0.473831 -0.212178
N 0.804766 0.605290 0.683249
C -0.543122 0.946003 0.504531
C -0.745641 2.059764 -0.506152
C 1.810058 0.133187 0.252507
H -0.983142 1.183265 1.466702
H -1.802666 2.302122 -0.586938
H -0.372012 1.764535 -1.484569
H -0.201719 2.945380 -0.173108
$end


$rem
N_FROZEN_CORE FC
MEM_TOTAL 7500
MEM_STATIC 3000
AUX_BASIS_CORR rimp2-def2-QZVPPD
SCF_CONVERGENCE 7
SCF_ALGORITHM  GDM
method DSD-PBEPBE-D3
GEN_SCFMAN TRUE
UNRESTRICTED True
THRESH  14
SYMMETRY FALSE
SYM_IGNORE TRUE
max_scf_cycles 200

XC_GRID 000099000590
BASIS AUG-PC-3


$end





$multipole_field
X 0.0
Y 0.0
Z 0.004
$end




