$molecule
0 1
S 1.535241 1.076974 0.000006
S -2.578025 -0.232305 0.000005
O 2.214634 -1.515497 -0.000019
N -0.028314 -1.003049 -0.000009
C -0.279530 1.342985 0.000012
C -0.953928 -0.011648 0.000002
C 1.338317 -0.698704 -0.000010
H -0.577310 1.904471 -0.882290
H -0.577306 1.904457 0.882325
H -0.308867 -1.974111 -0.000017
$end


$rem
N_FROZEN_CORE FC
MEM_TOTAL 7500
MEM_STATIC 3000
AUX_BASIS_CORR rimp2-def2-QZVPPD
SCF_CONVERGENCE 7
SCF_ALGORITHM  GDM
method DSD-PBEPBE-D3
GEN_SCFMAN TRUE
UNRESTRICTED True
THRESH  14
SYMMETRY FALSE
SYM_IGNORE TRUE
max_scf_cycles 200

XC_GRID 000099000590
BASIS AUG-PC-3


$end










