$molecule
0 1
C 0.639432 -1.264100 0.000000
C 1.220264 -0.033712 0.000000
C -1.203295 -0.069611 0.000000
N -0.732370 -1.277174 0.000000
S 0.000000 1.184691 0.000000
H 1.176233 -2.200416 0.000000
H 2.266607 0.216808 0.000000
H -2.254655 0.173318 0.000000
$end


$rem
N_FROZEN_CORE FC
MEM_TOTAL 3750
MEM_STATIC 1500
AUX_BASIS_CORR rimp2-def2-QZVPPD
SCF_CONVERGENCE 7
SCF_ALGORITHM  GDM
method DSD-PBEPBE-D3
GEN_SCFMAN TRUE
UNRESTRICTED True
THRESH  14
SYMMETRY FALSE
SYM_IGNORE TRUE
max_scf_cycles 200

XC_GRID 000099000590
BASIS AUG-PC-3


$end





$multipole_field
X 0.0
Y 0.004
Z 0.0
$end




