$molecule
0 1
C 0.425915 0.627157 0.000000
C -0.425915 -0.627157 0.000000
F -0.425915 1.731378 0.000000
F 0.425915 -1.731378 0.000000
H 1.051850 0.677105 0.891207
H 1.051850 0.677105 -0.891207
H -1.051850 -0.677105 0.891207
H -1.051850 -0.677105 -0.891207
$end


$rem
N_FROZEN_CORE FC
MEM_TOTAL 3750
MEM_STATIC 1500
AUX_BASIS_CORR rimp2-def2-QZVPPD
SCF_CONVERGENCE 7
SCF_ALGORITHM  GDM
method DSD-PBEPBE-D3
GEN_SCFMAN TRUE
UNRESTRICTED True
THRESH  14
SYMMETRY FALSE
SYM_IGNORE TRUE
max_scf_cycles 200

XC_GRID 000099000590
BASIS AUG-PC-3


$end










