$molecule
0 1
C 1.240203 -0.212740 0.000000
C 0.000000 0.644652 0.000000
Cl 2.702933 0.863781 0.000000
Br -1.595912 -0.518012 0.000000
H 1.306850 -0.832496 0.887890
H 1.306850 -0.832496 -0.887890
H -0.073922 1.259830 -0.889431
H -0.073922 1.259830 0.889431
$end


$rem
N_FROZEN_CORE FC
MEM_TOTAL 3750
MEM_STATIC 1500
AUX_BASIS_CORR rimp2-def2-QZVPPD
SCF_CONVERGENCE 7
SCF_ALGORITHM  GDM
method DSD-PBEPBE-D3
GEN_SCFMAN TRUE
UNRESTRICTED True
THRESH  14
SYMMETRY FALSE
SYM_IGNORE TRUE
max_scf_cycles 200

XC_GRID 000099000590
BASIS AUG-PC-3


$end





$multipole_field
X -0.004
Y 0.0
Z 0.0
$end




