$molecule
0 1
C -0.035450 -0.681860 0.000000
F 1.048578 -1.447157 0.000000
F -1.137562 -1.409159 0.000000
C 0.000000 0.641679 0.000000
F -1.187405 1.293847 0.000000
C 1.198490 1.512864 0.000000
H 2.107235 0.915995 0.000000
H 1.201017 2.155061 0.882809
H 1.201017 2.155061 -0.882809
$end


$rem
N_FROZEN_CORE FC
MEM_TOTAL 7500
MEM_STATIC 3000
AUX_BASIS_CORR rimp2-def2-QZVPPD
SCF_CONVERGENCE 7
SCF_ALGORITHM  GDM
method DSD-PBEPBE-D3
GEN_SCFMAN TRUE
UNRESTRICTED True
THRESH  14
SYMMETRY FALSE
SYM_IGNORE TRUE
max_scf_cycles 200

XC_GRID 000099000590
BASIS AUG-PC-3


$end





$multipole_field
X 0.0
Y 0.0
Z 0.004
$end




