$molecule
0 1
F 2.208132 0.011420 0.000000
N -2.522866 -0.216097 0.000001
C -0.054551 0.505268 0.000000
C 0.934896 -0.381578 0.000000
C -1.412545 0.093056 0.000000
H 0.158393 1.565950 0.000001
H 0.821683 -1.456525 0.000000
$end


$rem
N_FROZEN_CORE FC
MEM_TOTAL 3750
MEM_STATIC 1500
AUX_BASIS_CORR rimp2-def2-QZVPPD
SCF_CONVERGENCE 7
SCF_ALGORITHM  GDM
method DSD-PBEPBE-D3
GEN_SCFMAN TRUE
UNRESTRICTED True
THRESH  14
SYMMETRY FALSE
SYM_IGNORE TRUE
max_scf_cycles 200

XC_GRID 000099000590
BASIS AUG-PC-3


$end





$multipole_field
X 0.004
Y 0.0
Z 0.0
$end




