$molecule
0 1
O 1.238707 -1.255661 0.004628
S 0.503569 -0.000001 0.014979
O 1.238698 1.255665 0.004692
C -0.961544 0.000030 -1.129930
C -1.794509 -0.000009 0.132105
C -0.911283 -0.000031 1.127195
H -1.013806 -0.899488 -1.740062
H -1.013804 0.899596 -1.739990
H -2.873692 -0.000011 0.186098
H -0.971028 -0.000045 2.203515
$end


$rem
N_FROZEN_CORE FC
MEM_TOTAL 7500
MEM_STATIC 3000
AUX_BASIS_CORR rimp2-def2-QZVPPD
SCF_CONVERGENCE 7
SCF_ALGORITHM  GDM
method DSD-PBEPBE-D3
GEN_SCFMAN TRUE
UNRESTRICTED True
THRESH  14
SYMMETRY FALSE
SYM_IGNORE TRUE
max_scf_cycles 200

XC_GRID 000099000590
BASIS AUG-PC-3


$end





$multipole_field
X 0.0
Y 0.0
Z -0.004
$end




