$molecule
0 1
S 2.227257 0.061467 0.015437
C 0.580287 0.139250 0.025344
N -0.170607 1.260373 0.108482
C -1.590238 1.151842 -0.196876
C -1.989229 -0.260741 0.225693
S -0.486681 -1.273692 -0.086772
H 0.312643 2.142650 0.044203
H -1.765588 1.297506 -1.267875
H -2.152266 1.906954 0.352089
H -2.821611 -0.645528 -0.356536
H -2.233067 -0.310700 1.285146
$end


$rem
N_FROZEN_CORE FC
MEM_TOTAL 7500
MEM_STATIC 3000
AUX_BASIS_CORR rimp2-def2-QZVPPD
SCF_CONVERGENCE 7
SCF_ALGORITHM  GDM
method DSD-PBEPBE-D3
GEN_SCFMAN TRUE
UNRESTRICTED True
THRESH  14
SYMMETRY FALSE
SYM_IGNORE TRUE
max_scf_cycles 200

XC_GRID 000099000590
BASIS AUG-PC-3


$end





$multipole_field
X 0.0
Y 0.004
Z 0.0
$end




