$molecule
0 1
S -1.852923 -0.547135 0.000003
S 2.341496 -0.118506 0.000003
N -0.197443 -0.956196 -0.000012
C 0.689320 0.084870 -0.000004
C -0.074363 1.311044 -0.000004
C -1.409363 1.123574 0.000003
H 0.409589 2.273247 -0.000007
H 0.109128 -1.916200 0.000016
H -2.187332 1.869648 0.000005
$end


$rem
N_FROZEN_CORE FC
MEM_TOTAL 7500
MEM_STATIC 3000
AUX_BASIS_CORR rimp2-def2-QZVPPD
SCF_CONVERGENCE 7
SCF_ALGORITHM  GDM
method DSD-PBEPBE-D3
GEN_SCFMAN TRUE
UNRESTRICTED True
THRESH  14
SYMMETRY FALSE
SYM_IGNORE TRUE
max_scf_cycles 200

XC_GRID 000099000590
BASIS AUG-PC-3


$end





$multipole_field
X -0.004
Y 0.0
Z 0.0
$end




