$molecule
0 1
Br -1.882364 0.535029 0.000000
O 2.696637 -1.863890 0.000000
O 2.849176 0.381701 0.000000
C 0.691544 -0.667087 0.000000
C 2.169010 -0.615182 0.000000
C 0.000000 0.465322 0.000000
H 0.218899 -1.637846 0.000000
H 0.473941 1.435314 0.000000
H 3.660057 -1.764272 0.000000
$end


$rem
N_FROZEN_CORE FC
MEM_TOTAL 7500
MEM_STATIC 3000
AUX_BASIS_CORR rimp2-def2-QZVPPD
SCF_CONVERGENCE 7
SCF_ALGORITHM  GDM
method DSD-PBEPBE-D3
GEN_SCFMAN TRUE
UNRESTRICTED True
THRESH  14
SYMMETRY FALSE
SYM_IGNORE TRUE
max_scf_cycles 200

XC_GRID 000099000590
BASIS AUG-PC-3


$end










