$molecule
0 1
O -0.485466 0.609325 0.000033
N -1.490658 -0.472251 -0.000012
C 0.723672 0.132472 0.000000
C 1.867234 -0.225589 -0.000026
H -2.052385 -0.232984 -0.814329
H -2.052359 -0.233078 0.814350
H 2.877638 -0.544080 -0.000049
$end


$rem
N_FROZEN_CORE FC
MEM_TOTAL 3750
MEM_STATIC 1500
AUX_BASIS_CORR rimp2-def2-QZVPPD
SCF_CONVERGENCE 7
SCF_ALGORITHM  GDM
method DSD-PBEPBE-D3
GEN_SCFMAN TRUE
UNRESTRICTED True
THRESH  14
SYMMETRY FALSE
SYM_IGNORE TRUE
max_scf_cycles 200

XC_GRID 000099000590
BASIS AUG-PC-3


$end





$multipole_field
X 0.0
Y 0.0
Z 0.004
$end




