$molecule
0 1
C 1.207137 -1.555590 0.000000
C 1.220086 -0.167956 0.000000
C -0.016035 -2.214360 0.000000
C -1.179306 -0.248424 0.000000
C 0.000000 0.488855 0.000000
N -1.187738 -1.578485 0.000000
Cl -0.068149 2.235327 0.000000
H 2.132085 -2.115420 0.000000
H 2.145085 0.390219 0.000000
H -0.058137 -3.297055 0.000000
H -2.137626 0.255941 0.000000
$end


$rem
N_FROZEN_CORE FC
MEM_TOTAL 15000
MEM_STATIC 6000
AUX_BASIS_CORR rimp2-def2-QZVPPD
SCF_CONVERGENCE 7
SCF_ALGORITHM  GDM
method DSD-PBEPBE-D3
GEN_SCFMAN TRUE
UNRESTRICTED True
THRESH  14
SYMMETRY FALSE
SYM_IGNORE TRUE
max_scf_cycles 200

XC_GRID 000099000590
BASIS AUG-PC-3


$end





$multipole_field
X -0.004
Y 0.0
Z 0.0
$end




