$molecule
0 1
Br -1.189259 -0.038129 0.000000
F 2.886841 0.037952 0.000000
C 0.621468 0.510920 0.000000
C 1.605812 -0.367832 0.000000
H 0.779348 1.577216 0.000000
H 1.499472 -1.442800 0.000000
$end


$rem
N_FROZEN_CORE FC
MEM_TOTAL 3750
MEM_STATIC 1500
AUX_BASIS_CORR rimp2-def2-QZVPPD
SCF_CONVERGENCE 7
SCF_ALGORITHM  GDM
method DSD-PBEPBE-D3
GEN_SCFMAN TRUE
UNRESTRICTED True
THRESH  14
SYMMETRY FALSE
SYM_IGNORE TRUE
max_scf_cycles 200

XC_GRID 000099000590
BASIS AUG-PC-3


$end





$multipole_field
X 0.0
Y 0.004
Z 0.0
$end




