$molecule
0 1
C 1.612095 -0.729797 0.125254
C 1.612095 0.729797 0.125254
C 0.390198 -1.266356 0.004379
C 0.390198 1.266356 0.004379
O -2.034840 0.000000 0.503621
S -0.812350 0.000000 -0.367403
H 2.522887 -1.308036 0.196077
H 2.522887 1.308036 0.196077
H 0.101515 -2.302731 -0.049137
H 0.101515 2.302731 -0.049137
$end


$rem
N_FROZEN_CORE FC
MEM_TOTAL 7500
MEM_STATIC 3000
AUX_BASIS_CORR rimp2-def2-QZVPPD
SCF_CONVERGENCE 7
SCF_ALGORITHM  GDM
method DSD-PBEPBE-D3
GEN_SCFMAN TRUE
UNRESTRICTED True
THRESH  14
SYMMETRY FALSE
SYM_IGNORE TRUE
max_scf_cycles 200

XC_GRID 000099000590
BASIS AUG-PC-3


$end





$multipole_field
X 0.0
Y 0.004
Z 0.0
$end




