$molecule
0 1
H 2.562959 -0.097562 0.819589
H 2.562959 -0.097562 -0.819589
N 2.216312 -0.578879 0.000000
H 0.469894 -1.278430 0.874317
H 0.469894 -1.278430 -0.874317
C 0.770226 -0.700586 0.000000
H 0.275992 1.231576 0.878759
H 0.275992 1.231576 -0.878759
C 0.000000 0.644465 0.000000
N -2.581961 0.274773 0.000000
C -1.446584 0.459050 0.000000
$end


$rem
N_FROZEN_CORE FC
MEM_TOTAL 7500
MEM_STATIC 3000
AUX_BASIS_CORR rimp2-def2-QZVPPD
SCF_CONVERGENCE 7
SCF_ALGORITHM  GDM
method DSD-PBEPBE-D3
GEN_SCFMAN TRUE
UNRESTRICTED True
THRESH  14
SYMMETRY FALSE
SYM_IGNORE TRUE
max_scf_cycles 200

XC_GRID 000099000590
BASIS AUG-PC-3


$end





$multipole_field
X 0.0
Y 0.004
Z 0.0
$end




