$molecule
0 1
C 0.054241 1.100477 1.268813
C 0.054241 1.100477 -1.268813
C -0.409424 0.392082 0.000000
S 0.054241 -1.399668 0.000000
H -0.309019 2.131146 1.280502
H -0.310858 0.595967 2.161592
H 1.144294 1.131346 1.319556
H -0.309019 2.131146 -1.280502
H -0.310858 0.595967 -2.161592
H 1.144294 1.131346 -1.319556
H -1.500071 0.339611 0.000000
H 1.389046 -1.220063 0.000000
$end


$rem
N_FROZEN_CORE FC
MEM_TOTAL 7500
MEM_STATIC 3000
AUX_BASIS_CORR rimp2-def2-QZVPPD
SCF_CONVERGENCE 7
SCF_ALGORITHM  GDM
method DSD-PBEPBE-D3
GEN_SCFMAN TRUE
UNRESTRICTED True
THRESH  14
SYMMETRY FALSE
SYM_IGNORE TRUE
max_scf_cycles 200

XC_GRID 000099000590
BASIS AUG-PC-3


$end





$multipole_field
X 0.0
Y 0.0
Z 0.004
$end




