$molecule
0 1
Cl -2.008972 -0.645633 -0.000016
S 0.916995 -1.382670 0.000044
N 1.562136 1.012518 -0.000064
N 2.104548 -0.138903 0.000000
C -0.342527 -0.225321 -0.000029
C 0.192585 1.037355 -0.000081
C -0.528302 2.343259 0.000042
H -0.251761 2.929510 -0.876767
H -1.605449 2.196556 -0.004895
H -0.259520 2.925361 0.882074
$end


$rem
N_FROZEN_CORE FC
MEM_TOTAL 7500
MEM_STATIC 3000
AUX_BASIS_CORR rimp2-def2-QZVPPD
SCF_CONVERGENCE 7
SCF_ALGORITHM  GDM
method DSD-PBEPBE-D3
GEN_SCFMAN TRUE
UNRESTRICTED True
THRESH  14
SYMMETRY FALSE
SYM_IGNORE TRUE
max_scf_cycles 200

XC_GRID 000099000590
BASIS AUG-PC-3


$end





$multipole_field
X 0.004
Y 0.0
Z 0.0
$end




