$molecule
0 1
O 1.086627 -0.768894 -0.000019
O -1.086627 -0.768894 -0.000018
N 3.344570 0.172429 0.000005
N -3.344570 0.172429 0.000011
C 0.000000 0.087074 -0.000001
C 2.270510 -0.244533 -0.000005
C -2.270510 -0.244533 -0.000002
C 0.000000 1.401601 0.000027
H -0.931172 1.945319 0.000038
H 0.931172 1.945319 0.000038
$end


$rem
N_FROZEN_CORE FC
MEM_TOTAL 15000
MEM_STATIC 6000
AUX_BASIS_CORR rimp2-def2-QZVPPD
SCF_CONVERGENCE 7
SCF_ALGORITHM  GDM
method DSD-PBEPBE-D3
GEN_SCFMAN TRUE
UNRESTRICTED True
THRESH  14
SYMMETRY FALSE
SYM_IGNORE TRUE
max_scf_cycles 200

XC_GRID 000099000590
BASIS AUG-PC-3


$end





$multipole_field
X 0.0
Y 0.004
Z 0.0
$end




