$molecule
0 1
N -0.091593 -0.542859 -0.000002
N -1.235025 -0.089021 0.000000
N -2.326717 0.196979 0.000000
C 0.978435 0.373808 0.000000
C 2.241526 -0.037019 0.000000
H 0.716580 1.426207 0.000003
H 2.493945 -1.087536 -0.000002
H 3.043059 0.684904 0.000002
$end


$rem
N_FROZEN_CORE FC
MEM_TOTAL 3750
MEM_STATIC 1500
AUX_BASIS_CORR rimp2-def2-QZVPPD
SCF_CONVERGENCE 7
SCF_ALGORITHM  GDM
method DSD-PBEPBE-D3
GEN_SCFMAN TRUE
UNRESTRICTED True
THRESH  14
SYMMETRY FALSE
SYM_IGNORE TRUE
max_scf_cycles 200

XC_GRID 000099000590
BASIS AUG-PC-3


$end





$multipole_field
X 0.004
Y 0.0
Z 0.0
$end




