$molecule
0 1
C -1.612388 0.682359 0.140260
C -1.488887 -0.779323 0.122520
C -0.420753 1.265282 -0.005680
N -0.318061 -1.288315 -0.012961
O 1.964766 0.007831 0.533864
S 0.794812 -0.007586 -0.382382
H -2.559721 1.190971 0.248025
H -2.350133 -1.435001 0.211100
H -0.166681 2.311049 -0.063797
$end


$rem
N_FROZEN_CORE FC
MEM_TOTAL 7500
MEM_STATIC 3000
AUX_BASIS_CORR rimp2-def2-QZVPPD
SCF_CONVERGENCE 7
SCF_ALGORITHM  GDM
method DSD-PBEPBE-D3
GEN_SCFMAN TRUE
UNRESTRICTED True
THRESH  14
SYMMETRY FALSE
SYM_IGNORE TRUE
max_scf_cycles 200

XC_GRID 000099000590
BASIS AUG-PC-3


$end





$multipole_field
X 0.0
Y 0.004
Z 0.0
$end




