$molecule
0 1
O -2.769216 -0.536264 0.000215
C -0.546543 0.198083 -0.000698
C -1.974175 0.375575 0.000309
C 0.660285 0.101518 -0.000632
C 2.012661 -0.024555 -0.000207
C 3.212576 -0.134634 0.000498
H -2.304988 1.428398 0.001460
H 4.269894 -0.234210 0.001198
$end


$rem
N_FROZEN_CORE FC
MEM_TOTAL 3750
MEM_STATIC 1500
AUX_BASIS_CORR rimp2-def2-QZVPPD
SCF_CONVERGENCE 7
SCF_ALGORITHM  GDM
method DSD-PBEPBE-D3
GEN_SCFMAN TRUE
UNRESTRICTED True
THRESH  14
SYMMETRY FALSE
SYM_IGNORE TRUE
max_scf_cycles 200

XC_GRID 000099000590
BASIS AUG-PC-3


$end





$multipole_field
X -0.004
Y 0.0
Z 0.0
$end




