$molecule
0 1
F 2.330214 -0.536042 0.000001
F -2.393334 -0.522974 -0.000003
N 1.036400 -0.102187 0.000000
C -1.116301 -0.113298 0.000000
C -0.028009 -0.957326 -0.000003
C 0.691209 1.205519 0.000003
C -0.693561 1.228172 0.000003
H 0.078795 -2.024555 -0.000006
H 1.428370 1.986186 0.000006
H -1.313902 2.106420 0.000004
$end


$rem
N_FROZEN_CORE FC
MEM_TOTAL 7500
MEM_STATIC 3000
AUX_BASIS_CORR rimp2-def2-QZVPPD
SCF_CONVERGENCE 7
SCF_ALGORITHM  GDM
method DSD-PBEPBE-D3
GEN_SCFMAN TRUE
UNRESTRICTED True
THRESH  14
SYMMETRY FALSE
SYM_IGNORE TRUE
max_scf_cycles 200

XC_GRID 000099000590
BASIS AUG-PC-3


$end










