$molecule
0 1
F -1.669344 0.483858 -0.453523
F -0.788373 -1.103319 0.767200
O 0.629635 1.223624 0.727671
N -0.619879 -0.472984 -0.472184
C 0.621002 0.357868 -0.363789
C 1.814672 -0.567909 -0.285540
H -0.126057 1.819060 0.668820
H 0.599329 0.897393 -1.316545
H 2.723091 0.026037 -0.362124
H 1.817974 -1.095028 0.666070
H 1.793148 -1.290166 -1.099425
$end


$rem
N_FROZEN_CORE FC
MEM_TOTAL 7500
MEM_STATIC 3000
AUX_BASIS_CORR rimp2-def2-QZVPPD
SCF_CONVERGENCE 7
SCF_ALGORITHM  GDM
method DSD-PBEPBE-D3
GEN_SCFMAN TRUE
UNRESTRICTED True
THRESH  14
SYMMETRY FALSE
SYM_IGNORE TRUE
max_scf_cycles 200

XC_GRID 000099000590
BASIS AUG-PC-3


$end





$multipole_field
X -0.004
Y 0.0
Z 0.0
$end




