$molecule
0 1
C 1.977238 -0.001331 0.000000
C 0.770993 0.001118 0.000000
C 3.336251 -0.004812 0.000000
C -0.659885 0.001640 0.000000
C 4.540805 -0.008521 0.000000
H 5.602698 -0.011921 0.000000
Cl -1.282257 -0.846315 1.468789
Cl -1.282257 -0.846315 -1.468789
Cl -1.282257 1.697533 0.000000
$end


$rem
N_FROZEN_CORE FC
MEM_TOTAL 7500
MEM_STATIC 3000
AUX_BASIS_CORR rimp2-def2-QZVPPD
SCF_CONVERGENCE 7
SCF_ALGORITHM  GDM
method DSD-PBEPBE-D3
GEN_SCFMAN TRUE
UNRESTRICTED True
THRESH  14
SYMMETRY FALSE
SYM_IGNORE TRUE
max_scf_cycles 200

XC_GRID 000099000590
BASIS AUG-PC-3


$end










