$molecule
0 1
C 0.000000 0.000000 0.631617
C 0.000000 0.000000 -0.631617
C 0.000000 0.000000 1.943149
C 0.000000 0.000000 -1.943149
H 0.000000 0.924533 2.508102
H 0.000000 -0.924533 2.508102
H 0.000000 0.924533 -2.508102
H 0.000000 -0.924533 -2.508102
$end


$rem
N_FROZEN_CORE FC
MEM_TOTAL 3750
MEM_STATIC 1500
AUX_BASIS_CORR rimp2-def2-QZVPPD
SCF_CONVERGENCE 7
SCF_ALGORITHM  GDM
method DSD-PBEPBE-D3
GEN_SCFMAN TRUE
UNRESTRICTED True
THRESH  14
SYMMETRY FALSE
SYM_IGNORE TRUE
max_scf_cycles 200

XC_GRID 000099000590
BASIS AUG-PC-3


$end





$multipole_field
X 0.0
Y 0.004
Z 0.0
$end




