$molecule
0 1
N -1.139760 -0.058016 0.000000
C 0.000000 0.597494 0.000000
C 0.176443 2.072182 0.000000
H 0.723233 2.405707 0.882916
H 0.723233 2.405707 -0.882916
H -0.803151 2.542233 0.000000
N 0.988808 -0.317104 0.000000
N 0.447343 -1.553756 0.000000
N -0.823573 -1.381071 0.000000
H 1.988304 -0.202077 0.000000
$end


$rem
N_FROZEN_CORE FC
MEM_TOTAL 7500
MEM_STATIC 3000
AUX_BASIS_CORR rimp2-def2-QZVPPD
SCF_CONVERGENCE 7
SCF_ALGORITHM  GDM
method DSD-PBEPBE-D3
GEN_SCFMAN TRUE
UNRESTRICTED True
THRESH  14
SYMMETRY FALSE
SYM_IGNORE TRUE
max_scf_cycles 200

XC_GRID 000099000590
BASIS AUG-PC-3


$end





$multipole_field
X 0.0
Y 0.0
Z -0.004
$end




