$molecule
0 1
C         -0.36669639      1.09770915      0.00000000
C         -0.74265399     -0.20748995      0.00000000
C          0.26054196     -1.23767180      0.00000000
O          1.47549118     -1.00417587      0.00000000
O          0.88867758      1.50688505      0.00000000
H         -1.08415777      1.90734684      0.00000000
H         -1.78845101     -0.46387920      0.00000000
H         -0.08100846     -2.28035682      0.00000000
H          1.43825691      0.68163259      0.00000000
$end


$rem
N_FROZEN_CORE FC
MEM_TOTAL 3750
MEM_STATIC 1500
AUX_BASIS_CORR rimp2-def2-QZVPPD
SCF_CONVERGENCE 7
SCF_ALGORITHM  GDM
method DSD-PBEPBE-D3
GEN_SCFMAN TRUE
UNRESTRICTED True
THRESH  14
SYMMETRY FALSE
SYM_IGNORE TRUE
max_scf_cycles 200

XC_GRID 000099000590
BASIS DEF2-QZVPPD


$end










