$molecule
0 1
C         -0.66717148     -1.03567935      0.00000000
C         -1.41289776      0.12847697      0.00000000
C         -0.75619574      1.35929320      0.00000000
C          0.62778458      1.36351022      0.00000000
N          1.36752690      0.24350378      0.00000000
C          0.72350962     -0.91250172      0.00000000
O          1.46706789     -2.04289513      0.00000000
H         -2.49245051      0.07984556      0.00000000
H         -1.30381581      2.28913413      0.00000000
H          1.18132093      2.29270831      0.00000000
H         -1.12163514     -2.01420415      0.00000000
H          2.38695654     -1.75119182      0.00000000
$end


$rem
N_FROZEN_CORE FC
MEM_TOTAL 3750
MEM_STATIC 1500
AUX_BASIS_CORR rimp2-def2-QZVPPD
SCF_CONVERGENCE 7
SCF_ALGORITHM  GDM
method DSD-PBEPBE-D3
GEN_SCFMAN TRUE
UNRESTRICTED True
THRESH  14
SYMMETRY FALSE
SYM_IGNORE TRUE
max_scf_cycles 200

XC_GRID 000099000590
BASIS DEF2-QZVPPD


$end










