$molecule
0 1
C         -0.54918430      0.14626580      0.00000000
O         -1.03357254     -0.95645391      0.00000000
S          1.17920353      0.51275605      0.00000000
H         -1.14791035      1.06774983      0.00000000
H          1.55146366     -0.77031777      0.00000000
$end


$rem
N_FROZEN_CORE FC
MEM_TOTAL 3750
MEM_STATIC 1500
AUX_BASIS_CORR rimp2-def2-QZVPPD
SCF_CONVERGENCE 7
SCF_ALGORITHM  GDM
method DSD-PBEPBE-D3
GEN_SCFMAN TRUE
UNRESTRICTED True
THRESH  14
SYMMETRY FALSE
SYM_IGNORE TRUE
max_scf_cycles 200

XC_GRID 000099000590
BASIS DEF2-QZVPPD


$end










