$molecule
0 1
C         -0.34912741      0.20745894      0.00000000
S         -1.16442807     -1.18417433      0.00000000
O          0.97848939      0.34242450      0.00000000
H         -0.81866004      1.18537243      0.00000000
H          1.35372612     -0.55108154      0.00000000
$end


$rem
N_FROZEN_CORE FC
MEM_TOTAL 3750
MEM_STATIC 1500
AUX_BASIS_CORR rimp2-def2-QZVPPD
SCF_CONVERGENCE 7
SCF_ALGORITHM  GDM
method DSD-PBEPBE-D3
GEN_SCFMAN TRUE
UNRESTRICTED True
THRESH  14
SYMMETRY FALSE
SYM_IGNORE TRUE
max_scf_cycles 200

XC_GRID 000099000590
BASIS DEF2-QZVPPD


$end










