$molecule
0 1
C         -1.30157395     -1.75099187     -0.38234703
C          1.30157395      1.75099187     -0.38234703
C          0.00000000      0.00000000      0.96628708
C         -1.17879673     -0.31875012      0.05453468
C          1.17879673      0.31875012      0.05453468
O         -1.93150560      0.55833218     -0.31815984
O          1.93150560     -0.55833218     -0.31815984
H         -2.05739031     -1.84597424     -1.15399408
H         -1.57320228     -2.36263041      0.47779540
H         -0.33652102     -2.10938369     -0.73849983
H          1.57320228      2.36263041      0.47779540
H          0.33652102      2.10938369     -0.73849983
H          2.05739031      1.84597424     -1.15399408
H          0.26139903     -0.85897863      1.57802701
H         -0.26139903      0.85897863      1.57802701
$end


$rem
N_FROZEN_CORE FC
MEM_TOTAL 7500
MEM_STATIC 3000
AUX_BASIS_CORR rimp2-def2-QZVPPD
SCF_CONVERGENCE 7
SCF_ALGORITHM  GDM
method DSD-PBEPBE-D3
GEN_SCFMAN TRUE
UNRESTRICTED True
THRESH  14
SYMMETRY FALSE
SYM_IGNORE TRUE
max_scf_cycles 200

XC_GRID 000099000590
BASIS DEF2-QZVPPD


$end










