$molecule
0 1
N         -0.72219557      0.27784384      0.00000000
N          0.02564879      1.38725382      0.00000000
N          1.26640178      0.97739169      0.00000000
N          1.33004439     -0.37657021      0.00000000
C          0.08136949     -0.79585655      0.00000000
H         -1.72582264      0.34508004      0.00000000
H         -0.25544623     -1.81514262      0.00000000
$end


$rem
N_FROZEN_CORE FC
MEM_TOTAL 3750
MEM_STATIC 1500
AUX_BASIS_CORR rimp2-def2-QZVPPD
SCF_CONVERGENCE 7
SCF_ALGORITHM  GDM
method DSD-PBEPBE-D3
GEN_SCFMAN TRUE
UNRESTRICTED True
THRESH  14
SYMMETRY FALSE
SYM_IGNORE TRUE
max_scf_cycles 200

XC_GRID 000099000590
BASIS DEF2-QZVPPD


$end










