$molecule
0 1
C         -0.73586098     -0.99270074      0.00000000
C         -1.47109448      0.18120002      0.00000000
C         -0.79581949      1.39823489      0.00000000
C          0.59152606      1.38018078      0.00000000
N          1.32052182      0.25620207      0.00000000
C          0.65929814     -0.90259492      0.00000000
S          1.60175185     -2.39315827      0.00000000
H         -2.55130429      0.14687948      0.00000000
H         -1.32825693      2.33734511      0.00000000
H          1.15616758      2.30319343      0.00000000
H         -1.22094622     -1.95827219      0.00000000
H          2.77401696     -1.75650966      0.00000000
$end


$rem
N_FROZEN_CORE FC
MEM_TOTAL 3750
MEM_STATIC 1500
AUX_BASIS_CORR rimp2-def2-QZVPPD
SCF_CONVERGENCE 7
SCF_ALGORITHM  GDM
method DSD-PBEPBE-D3
GEN_SCFMAN TRUE
UNRESTRICTED True
THRESH  14
SYMMETRY FALSE
SYM_IGNORE TRUE
max_scf_cycles 200

XC_GRID 000099000590
BASIS DEF2-QZVPPD


$end










