$molecule
0 1
C         -1.00397318     -0.23174512      0.00000000
N         -0.36247433      0.94035927      0.00000000
N          0.88778637      0.52425614      0.00000000
N          1.05292158     -0.79112616      0.00000000
N         -0.17159421     -1.28817370      0.00000000
H         -2.07447886     -0.31082202      0.00000000
H          1.67181263      1.15725159      0.00000000
$end


$rem
N_FROZEN_CORE FC
MEM_TOTAL 3750
MEM_STATIC 1500
AUX_BASIS_CORR rimp2-def2-QZVPPD
SCF_CONVERGENCE 7
SCF_ALGORITHM  GDM
method DSD-PBEPBE-D3
GEN_SCFMAN TRUE
UNRESTRICTED True
THRESH  14
SYMMETRY FALSE
SYM_IGNORE TRUE
max_scf_cycles 200

XC_GRID 000099000590
BASIS DEF2-QZVPPD


$end










