$molecule
0 1
N          2.24500666     -0.35408952     -0.11633181
C          0.87816666     -0.36491462     -0.05679751
C          0.51437853      0.98336238     -0.07558571
N          1.62015692      1.80495224     -0.14526952
C          2.62803419      0.96398338     -0.16841782
C         -0.86503827      1.20801640     -0.01211801
N         -1.70674823      0.19417112      0.05059770
C         -1.20927270     -1.06469887      0.05290750
N          0.07026970     -1.42433150      0.00951189
O         -1.35588011      2.45125339     -0.01010141
N         -2.14569307     -2.06591575      0.05742510
H          3.66530537      1.24727080     -0.22259852
H         -3.05549664     -1.80471853      0.39090222
H         -1.80769704     -2.96845462      0.33868412
H         -2.31644238      2.35729598      0.03342220
H          2.84095041     -1.16318228     -0.12623042
$end


$rem
N_FROZEN_CORE FC
MEM_TOTAL 15000
MEM_STATIC 6000
AUX_BASIS_CORR rimp2-def2-QZVPPD
SCF_CONVERGENCE 7
SCF_ALGORITHM  GDM
method DSD-PBEPBE-D3
GEN_SCFMAN TRUE
UNRESTRICTED True
THRESH  14
SYMMETRY FALSE
SYM_IGNORE TRUE
max_scf_cycles 200

XC_GRID 000099000590
BASIS DEF2-QZVPPD


$end










