$molecule
0 1
C         -1.03125235      0.70500968     -0.30483435
C         -0.21523179     -0.50820834      0.06027926
C          1.24660375     -0.18639028      0.23813763
O          1.72008544      0.91289008      0.05991155
O         -1.74005929      0.75706628     -1.28347367
H         -0.95366498      1.55797214      0.38535682
H         -0.32816406     -1.28012786     -0.70099735
H         -0.58265235     -0.92590626      1.00238498
H          1.88433564     -1.03230546      0.54323512
$end


$rem
N_FROZEN_CORE FC
MEM_TOTAL 3750
MEM_STATIC 1500
AUX_BASIS_CORR rimp2-def2-QZVPPD
SCF_CONVERGENCE 7
SCF_ALGORITHM  GDM
method DSD-PBEPBE-D3
GEN_SCFMAN TRUE
UNRESTRICTED True
THRESH  14
SYMMETRY FALSE
SYM_IGNORE TRUE
max_scf_cycles 200

XC_GRID 000099000590
BASIS DEF2-QZVPPD


$end










