$molecule
1 1
Ir       0.050361    0.056236   -0.150076 
C        0.978842   -1.302743   -1.517387 
C       -1.864665    1.028637    0.563211 
C       -1.426558    0.128925    1.555248 
C       -1.389999   -1.187568    0.972706 
C       -1.852948   -1.076424   -0.368776 
C       -2.115280    0.291316   -0.640524 
H        0.395138   -1.326753   -2.435403 
H        2.003015   -1.039631   -1.784042 
H        0.978935   -2.299217   -1.075482 
H       -1.949414   -1.889112   -1.072248 
H       -2.488115    0.695321   -1.568578 
H       -1.982151    2.094988    0.682898 
H       -1.179131    0.379256    2.575311 
H       -1.144965   -2.105263    1.484015 
C        0.981659    2.033847   -0.552795 
H        0.609290    0.819803   -1.428069 
H        0.362656    2.677374   -1.174650 
H        1.003724    2.445002    0.454509 
H        1.994491    2.026607   -0.953376 
P        1.998129   -0.331589    0.938590 
H        2.205383    0.285042    2.190624 
H        2.302734   -1.672090    1.247762 
H        3.172367    0.056392    0.263634 
$end


$rem
N_FROZEN_CORE FC
MEM_TOTAL 15000
MEM_STATIC 6000
AUX_BASIS_CORR rimp2-def2-QZVPPD
SCF_CONVERGENCE 7
SCF_ALGORITHM  GDM
method DSD-PBEPBE-D3
GEN_SCFMAN TRUE
UNRESTRICTED True
THRESH  14
SYMMETRY FALSE
SYM_IGNORE TRUE
max_scf_cycles 200

XC_GRID 000099000590
BASIS DEF2-QZVPP


$end










