$molecule
0 1
O -0.77446723 0.6531056 -8.420489049791046e-06
H 0.14024465 0.3493741 -1.1460468507930477e-05
C -1.61364112 -0.48795506 -5.81352973365337e-05
H -2.64323102 -0.1332504 0.0007089048375539614
H -1.4619209997514084 -1.108516000936443 -0.888893835289253
H -1.4628594002485915 -1.1085030390635568 0.889018724710747
O 2.01332033 -0.18100946 3.5082645711824065e-07
H 2.4898069221548425 0.15919169605091998 -0.7603675376822119
H 2.489810497845158 0.15919264394908 0.7603654823177881
$end


$rem
N_FROZEN_CORE FC
MEM_TOTAL 3750
MEM_STATIC 1500
AUX_BASIS_CORR rimp2-def2-QZVPPD
SCF_CONVERGENCE 7
SCF_ALGORITHM  GDM
method DSD-PBEPBE-D3
GEN_SCFMAN TRUE
UNRESTRICTED True
THRESH  14
SYMMETRY FALSE
SYM_IGNORE TRUE
max_scf_cycles 200

XC_GRID 000099000590
BASIS DEF2-QZVPPD


$end



$comment
step_size = 0.001
$end






