$molecule
0 1
O -1.4770128674445793 -0.0579161072594348 0.0
H -1.850343993060898 0.824433730308195 0.0
H -0.5148797772702146 0.07746355232314978 0.0
N 1.4611721405793585 0.014266997126520685 0.0
H 1.653565637787619 -0.9805745566195194 0.0
H 1.9254433444739858 0.39980864343484745 0.8134111123037073
H 1.9254433444739858 0.39980864343484745 -0.8134111123037073
$end


$rem
N_FROZEN_CORE FC
MEM_TOTAL 3750
MEM_STATIC 1500
AUX_BASIS_CORR rimp2-def2-QZVPPD
SCF_CONVERGENCE 7
SCF_ALGORITHM  GDM
method DSD-PBEPBE-D3
GEN_SCFMAN TRUE
UNRESTRICTED True
THRESH  14
SYMMETRY FALSE
SYM_IGNORE TRUE
max_scf_cycles 200

XC_GRID 000099000590
BASIS DEF2-QZVPPD


$end



$comment
step_size = 0.001
$end






