$molecule
0 1
H 0.81510733 1.86371326 4.746540561618679e-05
O -0.06707907 1.49007779 8.318746122209433e-05
H 0.07134934 0.53489984 -0.0027134627446705356
H -0.4126019070080726 -1.7616221226432667 0.759932294981388
O 0.06322345 -1.41931184 0.00011194081764011046
H -0.41266323299192736 -1.7600979173567333 -0.760363125018612
$end


$rem
N_FROZEN_CORE FC
MEM_TOTAL 3750
MEM_STATIC 1500
AUX_BASIS_CORR rimp2-def2-QZVPPD
SCF_CONVERGENCE 7
SCF_ALGORITHM  GDM
method DSD-PBEPBE-D3
GEN_SCFMAN TRUE
UNRESTRICTED True
THRESH  14
SYMMETRY FALSE
SYM_IGNORE TRUE
max_scf_cycles 200

XC_GRID 000099000590
BASIS DEF2-QZVPPD


$end



$comment
step_size = 0.003
$end






