$molecule
0 1
F -1.0021680697936925e-08 1.7601192823951461 0.0
H 3.4007680010388684e-07 0.8346678219599574 0.0
C 5.001827313601985e-08 -1.3172538863477292 -0.6039941362629905
C 5.001827313601985e-08 -1.3172538863477292 0.6039941362629905
H -6.299868513440817e-07 -1.322928926112356 1.6688100863024629
H -6.299868513440817e-07 -1.322928926112356 -1.6688100863024629
$end


$rem
N_FROZEN_CORE FC
MEM_TOTAL 3750
MEM_STATIC 1500
AUX_BASIS_CORR rimp2-def2-QZVPPD
SCF_CONVERGENCE 7
SCF_ALGORITHM  GDM
method DSD-PBEPBE-D3
GEN_SCFMAN TRUE
UNRESTRICTED True
THRESH  14
SYMMETRY FALSE
SYM_IGNORE TRUE
max_scf_cycles 200

XC_GRID 000099000590
BASIS DEF2-QZVPPD


$end



$comment
step_size = 0.003
$end






