$molecule
0 1
F -2.4777940499342436e-12 1.272953166803311 0.0
H 2.101221231223934e-07 0.3236497919483621 0.0
N 2.0048181912513842e-08 -1.3727516676727638 0.0
H 0.9404508020835038 -1.748821510135479 0.0
H -0.47022568141399834 -1.7488207403873954 0.8144544591755177
H -0.47022568141399834 -1.7488207403873954 -0.8144544591755177
$end


$rem
N_FROZEN_CORE FC
MEM_TOTAL 3750
MEM_STATIC 1500
AUX_BASIS_CORR rimp2-def2-QZVPPD
SCF_CONVERGENCE 7
SCF_ALGORITHM  GDM
method DSD-PBEPBE-D3
GEN_SCFMAN TRUE
UNRESTRICTED True
THRESH  14
SYMMETRY FALSE
SYM_IGNORE TRUE
max_scf_cycles 200

XC_GRID 000099000590
BASIS DEF2-QZVPPD


$end



$comment
step_size = 0.001
$end






