$molecule
0 1
H 0.8155264624078037 1.8631283768761453 0.0
O -0.06705445441655142 1.4904211095980473 0.0
H 0.0704363626089326 0.5351094762820543 0.0
H -0.4118191660016854 -1.7622478863545417 0.7601538779786096
O 0.06312744742248663 -1.4194566192490523 0.0
H -0.4118191660016854 -1.7622478863545417 -0.7601538779786096
$end


$rem
N_FROZEN_CORE FC
MEM_TOTAL 3750
MEM_STATIC 1500
AUX_BASIS_CORR rimp2-def2-QZVPPD
SCF_CONVERGENCE 7
SCF_ALGORITHM  GDM
method DSD-PBEPBE-D3
GEN_SCFMAN TRUE
UNRESTRICTED True
THRESH  14
SYMMETRY FALSE
SYM_IGNORE TRUE
max_scf_cycles 200

XC_GRID 000099000590
BASIS DEF2-QZVPPD


$end



$comment
step_size = 0.003
$end






