$molecule
0 1
O -0.7739535733609059 0.652126699790388 0.0
H 0.14030602099289932 0.34702132020704807 0.0
C -1.6151087189612383 -0.48747328093563685 -0.0
H -2.6440743642975786 -0.1309569676855526 0.0
H -1.4649580014665338 -1.1082887540521886 -0.8889602956303969
H -1.4649580014665338 -1.1082887540521886 0.8889602956303969
O 2.0143153168560253 -0.1806846847982278 -0.0
H 2.4895330888189515 0.16132356749093735 -0.7603576294306643
H 2.4895330888189515 0.16132356749093735 0.7603576294306643
$end


$rem
N_FROZEN_CORE FC
MEM_TOTAL 3750
MEM_STATIC 1500
AUX_BASIS_CORR rimp2-def2-QZVPPD
SCF_CONVERGENCE 7
SCF_ALGORITHM  GDM
method DSD-PBEPBE-D3
GEN_SCFMAN TRUE
UNRESTRICTED True
THRESH  14
SYMMETRY FALSE
SYM_IGNORE TRUE
max_scf_cycles 200

XC_GRID 000099000590
BASIS DEF2-QZVPPD


$end



$comment
step_size = 0.01
$end






