$molecule
0 1
F 2.2942537499391146e-12 1.2729462598143284 0.0
H 2.0995945831091835e-07 0.3238315544285031 0.0
N 2.0060955597584066e-08 -1.3728236113743595 0.0
H 0.941176294402733 -1.7485054932927278 0.0
H -0.47058842762640674 -1.748504723094502 0.8150827543229079
H -0.47058842762640674 -1.748504723094502 -0.8150827543229079
$end


$rem
N_FROZEN_CORE FC
MEM_TOTAL 3750
MEM_STATIC 1500
AUX_BASIS_CORR rimp2-def2-QZVPPD
SCF_CONVERGENCE 7
SCF_ALGORITHM  GDM
method DSD-PBEPBE-D3
GEN_SCFMAN TRUE
UNRESTRICTED True
THRESH  14
SYMMETRY FALSE
SYM_IGNORE TRUE
max_scf_cycles 200

XC_GRID 000099000590
BASIS DEF2-QZVPPD


$end



$comment
step_size = 0.001
$end






