$molecule
0 1
F -0.00010903038166426808 1.7596153299271116 0.0
H 0.0029393425459992013 0.8341588111158428 0.0
C -2.306127293441602e-05 -1.31686907000459 -0.6039940900003464
C -2.306127293441602e-05 -1.31686907000459 0.6039940900003464
H -0.00016738534986433212 -1.3225063797950005 1.6688107899142348
H -0.00016738534986433212 -1.3225063797950005 -1.6688107899142348
$end


$rem
N_FROZEN_CORE FC
MEM_TOTAL 3750
MEM_STATIC 1500
AUX_BASIS_CORR rimp2-def2-QZVPPD
SCF_CONVERGENCE 7
SCF_ALGORITHM  GDM
method DSD-PBEPBE-D3
GEN_SCFMAN TRUE
UNRESTRICTED True
THRESH  14
SYMMETRY FALSE
SYM_IGNORE TRUE
max_scf_cycles 200

XC_GRID 000099000590
BASIS DEF2-QZVPPD


$end



$comment
step_size = 0.003
$end






