$molecule
0 1
O -0.7744801258275187 0.65312477759591 0.0
H 0.14017559523958317 0.34921310080019125 0.0
C -1.6136573052648477 -0.4879129846262399 -0.0
H -2.643127122528408 -0.1329317860404096 0.0
H -1.4622118175780965 -1.108995328066954 -0.8885816555198447
H -1.4622118175780965 -1.108995328066954 0.8885816555198447
O 2.013321188982594 -0.18100809103882995 0.0
H 2.489804780542009 0.15918563416901427 -0.7603718976650498
H 2.489804780542009 0.15918563416901427 0.7603718976650498
$end


$rem
N_FROZEN_CORE FC
MEM_TOTAL 3750
MEM_STATIC 1500
AUX_BASIS_CORR rimp2-def2-QZVPPD
SCF_CONVERGENCE 7
SCF_ALGORITHM  GDM
method DSD-PBEPBE-D3
GEN_SCFMAN TRUE
UNRESTRICTED True
THRESH  14
SYMMETRY FALSE
SYM_IGNORE TRUE
max_scf_cycles 200

XC_GRID 000099000590
BASIS DEF2-QZVPPD


$end



$comment
step_size = 0.001
$end






