$molecule
0 1
N -0.05924423354511782 1.6414843010386018 0.0
H 0.32542296493091394 2.112017497808953 -0.8102651615924648
H 0.32542296493091394 2.112017497808953 0.8102651615924648
H 0.3152452323673863 0.6969759766169105 0.0
N 0.03411092373342674 -1.5882537236622591 0.0
H -0.9374620197145374 -1.2989565190276997 0.0
H 0.1602909429323521 -2.180829381480912 -0.8117531203333633
H 0.1602909429323521 -2.180829381480912 0.8117531203333633
$end


$rem
N_FROZEN_CORE FC
MEM_TOTAL 3750
MEM_STATIC 1500
AUX_BASIS_CORR rimp2-def2-QZVPPD
SCF_CONVERGENCE 7
SCF_ALGORITHM  GDM
method DSD-PBEPBE-D3
GEN_SCFMAN TRUE
UNRESTRICTED True
THRESH  14
SYMMETRY FALSE
SYM_IGNORE TRUE
max_scf_cycles 200

XC_GRID 000099000590
BASIS DEF2-QZVPPD


$end



$comment
step_size = 0.01
$end






