$molecule
0 1
O -1.4769835259393111 -0.057948077994793325 0.0
H -1.8497617599022156 0.8244687924962366 0.0
H -0.5159116954364975 0.07799672357189306 0.0
N 1.461176567239552 0.014295222412912463 0.0
H 1.6537376844606375 -0.9805569518527328 0.0
H 1.9253185753661797 0.3995733377106929 0.8136137337634851
H 1.9253185753661797 0.3995733377106929 -0.8136137337634851
$end


$rem
N_FROZEN_CORE FC
MEM_TOTAL 3750
MEM_STATIC 1500
AUX_BASIS_CORR rimp2-def2-QZVPPD
SCF_CONVERGENCE 7
SCF_ALGORITHM  GDM
method DSD-PBEPBE-D3
GEN_SCFMAN TRUE
UNRESTRICTED True
THRESH  14
SYMMETRY FALSE
SYM_IGNORE TRUE
max_scf_cycles 200

XC_GRID 000099000590
BASIS DEF2-QZVPPD


$end



$comment
step_size = 0.001
$end






