$molecule
0 1
H 0.81510733 1.86371326 -7.358904273396406e-08
O -0.06707907 1.49007779 9.096670740866472e-09
H 0.07134934 0.53489984 8.876496240627666e-07
H -0.4122965613812753 -1.7606175580050103 0.7596108887014072
O 0.06322345 -1.41931184 6.758885437352923e-05
H -0.41296857861872466 -1.7611024819949896 -0.7606845312985928
$end


$rem
N_FROZEN_CORE FC
MEM_TOTAL 3750
MEM_STATIC 1500
AUX_BASIS_CORR rimp2-def2-QZVPPD
SCF_CONVERGENCE 7
SCF_ALGORITHM  GDM
method DSD-PBEPBE-D3
GEN_SCFMAN TRUE
UNRESTRICTED True
THRESH  14
SYMMETRY FALSE
SYM_IGNORE TRUE
max_scf_cycles 200

XC_GRID 000099000590
BASIS DEF2-QZVPPD


$end



$comment
step_size = 0.001
$end






