$molecule
0 1
O -0.7744676402036439 0.6530710678868347 0.0
H 0.14010184906483278 0.34890335100838277 0.0
C -1.613672877908665 -0.48785223105423714 0.0
H -2.6434623935709882 -0.1337357954244784 -0.0
H -1.4620242247940627 -1.108385011476341 -0.8889082448603338
H -1.4620242247940627 -1.108385011476341 0.8889082448603338
O 2.0133210971784035 -0.18100571240311655 0.0
H 2.489816057313036 0.15917783667379118 -0.7603690735894599
H 2.489816057313036 0.15917783667379118 0.7603690735894599
$end


$rem
N_FROZEN_CORE FC
MEM_TOTAL 3750
MEM_STATIC 1500
AUX_BASIS_CORR rimp2-def2-QZVPPD
SCF_CONVERGENCE 7
SCF_ALGORITHM  GDM
method DSD-PBEPBE-D3
GEN_SCFMAN TRUE
UNRESTRICTED True
THRESH  14
SYMMETRY FALSE
SYM_IGNORE TRUE
max_scf_cycles 200

XC_GRID 000099000590
BASIS DEF2-QZVPPD


$end



$comment
step_size = 0.001
$end






