$molecule
0 1
H       0.000000000000000     -0.760429030000000     -2.530719750000000
O       0.000000000000000      0.000000000000000     -1.946395560000000
H       0.000000000000000      0.760429030000000     -2.530719750000000
O       0.000000000000000     -1.162851700000000      0.828890290000000
C       0.000000000000000      0.000000000000000      0.809784800000000
O       0.000000000000000      1.162851700000000      0.828890290000000
$end


$rem
N_FROZEN_CORE FC
MEM_TOTAL 3750
MEM_STATIC 1500
AUX_BASIS_CORR rimp2-def2-QZVPPD
SCF_CONVERGENCE 7
SCF_ALGORITHM  GDM
method DSD-PBEPBE-D3
GEN_SCFMAN TRUE
UNRESTRICTED True
THRESH  14
SYMMETRY FALSE
SYM_IGNORE TRUE
max_scf_cycles 200

XC_GRID 000099000590
BASIS DEF2-QZVPPD


$end



$comment
step_size = {step_size}
$end






