$molecule
0 1
C -7.970958666749683e-06 2.2781168321912983 0.0
H 0.04809272545067578 3.365259233265575 0.0
H 0.4966528012881573 1.893454004094919 0.88884276577556
H -1.0412586697169468 1.961278706763717 0.0
H 0.4966528012881573 1.893454004094919 -0.88884276577556
N -1.6054293773418467e-06 -1.3040765538413803 0.5502490491013179
N -1.6054293773418467e-06 -1.3040765538413803 -0.5502490491013179
$end


$rem
N_FROZEN_CORE FC
MEM_TOTAL 3750
MEM_STATIC 1500
AUX_BASIS_CORR rimp2-def2-QZVPPD
SCF_CONVERGENCE 7
SCF_ALGORITHM  GDM
method DSD-PBEPBE-D3
GEN_SCFMAN TRUE
UNRESTRICTED True
THRESH  14
SYMMETRY FALSE
SYM_IGNORE TRUE
max_scf_cycles 200

XC_GRID 000099000590
BASIS DEF2-QZVPPD


$end



$comment
step_size = 0.001
$end






