$molecule
0 1
H 0.0 1.6677118132852142 2.1853598026616003
C 0.0 0.6036005980085689 2.1826820316001663
C 0.0 -0.6035916619914311 2.1827025083998337
H 0.0 -1.6677036067147857 2.1851644973383992
H 0.0 -0.0023064449508074744 -0.51318153
C 0.0 0.00021171333412828758 -1.57920508
C 0.0 0.0001153010834193202 -2.78676655
H 0.0 -0.0017018719406329153 -3.85035227
$end


$rem
N_FROZEN_CORE FC
MEM_TOTAL 3750
MEM_STATIC 1500
AUX_BASIS_CORR rimp2-def2-QZVPPD
SCF_CONVERGENCE 7
SCF_ALGORITHM  GDM
method DSD-PBEPBE-D3
GEN_SCFMAN TRUE
UNRESTRICTED True
THRESH  14
SYMMETRY FALSE
SYM_IGNORE TRUE
max_scf_cycles 200

XC_GRID 000099000590
BASIS DEF2-QZVPPD


$end



$comment
step_size = 0.003
$end






