$molecule
0 1
F -0.007273321782564414 1.2992210108128357 0.0
H 0.04022899497044936 0.366552167333135 0.0
O 0.05292715568628348 -1.3464361009951513 0.0
H -0.37155635550330324 -1.7445561542841097 0.7631931767267733
H -0.37155635550330324 -1.7445561542841097 -0.7631931767267733
$end


$rem
N_FROZEN_CORE FC
MEM_TOTAL 3750
MEM_STATIC 1500
AUX_BASIS_CORR rimp2-def2-QZVPPD
SCF_CONVERGENCE 7
SCF_ALGORITHM  GDM
method DSD-PBEPBE-D3
GEN_SCFMAN TRUE
UNRESTRICTED True
THRESH  14
SYMMETRY FALSE
SYM_IGNORE TRUE
max_scf_cycles 200

XC_GRID 000099000590
BASIS DEF2-QZVPPD


$end



$comment
step_size = 0.003
$end






