$molecule
0 1
N -0.05924009738591419 1.6406366567031712 0.0
H 0.3231880638555977 2.112721964588843 -0.8103778993445159
H 0.3231880638555977 2.112721964588843 0.8103778993445159
H 0.31849488786355806 0.6974799813149848 0.0
N 0.03454914819177567 -1.5878695161412693 0.0
H -0.9354069263835941 -1.2931089503197082 0.0
H 0.15680030725427063 -2.1814900600395775 -0.8116269916593166
H 0.15680030725427063 -2.1814900600395775 0.8116269916593166
$end


$rem
N_FROZEN_CORE FC
MEM_TOTAL 3750
MEM_STATIC 1500
AUX_BASIS_CORR rimp2-def2-QZVPPD
SCF_CONVERGENCE 7
SCF_ALGORITHM  GDM
method DSD-PBEPBE-D3
GEN_SCFMAN TRUE
UNRESTRICTED True
THRESH  14
SYMMETRY FALSE
SYM_IGNORE TRUE
max_scf_cycles 200

XC_GRID 000099000590
BASIS DEF2-QZVPPD


$end



$comment
step_size = 0.001
$end






