$molecule
0 1
O -1.4769954565361252 -0.057847721430697524 0.0
H -1.8498466596316392 0.8233996609281695 0.0
H -0.5156449155032311 0.07741493209429365 0.0
N 1.4611713345459614 0.014268195329553299 0.0
H 1.6535695977499933 -0.9806026667176216 0.0
H 1.9254427046740354 0.39981305279845863 0.8134189869171919
H 1.9254427046740354 0.39981305279845863 -0.8134189869171919
$end


$rem
N_FROZEN_CORE FC
MEM_TOTAL 3750
MEM_STATIC 1500
AUX_BASIS_CORR rimp2-def2-QZVPPD
SCF_CONVERGENCE 7
SCF_ALGORITHM  GDM
method DSD-PBEPBE-D3
GEN_SCFMAN TRUE
UNRESTRICTED True
THRESH  14
SYMMETRY FALSE
SYM_IGNORE TRUE
max_scf_cycles 200

XC_GRID 000099000590
BASIS DEF2-QZVPPD


$end



$comment
step_size = 0.001
$end






