$molecule
0 1
F 0.00010901038166426809 1.7596153300728883 0.0
H -0.002938662545999201 0.8341588088841573 0.0
C 2.3161272934416022e-05 -1.3168690699954102 -0.6039940899996536
C 2.3161272934416022e-05 -1.3168690699954102 0.6039940899996536
H 0.00016612534986433213 -1.3225063802049997 1.6688107900857652
H 0.00016612534986433213 -1.3225063802049997 -1.6688107900857652
$end


$rem
N_FROZEN_CORE FC
MEM_TOTAL 3750
MEM_STATIC 1500
AUX_BASIS_CORR rimp2-def2-QZVPPD
SCF_CONVERGENCE 7
SCF_ALGORITHM  GDM
method DSD-PBEPBE-D3
GEN_SCFMAN TRUE
UNRESTRICTED True
THRESH  14
SYMMETRY FALSE
SYM_IGNORE TRUE
max_scf_cycles 200

XC_GRID 000099000590
BASIS DEF2-QZVPPD


$end



$comment
step_size = 0.003
$end






