$molecule
0 1
F -1e-08 1.75961533 -7.184791673340867e-05
H 3.4e-07 0.83415881 0.0028087349819709796
C 4.987962246887396e-08 -1.3170489419782287 -0.6040502977668996
C 5.012037753112603e-08 -1.3166891980217714 0.6039378822331005
H -6.30359496206132e-07 -1.322720168658971 1.6687528791784054
H -6.29640503793868e-07 -1.3222925913410293 -1.6688687008215946
$end


$rem
N_FROZEN_CORE FC
MEM_TOTAL 3750
MEM_STATIC 1500
AUX_BASIS_CORR rimp2-def2-QZVPPD
SCF_CONVERGENCE 7
SCF_ALGORITHM  GDM
method DSD-PBEPBE-D3
GEN_SCFMAN TRUE
UNRESTRICTED True
THRESH  14
SYMMETRY FALSE
SYM_IGNORE TRUE
max_scf_cycles 200

XC_GRID 000099000590
BASIS DEF2-QZVPPD


$end



$comment
step_size = 0.003
$end






