$molecule
0 1
F -7e-07 -1.46384241 -1.9415303604906e-07
H 2.04e-05 -0.54393409 1.296351268272041e-05
C -6.299999422649731e-07 1.76666382 0.00011425350164973758
H 0.516274631585257 1.4162197988967704 0.893647308476538
H 0.5157745684143447 1.4165770611031303 -0.8939096115236613
H -1.032043 1.4163853600000997 -0.0005642154969062348
H -6.0000001992220596e-06 2.854127 -0.0005431818787141518
$end


$rem
N_FROZEN_CORE FC
MEM_TOTAL 3750
MEM_STATIC 1500
AUX_BASIS_CORR rimp2-def2-QZVPPD
SCF_CONVERGENCE 7
SCF_ALGORITHM  GDM
method DSD-PBEPBE-D3
GEN_SCFMAN TRUE
UNRESTRICTED True
THRESH  14
SYMMETRY FALSE
SYM_IGNORE TRUE
max_scf_cycles 200

XC_GRID 000099000590
BASIS DEF2-QZVPPD


$end



$comment
step_size = 0.001
$end






