$molecule
0 1
N -0.0593083 1.64063502 -7.545837024668148e-05
H 0.323249904899897 2.1123406173590986 -0.8097339480229953
H 0.32374573510010296 2.1129938026409016 0.8108068719770047
H 0.31884714 0.69761594 -2.4738528517303828e-05
N 0.03449577 -1.58793052 2.02838828828801e-06
H -0.93529327 -1.29274353 3.3471377883465886e-07
H 0.1571047990541698 -2.1812610163229595 -0.8117624791256898
H 0.1570996809458302 -2.18124062367704 0.8117342208743102
$end


$rem
N_FROZEN_CORE FC
MEM_TOTAL 3750
MEM_STATIC 1500
AUX_BASIS_CORR rimp2-def2-QZVPPD
SCF_CONVERGENCE 7
SCF_ALGORITHM  GDM
method DSD-PBEPBE-D3
GEN_SCFMAN TRUE
UNRESTRICTED True
THRESH  14
SYMMETRY FALSE
SYM_IGNORE TRUE
max_scf_cycles 200

XC_GRID 000099000590
BASIS DEF2-QZVPPD


$end



$comment
step_size = 0.001
$end






