$molecule
0 1
N -0.0593083 1.64063502 5.566694937369043e-06
H 0.3235192328313058 2.1126336798018035 -0.8102768678409284
H 0.3234764071686942 2.1127007401981968 0.8102639521590715
H 0.31884714 0.69761594 -6.861591187299806e-05
N 0.03449577 -1.58793052 -6.419187680978107e-05
H -0.93529327 -1.29274353 0.0007364572743632194
H 0.15752751645018165 -2.181320692113242 -0.8116685334353666
H 0.15667696354981836 -2.1811809478867574 0.8118281665646334
$end


$rem
N_FROZEN_CORE FC
MEM_TOTAL 3750
MEM_STATIC 1500
AUX_BASIS_CORR rimp2-def2-QZVPPD
SCF_CONVERGENCE 7
SCF_ALGORITHM  GDM
method DSD-PBEPBE-D3
GEN_SCFMAN TRUE
UNRESTRICTED True
THRESH  14
SYMMETRY FALSE
SYM_IGNORE TRUE
max_scf_cycles 200

XC_GRID 000099000590
BASIS DEF2-QZVPPD


$end



$comment
step_size = 0.001
$end






