$molecule
0 1
O -1.4769446473893635 -0.05786891651017278 0.0
H -1.8505322751339328 0.8241340340013135 0.0
H -0.5157692803749355 0.07699038688300311 0.0
N 1.4611827243783868 0.014325210395905102 0.0
H 1.653785751554526 -0.9805299290762572 0.0
H 1.9252573017838028 0.3993938670424738 0.8137446620321331
H 1.9252573017838028 0.3993938670424738 -0.8137446620321331
$end


$rem
N_FROZEN_CORE FC
MEM_TOTAL 3750
MEM_STATIC 1500
AUX_BASIS_CORR rimp2-def2-QZVPPD
SCF_CONVERGENCE 7
SCF_ALGORITHM  GDM
method DSD-PBEPBE-D3
GEN_SCFMAN TRUE
UNRESTRICTED True
THRESH  14
SYMMETRY FALSE
SYM_IGNORE TRUE
max_scf_cycles 200

XC_GRID 000099000590
BASIS DEF2-QZVPPD


$end



$comment
step_size = 0.001
$end






