$molecule
0 1
F       0.000000000000000      1.272956730000000      0.000000000000000
H       0.000000210000000      0.323643120000000      0.000000000000000
N       0.000000020000000     -1.372861220000000      0.000000000000000
H       0.940644920000000     -1.748334290000000      0.000000000000000
H      -0.470322740000000     -1.748333520000000      0.814622570000000
H      -0.470322740000000     -1.748333520000000     -0.814622570000000
$end


$rem
N_FROZEN_CORE FC
MEM_TOTAL 3750
MEM_STATIC 1500
AUX_BASIS_CORR rimp2-def2-QZVPPD
SCF_CONVERGENCE 7
SCF_ALGORITHM  GDM
method DSD-PBEPBE-D3
GEN_SCFMAN TRUE
UNRESTRICTED True
THRESH  14
SYMMETRY FALSE
SYM_IGNORE TRUE
max_scf_cycles 200

XC_GRID 000099000590
BASIS DEF2-QZVPPD


$end



$comment
step_size = {step_size}
$end






