$molecule
0 1
F -7.284334736689196e-05 1.2729567299863034 -3.923173912395886e-12
H 0.0027975309433593168 0.32364312063681333 1.51807209239434e-10
N -0.0001410613805078021 -1.3728612200390427 -7.616109299192836e-12
H 0.9407750208175552 -1.747688450358764 1.2252156651214164e-11
H -0.4701197526887328 -1.7486564397119924 0.8146646514909218
H -0.47011975269321526 -1.7486564397726554 -0.8146646514741871
$end


$rem
N_FROZEN_CORE FC
MEM_TOTAL 3750
MEM_STATIC 1500
AUX_BASIS_CORR rimp2-def2-QZVPPD
SCF_CONVERGENCE 7
SCF_ALGORITHM  GDM
method DSD-PBEPBE-D3
GEN_SCFMAN TRUE
UNRESTRICTED True
THRESH  14
SYMMETRY FALSE
SYM_IGNORE TRUE
max_scf_cycles 200

XC_GRID 000099000590
BASIS DEF2-QZVPPD


$end



$comment
step_size = 0.003
$end






