$molecule
0 1
C 1.824377534761239 6.109502457293934e-05 1.0000109836274804e-05
H 1.4603854642472374 0.8862429615046578 0.5152041808812099
H 1.4601343459657716 0.00306925302722233 -1.0256573409552576
H 1.4600640101254205 -0.8900533928346752 0.5103638058214045
H 2.9126976420668846 1.3972001480978313e-05 -2.9711869653021864e-05
C -1.824377534761239 -6.109502457293934e-05 -1.0000109836274804e-05
H -2.9126976420668846 -1.3972001480978313e-05 2.9711869653021864e-05
H -1.4601343459657716 -0.00306925302722233 1.0256573409552576
H -1.4603854642472374 -0.8862429615046578 -0.5152041808812099
H -1.4600640101254205 0.8900533928346752 -0.5103638058214045
$end


$rem
N_FROZEN_CORE FC
MEM_TOTAL 3750
MEM_STATIC 1500
AUX_BASIS_CORR rimp2-def2-QZVPPD
SCF_CONVERGENCE 7
SCF_ALGORITHM  GDM
method DSD-PBEPBE-D3
GEN_SCFMAN TRUE
UNRESTRICTED True
THRESH  14
SYMMETRY FALSE
SYM_IGNORE TRUE
max_scf_cycles 200

XC_GRID 000099000590
BASIS DEF2-QZVPPD


$end



$comment
step_size = 0.001
$end






