$molecule
0 1
O -0.774865313950788 0.6532455719300213 0.0
H 0.139913094384379 0.3497176380610654 0.0
C -1.6138026644784167 -0.4880004846624615 0.0
H -2.643461735776305 -0.1334990711738167 0.0
H -1.4624202509330513 -1.10851797154483 -0.8889574276651914
H -1.4624202509330513 -1.10851797154483 0.8889574276651914
O 2.0137714280207297 -0.181044539764979 0.0
H 2.4906609519372567 0.1585912624406358 -0.7603653865716663
H 2.4906609519372567 0.1585912624406358 0.7603653865716663
$end


$rem
N_FROZEN_CORE FC
MEM_TOTAL 3750
MEM_STATIC 1500
AUX_BASIS_CORR rimp2-def2-QZVPPD
SCF_CONVERGENCE 7
SCF_ALGORITHM  GDM
method DSD-PBEPBE-D3
GEN_SCFMAN TRUE
UNRESTRICTED True
THRESH  14
SYMMETRY FALSE
SYM_IGNORE TRUE
max_scf_cycles 200

XC_GRID 000099000590
BASIS DEF2-QZVPPD


$end



$comment
step_size = 0.003
$end






