$molecule
0 1
O -1.4769603261289475 -0.057899056797766836 0.0
H -1.8502401688960513 0.824264021755967 0.0
H -0.5158071869653927 0.07736577578885868 0.0
N 1.4611864649833828 0.014342437008087494 0.0
H 1.6537096933575728 -0.9813606932834307 0.0
H 1.925266660907535 0.39967605864204736 0.8130882075980171
H 1.925266660907535 0.39967605864204736 -0.8130882075980171
$end


$rem
N_FROZEN_CORE FC
MEM_TOTAL 3750
MEM_STATIC 1500
AUX_BASIS_CORR rimp2-def2-QZVPPD
SCF_CONVERGENCE 7
SCF_ALGORITHM  GDM
method DSD-PBEPBE-D3
GEN_SCFMAN TRUE
UNRESTRICTED True
THRESH  14
SYMMETRY FALSE
SYM_IGNORE TRUE
max_scf_cycles 200

XC_GRID 000099000590
BASIS DEF2-QZVPPD


$end



$comment
step_size = 0.001
$end






