$molecule
0 1
C 1.8243778493478249 -1.740711061606722e-11 -3.956363866654648e-08
H 1.4603270445631957 0.8863699756571068 0.5152836832468564
H 1.4602815870716517 0.003054434076425104 -1.0252444608724998
H 1.460327074303709 -0.889424519478229 0.5099931918374944
H 2.912342509913498 1.0995915947782929e-07 -3.197941642770703e-05
C -1.8243778493478249 1.740711061606722e-11 3.956363866654648e-08
H -2.912342509913498 -1.0995915947782929e-07 3.197941642770703e-05
H -1.4602815870716517 -0.003054434076425104 1.0252444608724998
H -1.4603270445631957 -0.8863699756571068 -0.5152836832468564
H -1.460327074303709 0.889424519478229 -0.5099931918374944
$end


$rem
N_FROZEN_CORE FC
MEM_TOTAL 3750
MEM_STATIC 1500
AUX_BASIS_CORR rimp2-def2-QZVPPD
SCF_CONVERGENCE 7
SCF_ALGORITHM  GDM
method DSD-PBEPBE-D3
GEN_SCFMAN TRUE
UNRESTRICTED True
THRESH  14
SYMMETRY FALSE
SYM_IGNORE TRUE
max_scf_cycles 200

XC_GRID 000099000590
BASIS DEF2-QZVPPD


$end



$comment
step_size = 0.001
$end






