$molecule
0 1
O -1.476961424786583 -0.05789919185555667 0.0
H -1.850232690444497 0.8242646256771202 0.0
H -0.5158199409224675 0.077360085713389 0.0
N 1.4612766362704608 0.014248370910243292 0.0
H 1.653047789064368 -0.9806994759903646 0.0
H 1.924982533331441 0.4000025584601119 0.8135873556810488
H 1.924982533331441 0.4000025584601119 -0.8135873556810488
$end


$rem
N_FROZEN_CORE FC
MEM_TOTAL 3750
MEM_STATIC 1500
AUX_BASIS_CORR rimp2-def2-QZVPPD
SCF_CONVERGENCE 7
SCF_ALGORITHM  GDM
method DSD-PBEPBE-D3
GEN_SCFMAN TRUE
UNRESTRICTED True
THRESH  14
SYMMETRY FALSE
SYM_IGNORE TRUE
max_scf_cycles 200

XC_GRID 000099000590
BASIS DEF2-QZVPPD


$end



$comment
step_size = 0.001
$end






