$molecule
0 1
H 0.8151600515402779 1.8637404621737486 0.0
O -0.06708280008772571 1.490081280620517 0.0
H 0.0713543558080113 0.5348159948814347 0.0
H -0.41232083714264833 -1.7606342772933945 0.7595785781925556
O 0.06318425810185153 -1.4193402092856022 0.0
H -0.41232083714264833 -1.7606342772933945 -0.7595785781925556
$end


$rem
N_FROZEN_CORE FC
MEM_TOTAL 3750
MEM_STATIC 1500
AUX_BASIS_CORR rimp2-def2-QZVPPD
SCF_CONVERGENCE 7
SCF_ALGORITHM  GDM
method DSD-PBEPBE-D3
GEN_SCFMAN TRUE
UNRESTRICTED True
THRESH  14
SYMMETRY FALSE
SYM_IGNORE TRUE
max_scf_cycles 200

XC_GRID 000099000590
BASIS DEF2-QZVPPD


$end



$comment
step_size = 0.001
$end






