$molecule
0 1
O -0.7744659913959476 0.6531048017734622 0.0
H 0.14023396915006572 0.349385801202169 0.0
C -1.613716349329348 -0.4879117346903601 -0.0
H -2.642380882698966 -0.1335561373730704 -0.0
H -1.4623717767696254 -1.108613954233096 -0.8891344838534939
H -1.4623717767696254 -1.108613954233096 0.8891344838534939
O 2.0133203460444498 -0.18100946847334667 0.0
H 2.4898084738207547 0.1591920902556929 -0.760366332764087
H 2.4898084738207547 0.1591920902556929 0.760366332764087
$end


$rem
N_FROZEN_CORE FC
MEM_TOTAL 3750
MEM_STATIC 1500
AUX_BASIS_CORR rimp2-def2-QZVPPD
SCF_CONVERGENCE 7
SCF_ALGORITHM  GDM
method DSD-PBEPBE-D3
GEN_SCFMAN TRUE
UNRESTRICTED True
THRESH  14
SYMMETRY FALSE
SYM_IGNORE TRUE
max_scf_cycles 200

XC_GRID 000099000590
BASIS DEF2-QZVPPD


$end



$comment
step_size = 0.001
$end






