$molecule
0 1
N -0.059231835275445024 1.640640002922912 0.0
H 0.32315462882757195 2.112715405864852 -0.8103973412909145
H 0.32315462882757195 2.112715405864852 0.8103973412909145
H 0.3184216403586557 0.6974528441006765 0.0
N 0.0344572976541185 -1.5879868189875697 0.0
H -0.9351742909347031 -1.2923830591902898 0.0
H 0.15733475175121717 -2.1810412016331884 -0.8118620826524725
H 0.15733475175121717 -2.1810412016331884 0.8118620826524725
$end


$rem
N_FROZEN_CORE FC
MEM_TOTAL 3750
MEM_STATIC 1500
AUX_BASIS_CORR rimp2-def2-QZVPPD
SCF_CONVERGENCE 7
SCF_ALGORITHM  GDM
method DSD-PBEPBE-D3
GEN_SCFMAN TRUE
UNRESTRICTED True
THRESH  14
SYMMETRY FALSE
SYM_IGNORE TRUE
max_scf_cycles 200

XC_GRID 000099000590
BASIS DEF2-QZVPPD


$end



$comment
step_size = 0.001
$end






