$molecule
0 1
O -0.774069146049212 0.6529656280699786 0.0
H 0.140576205615621 0.34903056193893467 0.0
C -1.6134795755215834 -0.4879096353375385 -0.0
H -2.643000304223695 -0.13300172882618327 -0.0
H -1.4623601490669487 -1.10850106845517 -0.8889551323348087
H -1.4623601490669487 -1.10850106845517 0.8889551323348087
O 2.0128692319792703 -0.18097438023502102 -0.0
H 2.4889564680627436 0.1597930775593642 -0.7603676334283337
H 2.4889564680627436 0.1597930775593642 0.7603676334283337
$end


$rem
N_FROZEN_CORE FC
MEM_TOTAL 3750
MEM_STATIC 1500
AUX_BASIS_CORR rimp2-def2-QZVPPD
SCF_CONVERGENCE 7
SCF_ALGORITHM  GDM
method DSD-PBEPBE-D3
GEN_SCFMAN TRUE
UNRESTRICTED True
THRESH  14
SYMMETRY FALSE
SYM_IGNORE TRUE
max_scf_cycles 200

XC_GRID 000099000590
BASIS DEF2-QZVPPD


$end



$comment
step_size = 0.003
$end






