$molecule
0 1
F -1.0019914122549472e-08 1.7596670999688422 0.0
H 3.403786215238314e-07 0.8331884065999969 0.0
C 4.999968245735194e-08 -1.316869289304739 -0.6039937847207336
C 4.999968245735194e-08 -1.316869289304739 0.6039937847207336
H -6.299977089463172e-07 -1.3225065221824928 1.6688071349694995
H -6.299977089463172e-07 -1.3225065221824928 -1.6688071349694995
$end


$rem
N_FROZEN_CORE FC
MEM_TOTAL 3750
MEM_STATIC 1500
AUX_BASIS_CORR rimp2-def2-QZVPPD
SCF_CONVERGENCE 7
SCF_ALGORITHM  GDM
method DSD-PBEPBE-D3
GEN_SCFMAN TRUE
UNRESTRICTED True
THRESH  14
SYMMETRY FALSE
SYM_IGNORE TRUE
max_scf_cycles 200

XC_GRID 000099000590
BASIS DEF2-QZVPPD


$end



$comment
step_size = 0.001
$end






