$molecule
0 1
O -1.653821840419456 0.062217066458194484 0.0
H -2.07311559823777 -0.8000378554870395 0.0
H -0.7131842745162472 -0.12698586717473292 0.0
C 1.8240316029321337 -0.0038754472198809864 0.0
H 1.4086231347027982 0.4647782580850931 0.8909893430382462
H 1.4086231347027982 0.4647782580850931 -0.8909893430382462
H 2.9042523319826308 0.12481572236718493 0.0
H 1.5937221309835194 -1.0686341888548416 0.0
$end


$rem
N_FROZEN_CORE FC
MEM_TOTAL 3750
MEM_STATIC 1500
AUX_BASIS_CORR rimp2-def2-QZVPPD
SCF_CONVERGENCE 7
SCF_ALGORITHM  GDM
method DSD-PBEPBE-D3
GEN_SCFMAN TRUE
UNRESTRICTED True
THRESH  14
SYMMETRY FALSE
SYM_IGNORE TRUE
max_scf_cycles 200

XC_GRID 000099000590
BASIS DEF2-QZVPPD


$end



$comment
step_size = 0.001
$end






