$molecule
0 1
N 0.06558049 -2.49828684 -6.485584638582651e-05
H -0.3758297619995847 -2.082988443923329 0.8114955427145238
H -0.3755048180004153 -2.0821836360766706 -0.8113320972854761
H -0.19414505 -3.47728791 0.0007374163290581904
Ar 0.00086455 1.06815345 6.7609671883807135e-09
$end


$rem
N_FROZEN_CORE FC
MEM_TOTAL 3750
MEM_STATIC 1500
AUX_BASIS_CORR rimp2-def2-QZVPPD
SCF_CONVERGENCE 7
SCF_ALGORITHM  GDM
method DSD-PBEPBE-D3
GEN_SCFMAN TRUE
UNRESTRICTED True
THRESH  14
SYMMETRY FALSE
SYM_IGNORE TRUE
max_scf_cycles 200

XC_GRID 000099000590
BASIS DEF2-QZVPPD


$end



$comment
step_size = 0.001
$end






