$molecule
0 1
F -6.875057235032066e-07 -1.4642897623638471 0.0
H 2.0384383580432218e-05 -0.5443811359037162 0.0
C -6.449399774457661e-07 1.7672242587209417 0.0
H 0.5160217935511797 1.4169467374362654 0.8937737670322324
H 0.5160217935511797 1.4169467374362654 -0.8937737670322324
H -1.032037671557692 1.4169340170192815 0.0
H -5.757787115162148e-06 2.854688714555014 0.0
$end


$rem
N_FROZEN_CORE FC
MEM_TOTAL 3750
MEM_STATIC 1500
AUX_BASIS_CORR rimp2-def2-QZVPPD
SCF_CONVERGENCE 7
SCF_ALGORITHM  GDM
method DSD-PBEPBE-D3
GEN_SCFMAN TRUE
UNRESTRICTED True
THRESH  14
SYMMETRY FALSE
SYM_IGNORE TRUE
max_scf_cycles 200

XC_GRID 000099000590
BASIS DEF2-QZVPPD


$end



$comment
step_size = 0.003
$end






