$molecule
0 1
F -0.007330844586214914 1.2994958249199342 0.0
H 0.04080362287592442 0.3665969403402765 0.0
O 0.053061722349266566 -1.3469023956285404 0.0
H -0.37236932658441274 -1.7434685695086252 0.7626107636846163
H -0.37236932658441274 -1.7434685695086252 -0.7626107636846163
$end


$rem
N_FROZEN_CORE FC
MEM_TOTAL 3750
MEM_STATIC 1500
AUX_BASIS_CORR rimp2-def2-QZVPPD
SCF_CONVERGENCE 7
SCF_ALGORITHM  GDM
method DSD-PBEPBE-D3
GEN_SCFMAN TRUE
UNRESTRICTED True
THRESH  14
SYMMETRY FALSE
SYM_IGNORE TRUE
max_scf_cycles 200

XC_GRID 000099000590
BASIS DEF2-QZVPPD


$end



$comment
step_size = 0.001
$end






