$molecule
0 1
F      -0.007330200000000      1.299482370000000      0.000000000000000
H       0.040793390000000      0.366847410000000      0.000000000000000
O       0.053095710000000     -1.346870050000000      0.000000000000000
H      -0.372639990000000     -1.743723660000000      0.763165010000000
H      -0.372639990000000     -1.743723660000000     -0.763165010000000
$end


$rem
N_FROZEN_CORE FC
MEM_TOTAL 3750
MEM_STATIC 1500
AUX_BASIS_CORR rimp2-def2-QZVPPD
SCF_CONVERGENCE 7
SCF_ALGORITHM  GDM
method DSD-PBEPBE-D3
GEN_SCFMAN TRUE
UNRESTRICTED True
THRESH  14
SYMMETRY FALSE
SYM_IGNORE TRUE
max_scf_cycles 200

XC_GRID 000099000590
BASIS DEF2-QZVPPD


$end



$comment
step_size = {step_size}
$end






