$molecule
0 1
F      -0.000000010000000      1.759615330000000      0.000000000000000
H       0.000000340000000      0.834158810000000      0.000000000000000
C       0.000000050000000     -1.316869070000000     -0.603994090000000
C       0.000000050000000     -1.316869070000000      0.603994090000000
H      -0.000000630000000     -1.322506380000000      1.668810790000000
H      -0.000000630000000     -1.322506380000000     -1.668810790000000
$end


$rem
N_FROZEN_CORE FC
MEM_TOTAL 3750
MEM_STATIC 1500
AUX_BASIS_CORR rimp2-def2-QZVPPD
SCF_CONVERGENCE 7
SCF_ALGORITHM  GDM
method DSD-PBEPBE-D3
GEN_SCFMAN TRUE
UNRESTRICTED True
THRESH  14
SYMMETRY FALSE
SYM_IGNORE TRUE
max_scf_cycles 200

XC_GRID 000099000590
BASIS DEF2-QZVPPD


$end



$comment
step_size = {step_size}
$end






