$molecule
0 1
F -7e-07 -1.46384241 1.9415303604906e-07
H 2.04e-05 -0.54393409 -1.296351268272041e-05
C -6.300000577350269e-07 1.76666382 -0.00011425350164973758
H 0.5157745684147431 1.4165770611032298 0.8939096115234622
H 0.5162746315856555 1.4162197988968699 -0.8936473084763388
H -1.032043 1.4163853599999003 0.0005642154969062348
H -5.999999800777941e-06 2.854127 0.0005431818787141518
$end


$rem
N_FROZEN_CORE FC
MEM_TOTAL 3750
MEM_STATIC 1500
AUX_BASIS_CORR rimp2-def2-QZVPPD
SCF_CONVERGENCE 7
SCF_ALGORITHM  GDM
method DSD-PBEPBE-D3
GEN_SCFMAN TRUE
UNRESTRICTED True
THRESH  14
SYMMETRY FALSE
SYM_IGNORE TRUE
max_scf_cycles 200

XC_GRID 000099000590
BASIS DEF2-QZVPPD


$end



$comment
step_size = 0.001
$end






