$molecule
0 1
O -0.77446723 0.6531056 -0.00024975482497612814
H 0.14024465 0.3493741 0.000615609135795644
C -1.61364112 -0.48795506 0.00029930421915719973
H -2.64323102 -0.1332504 -0.002153673929848736
H -1.4608046360809015 -1.1101001550767753 -0.8872699917624891
H -1.4639757639190984 -1.1069188849232245 0.890642568237511
O 2.01332033 -0.18100946 -0.0003597622582919833
H 2.4897234783832607 0.16490036404958353 -0.7582289130562564
H 2.4898939416167396 0.15348397595041646 0.7625041069437436
$end


$rem
N_FROZEN_CORE FC
MEM_TOTAL 3750
MEM_STATIC 1500
AUX_BASIS_CORR rimp2-def2-QZVPPD
SCF_CONVERGENCE 7
SCF_ALGORITHM  GDM
method DSD-PBEPBE-D3
GEN_SCFMAN TRUE
UNRESTRICTED True
THRESH  14
SYMMETRY FALSE
SYM_IGNORE TRUE
max_scf_cycles 200

XC_GRID 000099000590
BASIS DEF2-QZVPPD


$end



$comment
step_size = 0.01
$end






