$molecule
0 1
O -0.7744308688163392 0.6530485362025318 0.0
H 0.1405335367905756 0.35011291617889573 0.0
C -1.6137279228769381 -0.4879098920196162 0.0
H -2.6434072628121483 -0.13346190236699404 -0.0
H -1.4622112262472795 -1.1085695704797605 -0.8888383765905831
H -1.4622112262472795 -1.1085695704797605 0.8888383765905831
O 2.013319357470535 -0.18101448825741984 -0.0
H 2.4898093659368374 0.15921238285558145 -0.7603577137003006
H 2.4898093659368374 0.15921238285558145 0.7603577137003006
$end


$rem
N_FROZEN_CORE FC
MEM_TOTAL 3750
MEM_STATIC 1500
AUX_BASIS_CORR rimp2-def2-QZVPPD
SCF_CONVERGENCE 7
SCF_ALGORITHM  GDM
method DSD-PBEPBE-D3
GEN_SCFMAN TRUE
UNRESTRICTED True
THRESH  14
SYMMETRY FALSE
SYM_IGNORE TRUE
max_scf_cycles 200

XC_GRID 000099000590
BASIS DEF2-QZVPPD


$end



$comment
step_size = 0.001
$end






