$molecule
0 1
O -1.6538513607384429 0.062277205592653304 0.0
H -2.0725216242249553 -0.8003334299976903 0.0
H -0.713309070395414 -0.12764921844325527 0.0
C 1.824034074018479 -0.003874276298340384 0.0
H 1.4084833685326015 0.46495402473858977 0.8914488576388473
H 1.4084833685326015 0.46495402473858977 -0.8914488576388473
H 2.9046881490427685 0.12495489001295494 0.0
H 1.5935357542139803 -1.0691343576969194 0.0
$end


$rem
N_FROZEN_CORE FC
MEM_TOTAL 3750
MEM_STATIC 1500
AUX_BASIS_CORR rimp2-def2-QZVPPD
SCF_CONVERGENCE 7
SCF_ALGORITHM  GDM
method DSD-PBEPBE-D3
GEN_SCFMAN TRUE
UNRESTRICTED True
THRESH  14
SYMMETRY FALSE
SYM_IGNORE TRUE
max_scf_cycles 200

XC_GRID 000099000590
BASIS DEF2-QZVPPD


$end



$comment
step_size = 0.001
$end






