$molecule
0 1
H 0.8153553822719617 1.8631427211449245 0.0
O -0.06713631890871304 1.4901066302341506 0.0
H 0.07204416266312456 0.5350007018783557 0.0
H -0.41271920760510683 -1.760939620360786 0.7600574991087896
O 0.0632322071293773 -1.419301055221967 0.0
H -0.41271920760510683 -1.760939620360786 -0.7600574991087896
$end


$rem
N_FROZEN_CORE FC
MEM_TOTAL 3750
MEM_STATIC 1500
AUX_BASIS_CORR rimp2-def2-QZVPPD
SCF_CONVERGENCE 7
SCF_ALGORITHM  GDM
method DSD-PBEPBE-D3
GEN_SCFMAN TRUE
UNRESTRICTED True
THRESH  14
SYMMETRY FALSE
SYM_IGNORE TRUE
max_scf_cycles 200

XC_GRID 000099000590
BASIS DEF2-QZVPPD


$end



$comment
step_size = 0.001
$end






