$molecule
0 1
C 0.00036143864115791144 2.278670729795403 0.0
H 0.04221225618749975 3.3660616408981103 0.0
H 0.4986836846372654 1.8961503468131442 0.8888447992760601
H -1.0390922823156314 1.9558500242722794 0.0
H 0.4986836846372654 1.8961503468131442 -0.8888447992760601
N -0.00017240054001542532 -1.3043414665343607 0.5502492380924513
N -0.00017240054001542532 -1.3043414665343607 -0.5502492380924513
$end


$rem
N_FROZEN_CORE FC
MEM_TOTAL 3750
MEM_STATIC 1500
AUX_BASIS_CORR rimp2-def2-QZVPPD
SCF_CONVERGENCE 7
SCF_ALGORITHM  GDM
method DSD-PBEPBE-D3
GEN_SCFMAN TRUE
UNRESTRICTED True
THRESH  14
SYMMETRY FALSE
SYM_IGNORE TRUE
max_scf_cycles 200

XC_GRID 000099000590
BASIS DEF2-QZVPPD


$end



$comment
step_size = 0.01
$end






