$molecule
0 1
O -0.7744589374617855 0.6531032496643593 0.0
H 0.14011198643131126 0.34941382039365165 0.0
C -1.6136409819267987 -0.4879552943369191 0.0
H -2.6432327428157905 -0.13325000499106723 0.0
H -1.4623905222812266 -1.1085099949121193 -0.8889564429202143
H -1.4623905222812266 -1.1085099949121193 0.8889564429202143
O 2.013281074838397 -0.1810372779979858 0.0
H 2.4901211031172084 0.15941337898888364 -0.7609331188540052
H 2.4901211031172084 0.15941337898888364 0.7609331188540052
$end


$rem
N_FROZEN_CORE FC
MEM_TOTAL 3750
MEM_STATIC 1500
AUX_BASIS_CORR rimp2-def2-QZVPPD
SCF_CONVERGENCE 7
SCF_ALGORITHM  GDM
method DSD-PBEPBE-D3
GEN_SCFMAN TRUE
UNRESTRICTED True
THRESH  14
SYMMETRY FALSE
SYM_IGNORE TRUE
max_scf_cycles 200

XC_GRID 000099000590
BASIS DEF2-QZVPPD


$end



$comment
step_size = 0.001
$end






