$molecule
0 1
O -1.6538746472893673 0.06231980609153331 0.0
H -2.072852226246458 -0.8009133996669546 0.0
H -0.7126062623962645 -0.1277450499163005 0.0
C 1.824030003642703 -0.0038760278828128157 0.0
H 1.4086746343137782 0.46473382140114583 0.8910314151822666
H 1.4086746343137782 0.46473382140114583 -0.8910314151822666
H 2.9042420661866557 0.12490060392476772 0.0
H 1.5936451392587914 -1.0686191088061037 0.0
$end


$rem
N_FROZEN_CORE FC
MEM_TOTAL 3750
MEM_STATIC 1500
AUX_BASIS_CORR rimp2-def2-QZVPPD
SCF_CONVERGENCE 7
SCF_ALGORITHM  GDM
method DSD-PBEPBE-D3
GEN_SCFMAN TRUE
UNRESTRICTED True
THRESH  14
SYMMETRY FALSE
SYM_IGNORE TRUE
max_scf_cycles 200

XC_GRID 000099000590
BASIS DEF2-QZVPPD


$end



$comment
step_size = 0.001
$end






