$molecule
0 1
O -0.7744588916301264 0.6531185288712704 0.0
H 0.14025222503132062 0.34936455083057555 0.0
C -1.6135676425289618 -0.4878825713949306 0.0
H -2.6433932388208206 -0.1338110360330262 -0.0
H -1.4628224989346381 -1.1087558390916437 -0.8888429140841606
H -1.4628224989346381 -1.1087558390916437 0.8888429140841606
O 2.013321385019725 -0.18100982193199713 0.0
H 2.4898063490459705 0.15919230376944477 -0.7603684780926109
H 2.4898063490459705 0.15919230376944477 0.7603684780926109
$end


$rem
N_FROZEN_CORE FC
MEM_TOTAL 3750
MEM_STATIC 1500
AUX_BASIS_CORR rimp2-def2-QZVPPD
SCF_CONVERGENCE 7
SCF_ALGORITHM  GDM
method DSD-PBEPBE-D3
GEN_SCFMAN TRUE
UNRESTRICTED True
THRESH  14
SYMMETRY FALSE
SYM_IGNORE TRUE
max_scf_cycles 200

XC_GRID 000099000590
BASIS DEF2-QZVPPD


$end



$comment
step_size = 0.001
$end






