$molecule
0 1
O -0.7744678623148192 0.6531037823837748 0.0
H 0.1402307812666064 0.3493750861577605 0.0
C -1.6136476289685595 -0.48800298096974715 0.0
H -2.6429303606393395 -0.13336297659116703 0.0
H -1.4624885025492593 -1.1081546288557984 -0.8884132136595215
H -1.4624885025492593 -1.1081546288557984 0.8884132136595215
O 2.013320184256012 -0.18100929837143725 0.0
H 2.4898085420014167 0.15919150832347537 -0.760365984722751
H 2.4898085420014167 0.15919150832347537 0.760365984722751
$end


$rem
N_FROZEN_CORE FC
MEM_TOTAL 3750
MEM_STATIC 1500
AUX_BASIS_CORR rimp2-def2-QZVPPD
SCF_CONVERGENCE 7
SCF_ALGORITHM  GDM
method DSD-PBEPBE-D3
GEN_SCFMAN TRUE
UNRESTRICTED True
THRESH  14
SYMMETRY FALSE
SYM_IGNORE TRUE
max_scf_cycles 200

XC_GRID 000099000590
BASIS DEF2-QZVPPD


$end



$comment
step_size = 0.001
$end






