$molecule
0 1
F -7e-07 -1.46384241 -6.117926106625516e-07
H 2.04e-05 -0.54393409 3.3712675243329904e-05
C -6.3e-07 1.76666382 -1.0694148184947755e-06
H 0.5157416644685003 1.4159805930046507 0.8937764681221679
H 0.5163075355315994 1.4168162669953495 -0.8937804518777326
H -1.032043 1.4163853600000997 0.0004880715985077778
H -6.00000009961103e-06 2.854127 -0.0004935343414862911
$end


$rem
N_FROZEN_CORE FC
MEM_TOTAL 3750
MEM_STATIC 1500
AUX_BASIS_CORR rimp2-def2-QZVPPD
SCF_CONVERGENCE 7
SCF_ALGORITHM  GDM
method DSD-PBEPBE-D3
GEN_SCFMAN TRUE
UNRESTRICTED True
THRESH  14
SYMMETRY FALSE
SYM_IGNORE TRUE
max_scf_cycles 200

XC_GRID 000099000590
BASIS DEF2-QZVPPD


$end



$comment
step_size = 0.001
$end






