$molecule
0 1
C 1.824377230652175 1.740711061606722e-11 -4.043636133345352e-08
H 1.4600924554368042 0.8869423643428931 0.5156164367531437
H 1.4600469729283485 0.003056405923574896 -1.0259065191275003
H 1.4600924856962911 -0.889998880521771 0.5103225281625056
H 2.9130526700865023 1.1004084052217072e-07 -3.2000583572292966e-05
C -1.824377230652175 -1.740711061606722e-11 4.043636133345352e-08
H -2.9130526700865023 -1.1004084052217072e-07 3.2000583572292966e-05
H -1.4600469729283485 -0.003056405923574896 1.0259065191275003
H -1.4600924554368042 -0.8869423643428931 -0.5156164367531437
H -1.4600924856962911 0.889998880521771 -0.5103225281625056
$end


$rem
N_FROZEN_CORE FC
MEM_TOTAL 3750
MEM_STATIC 1500
AUX_BASIS_CORR rimp2-def2-QZVPPD
SCF_CONVERGENCE 7
SCF_ALGORITHM  GDM
method DSD-PBEPBE-D3
GEN_SCFMAN TRUE
UNRESTRICTED True
THRESH  14
SYMMETRY FALSE
SYM_IGNORE TRUE
max_scf_cycles 200

XC_GRID 000099000590
BASIS DEF2-QZVPPD


$end



$comment
step_size = 0.001
$end






