$molecule
0 1
O -1.6538511161592968 0.062278178151472824 0.0
H -2.072508703089494 -0.8003394607120021 0.0
H -0.7133158252292173 -0.12765319400850225 0.0
C 1.8241212146351056 -0.0038062907569027856 0.0
H 1.4082427913824962 0.4643818918652835 0.8910145555609673
H 1.4082427913824962 0.4643818918652835 -0.8910145555609673
H 2.9043460359847204 0.12463506697030333 0.0
H 1.593311405230138 -1.0684851900343473 0.0
$end


$rem
N_FROZEN_CORE FC
MEM_TOTAL 3750
MEM_STATIC 1500
AUX_BASIS_CORR rimp2-def2-QZVPPD
SCF_CONVERGENCE 7
SCF_ALGORITHM  GDM
method DSD-PBEPBE-D3
GEN_SCFMAN TRUE
UNRESTRICTED True
THRESH  14
SYMMETRY FALSE
SYM_IGNORE TRUE
max_scf_cycles 200

XC_GRID 000099000590
BASIS DEF2-QZVPPD


$end



$comment
step_size = 0.001
$end






