$molecule
0 1
H 0.8158245142619955 1.862048331037626 0.0
O -0.06711674110777309 1.4901784886210092 0.0
H 0.06967864413067489 0.5347559575409667 0.0
H -0.41317955607165147 -1.7600036569900872 0.7601376585309015
O 0.0633901311973957 -1.4194064843650016 0.0
H -0.41317955607165147 -1.7600036569900872 -0.7601376585309015
$end


$rem
N_FROZEN_CORE FC
MEM_TOTAL 3750
MEM_STATIC 1500
AUX_BASIS_CORR rimp2-def2-QZVPPD
SCF_CONVERGENCE 7
SCF_ALGORITHM  GDM
method DSD-PBEPBE-D3
GEN_SCFMAN TRUE
UNRESTRICTED True
THRESH  14
SYMMETRY FALSE
SYM_IGNORE TRUE
max_scf_cycles 200

XC_GRID 000099000590
BASIS DEF2-QZVPPD


$end



$comment
step_size = 0.003
$end






