$molecule
0 1
H 0.0 1.6677060354329036 2.184603202213854
C 0.0 0.603592114170834 2.182835424196959
C 0.0 -0.603600145829166 2.182549115803041
H 0.0 -1.6677093845670963 2.1859210977861454
H 0.0 0.0011913067795581995 -0.51318153
C 0.0 -0.00030192457447828316 -1.57920508
C 0.0 0.0003665982025037968 -2.78676655
H 0.0 -0.0018623807794484204 -3.85035227
$end


$rem
N_FROZEN_CORE FC
MEM_TOTAL 3750
MEM_STATIC 1500
AUX_BASIS_CORR rimp2-def2-QZVPPD
SCF_CONVERGENCE 7
SCF_ALGORITHM  GDM
method DSD-PBEPBE-D3
GEN_SCFMAN TRUE
UNRESTRICTED True
THRESH  14
SYMMETRY FALSE
SYM_IGNORE TRUE
max_scf_cycles 200

XC_GRID 000099000590
BASIS DEF2-QZVPPD


$end



$comment
step_size = 0.003
$end






