$molecule
0 1
F -0.00010239531670833574 1.2729567294703714 -6.882761249817344e-13
H 0.0009153893689814072 0.32364311968443227 5.976661781080079e-12
N 0.00020687991567584443 -1.3728612194691974 1.3628827166976652e-12
H 0.9400369274586255 -1.7503587801103153 -4.1836632467560556e-12
H -0.47094830376713515 -1.7473212735460049 0.8146124242723709
H -0.47094830376713515 -1.7473212735229946 -0.8146124242804395
$end


$rem
N_FROZEN_CORE FC
MEM_TOTAL 3750
MEM_STATIC 1500
AUX_BASIS_CORR rimp2-def2-QZVPPD
SCF_CONVERGENCE 7
SCF_ALGORITHM  GDM
method DSD-PBEPBE-D3
GEN_SCFMAN TRUE
UNRESTRICTED True
THRESH  14
SYMMETRY FALSE
SYM_IGNORE TRUE
max_scf_cycles 200

XC_GRID 000099000590
BASIS DEF2-QZVPPD


$end



$comment
step_size = 0.003
$end






