$molecule
0 1
C 0.00013438114851310577 2.2762710625680693 0.0
H 0.04644503618365283 3.3634657422839047 0.0
H 0.49687629978197145 1.8917144057769162 0.8888434601292836
H -1.0406200120718911 1.9577145931770348 0.0
H 0.49687629978197145 1.8917144057769162 -0.8888434601292836
N -4.23746155530796e-05 -1.3029676837775206 0.5502490213788671
N -4.23746155530796e-05 -1.3029676837775206 -0.5502490213788671
$end


$rem
N_FROZEN_CORE FC
MEM_TOTAL 3750
MEM_STATIC 1500
AUX_BASIS_CORR rimp2-def2-QZVPPD
SCF_CONVERGENCE 7
SCF_ALGORITHM  GDM
method DSD-PBEPBE-D3
GEN_SCFMAN TRUE
UNRESTRICTED True
THRESH  14
SYMMETRY FALSE
SYM_IGNORE TRUE
max_scf_cycles 200

XC_GRID 000099000590
BASIS DEF2-QZVPPD


$end



$comment
step_size = 0.01
$end






