$molecule
0 1
C -2.795830170467805e-05 2.278278659326637 0.0
H 0.04822902049036237 3.3653699467704925 0.0
H 0.496581089921501 1.8928038118822046 0.8885425738546975
H -1.0410135321316485 1.9605432097859992 0.0
H 0.496581089921501 1.8928038118822046 -0.8885425738546975
N -1.6062941932335676e-06 -1.3040766143003275 0.5502492433092724
N -1.6062941932335676e-06 -1.3040766143003275 -0.5502492433092724
$end


$rem
N_FROZEN_CORE FC
MEM_TOTAL 3750
MEM_STATIC 1500
AUX_BASIS_CORR rimp2-def2-QZVPPD
SCF_CONVERGENCE 7
SCF_ALGORITHM  GDM
method DSD-PBEPBE-D3
GEN_SCFMAN TRUE
UNRESTRICTED True
THRESH  14
SYMMETRY FALSE
SYM_IGNORE TRUE
max_scf_cycles 200

XC_GRID 000099000590
BASIS DEF2-QZVPPD


$end



$comment
step_size = 0.001
$end






