$molecule
0 1
O -1.653850799261557 0.06227703440734669 0.0
H -2.0725215557750447 -0.8003328500023097 0.0
H -0.713316329604586 -0.12764688155674475 0.0
C 1.824026165981521 -0.0038778437016596164 0.0
H 1.4088663914673984 0.4645160752614102 0.8906185423611528
H 1.4088663914673984 0.4645160752614102 -0.8906185423611528
H 2.9037947909572317 0.12484642998704505 0.0
H 1.5937555057860195 -1.0681077223030806 0.0
$end


$rem
N_FROZEN_CORE FC
MEM_TOTAL 3750
MEM_STATIC 1500
AUX_BASIS_CORR rimp2-def2-QZVPPD
SCF_CONVERGENCE 7
SCF_ALGORITHM  GDM
method DSD-PBEPBE-D3
GEN_SCFMAN TRUE
UNRESTRICTED True
THRESH  14
SYMMETRY FALSE
SYM_IGNORE TRUE
max_scf_cycles 200

XC_GRID 000099000590
BASIS DEF2-QZVPPD


$end



$comment
step_size = 0.001
$end






