$molecule
0 1
F 1.026219702347766e-10 1.2725045695613193 0.0
H 2.090819847504261e-07 0.3231417611509708 0.0
N 1.977063485573694e-08 -1.372333346579401 0.0
H 0.9406567230368157 -1.7477707779191303 0.0
H -0.47032864041272543 -1.7477700114097996 0.8146327911094712
H -0.47032864041272543 -1.7477700114097996 -0.8146327911094712
$end


$rem
N_FROZEN_CORE FC
MEM_TOTAL 3750
MEM_STATIC 1500
AUX_BASIS_CORR rimp2-def2-QZVPPD
SCF_CONVERGENCE 7
SCF_ALGORITHM  GDM
method DSD-PBEPBE-D3
GEN_SCFMAN TRUE
UNRESTRICTED True
THRESH  14
SYMMETRY FALSE
SYM_IGNORE TRUE
max_scf_cycles 200

XC_GRID 000099000590
BASIS DEF2-QZVPPD


$end



$comment
step_size = 0.003
$end






