$molecule
0 1
C -2.10004626 -0.57556606 -0.00038272692348468467
C -2.73275739 0.45216878 0.0003820306941392577
H -1.54216374 -1.4811784 0.0016546383015932724
H -3.29012392 1.35807265 -0.0016463326676968298
Ar 1.57307294 0.04015867 -4.583347293311717e-10
$end


$rem
N_FROZEN_CORE FC
MEM_TOTAL 3750
MEM_STATIC 1500
AUX_BASIS_CORR rimp2-def2-QZVPPD
SCF_CONVERGENCE 7
SCF_ALGORITHM  GDM
method DSD-PBEPBE-D3
GEN_SCFMAN TRUE
UNRESTRICTED True
THRESH  14
SYMMETRY FALSE
SYM_IGNORE TRUE
max_scf_cycles 200

XC_GRID 000099000590
BASIS DEF2-QZVPPD


$end



$comment
step_size = 0.003
$end






