$molecule
0 1
O -1.6538510456222362 0.062277343474842026 0.0
H -2.07252055372554 -0.8003343011219441 0.0
H -0.7133136152104023 -0.1276520547117331 0.0
C 1.8240297235955776 -0.003963699516339052 0.0
H 1.408534096433227 0.46487486415532003 0.8913360203962958
H 1.408534096433227 0.46487486415532003 -0.8913360203962958
H 2.9043565294999762 0.12489359864154231 0.0
H 1.5938161908885466 -1.0678484791209149 0.0
$end


$rem
N_FROZEN_CORE FC
MEM_TOTAL 3750
MEM_STATIC 1500
AUX_BASIS_CORR rimp2-def2-QZVPPD
SCF_CONVERGENCE 7
SCF_ALGORITHM  GDM
method DSD-PBEPBE-D3
GEN_SCFMAN TRUE
UNRESTRICTED True
THRESH  14
SYMMETRY FALSE
SYM_IGNORE TRUE
max_scf_cycles 200

XC_GRID 000099000590
BASIS DEF2-QZVPPD


$end



$comment
step_size = 0.001
$end






