$molecule
0 1
O -1.6538515563872125 0.062277374174296116 0.0
H -2.072520965188621 -0.8003333741322389 0.0
H -0.7133121467792672 -0.1276502377156068 0.0
C 1.8239603632866161 -0.003784865548653792 0.0
H 1.4088701566792527 0.4644494040570643 0.891333010613672
H 1.4088701566792527 0.4644494040570643 -0.891333010613672
H 2.9042552800539307 0.12442338414796791 0.0
H 1.5940782304007455 -1.0686599210520897 0.0
$end


$rem
N_FROZEN_CORE FC
MEM_TOTAL 3750
MEM_STATIC 1500
AUX_BASIS_CORR rimp2-def2-QZVPPD
SCF_CONVERGENCE 7
SCF_ALGORITHM  GDM
method DSD-PBEPBE-D3
GEN_SCFMAN TRUE
UNRESTRICTED True
THRESH  14
SYMMETRY FALSE
SYM_IGNORE TRUE
max_scf_cycles 200

XC_GRID 000099000590
BASIS DEF2-QZVPPD


$end



$comment
step_size = 0.001
$end






