$molecule
0 1
C 6.301622479963983e-05 2.278207869797765 0.0
H 0.047276525368566504 3.365363367212954 0.0
H 0.4966314495427178 1.8927655504629157 0.8885567796346605
H -1.0412453339906182 1.9614688625687307 0.0
H 0.4966314495427178 1.8927655504629157 -0.8885567796346605
N -1.593351671045615e-06 -1.3040766024823705 0.5502491819451841
N -1.593351671045615e-06 -1.3040766024823705 -0.5502491819451841
$end


$rem
N_FROZEN_CORE FC
MEM_TOTAL 3750
MEM_STATIC 1500
AUX_BASIS_CORR rimp2-def2-QZVPPD
SCF_CONVERGENCE 7
SCF_ALGORITHM  GDM
method DSD-PBEPBE-D3
GEN_SCFMAN TRUE
UNRESTRICTED True
THRESH  14
SYMMETRY FALSE
SYM_IGNORE TRUE
max_scf_cycles 200

XC_GRID 000099000590
BASIS DEF2-QZVPPD


$end



$comment
step_size = 0.001
$end






