$molecule
0 1
O -0.77446723 0.6531056 0.00015672908189834337
H 0.14024465 0.3493741 -0.0007145632677948447
C -1.61364112 -0.48795506 -4.291492066813643e-06
H -2.64323102 -0.1332504 -0.0007850935256534721
H -1.4618230506808527 -1.1087979248401398 -0.8886582241746154
H -1.4629573493191472 -1.10822111515986 0.8892543358253847
O 2.01332033 -0.18100946 -0.00016175563902292724
H 2.491338062138134 0.1585606509008932 -0.7598493007746787
H 2.4882793578618663 0.1598236890991068 0.7608837192253213
$end


$rem
N_FROZEN_CORE FC
MEM_TOTAL 3750
MEM_STATIC 1500
AUX_BASIS_CORR rimp2-def2-QZVPPD
SCF_CONVERGENCE 7
SCF_ALGORITHM  GDM
method DSD-PBEPBE-D3
GEN_SCFMAN TRUE
UNRESTRICTED True
THRESH  14
SYMMETRY FALSE
SYM_IGNORE TRUE
max_scf_cycles 200

XC_GRID 000099000590
BASIS DEF2-QZVPPD


$end



$comment
step_size = 0.003
$end






