$molecule
0 1
O       0.000000000000000     -1.163112950000000      1.628184470000000
C       0.000000000000000      0.000000000000000      1.628221240000000
O       0.000000000000000      1.163112950000000      1.628184470000000
Ar      0.000000000000000      0.000000000000000     -1.792285430000000
$end


$rem
N_FROZEN_CORE FC
MEM_TOTAL 3750
MEM_STATIC 1500
AUX_BASIS_CORR rimp2-def2-QZVPPD
SCF_CONVERGENCE 7
SCF_ALGORITHM  GDM
method DSD-PBEPBE-D3
GEN_SCFMAN TRUE
UNRESTRICTED True
THRESH  14
SYMMETRY FALSE
SYM_IGNORE TRUE
max_scf_cycles 200

XC_GRID 000099000590
BASIS DEF2-QZVPPD


$end



$comment
step_size = {step_size}
$end






