$molecule
0 1
F -1.0000160597762496e-08 1.7596155137740843 0.0
H 3.4000547860663266e-07 0.8341553164068042 0.0
C 5.001157587289725e-08 -1.3168687674630897 -0.6041780389564958
C 5.001157587289725e-08 -1.3168687674630897 0.6041780389564958
H -6.301390569974398e-07 -1.3225099676099705 1.6691160825075224
H -6.301390569974398e-07 -1.3225099676099705 -1.6691160825075224
$end


$rem
N_FROZEN_CORE FC
MEM_TOTAL 3750
MEM_STATIC 1500
AUX_BASIS_CORR rimp2-def2-QZVPPD
SCF_CONVERGENCE 7
SCF_ALGORITHM  GDM
method DSD-PBEPBE-D3
GEN_SCFMAN TRUE
UNRESTRICTED True
THRESH  14
SYMMETRY FALSE
SYM_IGNORE TRUE
max_scf_cycles 200

XC_GRID 000099000590
BASIS DEF2-QZVPPD


$end



$comment
step_size = 0.001
$end






