$molecule
0 1
O -1.6538511143777637 0.06227689652515797 0.0
H -2.07252262627446 -0.8003319788780558 0.0
H -0.7133117847895978 -0.12764404528826692 0.0
C 1.8240305164044224 -0.0037884204836609488 0.0
H 1.408815663566773 0.46459523584467993 0.8907313796037043
H 1.408815663566773 0.46459523584467993 -0.8907313796037043
H 2.904126410500024 0.12490772135845768 0.0
H 1.5934750691114532 -1.0693936008790852 0.0
$end


$rem
N_FROZEN_CORE FC
MEM_TOTAL 3750
MEM_STATIC 1500
AUX_BASIS_CORR rimp2-def2-QZVPPD
SCF_CONVERGENCE 7
SCF_ALGORITHM  GDM
method DSD-PBEPBE-D3
GEN_SCFMAN TRUE
UNRESTRICTED True
THRESH  14
SYMMETRY FALSE
SYM_IGNORE TRUE
max_scf_cycles 200

XC_GRID 000099000590
BASIS DEF2-QZVPPD


$end



$comment
step_size = 0.001
$end






