$molecule
0 1
F -6.999896988006627e-07 -1.4638419816323802 0.0
H 2.0399853970230483e-05 -0.5439405872517336 0.0
C -6.28166162339973e-07 1.7666568229504058 0.0
H 0.5157764698530319 1.416563530971334 0.8933486873628431
H 0.5157764698530319 1.416563530971334 -0.8933486873628431
H -1.031546764640896 1.4165504590944629 0.0
H -5.996947121162224e-06 2.853713433773061 0.0
$end


$rem
N_FROZEN_CORE FC
MEM_TOTAL 3750
MEM_STATIC 1500
AUX_BASIS_CORR rimp2-def2-QZVPPD
SCF_CONVERGENCE 7
SCF_ALGORITHM  GDM
method DSD-PBEPBE-D3
GEN_SCFMAN TRUE
UNRESTRICTED True
THRESH  14
SYMMETRY FALSE
SYM_IGNORE TRUE
max_scf_cycles 200

XC_GRID 000099000590
BASIS DEF2-QZVPPD


$end



$comment
step_size = 0.001
$end






