$molecule
0 1
F -1.1700694124689484e-11 1.273009588428024 0.0
H 2.1022063843075154e-07 0.32269351397489354 0.0
N 2.0010903061733583e-08 -1.3728555178543225 0.0
H 0.9407483067029881 -1.7483763067841946 0.0
H -0.4703744334269494 -1.748375536719846 0.814712105609911
H -0.4703744334269494 -1.748375536719846 -0.814712105609911
$end


$rem
N_FROZEN_CORE FC
MEM_TOTAL 3750
MEM_STATIC 1500
AUX_BASIS_CORR rimp2-def2-QZVPPD
SCF_CONVERGENCE 7
SCF_ALGORITHM  GDM
method DSD-PBEPBE-D3
GEN_SCFMAN TRUE
UNRESTRICTED True
THRESH  14
SYMMETRY FALSE
SYM_IGNORE TRUE
max_scf_cycles 200

XC_GRID 000099000590
BASIS DEF2-QZVPPD


$end



$comment
step_size = 0.001
$end






