$molecule
0 1
O -0.77446723 0.6531056 -0.00010529922443660236
H 0.14024465 0.3493741 0.0027695009251266253
C -1.61364112 -0.48795506 -4.658414040016053e-06
H -2.64323102 -0.1332504 0.00017965916346551988
H -1.462502059104774 -1.1084964957088506 -0.8889957133504245
H -1.462278340895226 -1.1085225442911493 0.8889168466495756
O 2.01332033 -0.18100946 -9.569573682194093e-05
H 2.490407150194657 0.1589788053621725 -0.7601789553059289
H 2.4892102698053433 0.1594055346378275 0.760554064694071
$end


$rem
N_FROZEN_CORE FC
MEM_TOTAL 3750
MEM_STATIC 1500
AUX_BASIS_CORR rimp2-def2-QZVPPD
SCF_CONVERGENCE 7
SCF_ALGORITHM  GDM
method DSD-PBEPBE-D3
GEN_SCFMAN TRUE
UNRESTRICTED True
THRESH  14
SYMMETRY FALSE
SYM_IGNORE TRUE
max_scf_cycles 200

XC_GRID 000099000590
BASIS DEF2-QZVPPD


$end



$comment
step_size = 0.003
$end






