$molecule
0 1
F -7e-07 -1.46384241 0.00011051801510600029
H 2.04e-05 -0.54393409 -0.0029393865758042784
C -6.3e-07 1.76666382 6.018733592828193e-05
H 0.5159989393290494 1.4163718775166805 0.8938240639076648
H 0.5160502606709507 1.4164249824833197 -0.8937328560923353
H -1.032043 1.41638536 9.003954619420907e-05
H -6e-06 2.854127 -4.186463701283507e-05
$end


$rem
N_FROZEN_CORE FC
MEM_TOTAL 3750
MEM_STATIC 1500
AUX_BASIS_CORR rimp2-def2-QZVPPD
SCF_CONVERGENCE 7
SCF_ALGORITHM  GDM
method DSD-PBEPBE-D3
GEN_SCFMAN TRUE
UNRESTRICTED True
THRESH  14
SYMMETRY FALSE
SYM_IGNORE TRUE
max_scf_cycles 200

XC_GRID 000099000590
BASIS DEF2-QZVPPD


$end



$comment
step_size = 0.003
$end






