$molecule
0 1
F -0.0073302 1.29948237 -0.00010062863702410717
H 0.04079339 0.36684741 0.0010718124783021044
O 0.05309571 -1.34687005 0.00012584825265943807
H -0.372246597087845 -1.7455044718932415 0.7625789221281563
H -0.37303338291215493 -1.7419428481067583 -0.7637510978718438
$end


$rem
N_FROZEN_CORE FC
MEM_TOTAL 3750
MEM_STATIC 1500
AUX_BASIS_CORR rimp2-def2-QZVPPD
SCF_CONVERGENCE 7
SCF_ALGORITHM  GDM
method DSD-PBEPBE-D3
GEN_SCFMAN TRUE
UNRESTRICTED True
THRESH  14
SYMMETRY FALSE
SYM_IGNORE TRUE
max_scf_cycles 200

XC_GRID 000099000590
BASIS DEF2-QZVPPD


$end



$comment
step_size = 0.003
$end






