$molecule
0 1
N      -0.059308300000000      1.640635020000000      0.000000000000000
H       0.323497820000000      2.112667210000000     -0.810270410000000
H       0.323497820000000      2.112667210000000      0.810270410000000
H       0.318847140000000      0.697615940000000      0.000000000000000
N       0.034495770000000     -1.587930520000000      0.000000000000000
H      -0.935293270000000     -1.292743530000000      0.000000000000000
H       0.157102240000000     -2.181250820000000     -0.811748350000000
H       0.157102240000000     -2.181250820000000      0.811748350000000
$end


$rem
N_FROZEN_CORE FC
MEM_TOTAL 3750
MEM_STATIC 1500
AUX_BASIS_CORR rimp2-def2-QZVPPD
SCF_CONVERGENCE 7
SCF_ALGORITHM  GDM
method DSD-PBEPBE-D3
GEN_SCFMAN TRUE
UNRESTRICTED True
THRESH  14
SYMMETRY FALSE
SYM_IGNORE TRUE
max_scf_cycles 200

XC_GRID 000099000590
BASIS DEF2-QZVPPD


$end



$comment
step_size = {step_size}
$end






