$molecule
0 1
N 0.06558880130396133 -2.4983511322100176 0.0
H -0.3758563604486132 -2.082087832835284 0.8110354545873819
H -0.3758563604486132 -2.082087832835284 -0.8110354545873819
H -0.19388274456440335 -3.4773918467077785 0.0
Ar 0.0008645589602430593 1.0681534707016418 0.0
$end


$rem
N_FROZEN_CORE FC
MEM_TOTAL 3750
MEM_STATIC 1500
AUX_BASIS_CORR rimp2-def2-QZVPPD
SCF_CONVERGENCE 7
SCF_ALGORITHM  GDM
method DSD-PBEPBE-D3
GEN_SCFMAN TRUE
UNRESTRICTED True
THRESH  14
SYMMETRY FALSE
SYM_IGNORE TRUE
max_scf_cycles 200

XC_GRID 000099000590
BASIS DEF2-QZVPPD


$end



$comment
step_size = 0.001
$end






