$molecule
0 1
F 2.4777940499342436e-12 1.272960293196689 0.0
H 2.098778768776066e-07 0.32363644805163794 0.0
N 1.995181808748616e-08 -1.3729707723272364 0.0
H 0.9408390379164961 -1.7478470698645212 0.0
H -0.4704197985860017 -1.7478462996126047 0.8147906808244824
H -0.4704197985860017 -1.7478462996126047 -0.8147906808244824
$end


$rem
N_FROZEN_CORE FC
MEM_TOTAL 3750
MEM_STATIC 1500
AUX_BASIS_CORR rimp2-def2-QZVPPD
SCF_CONVERGENCE 7
SCF_ALGORITHM  GDM
method DSD-PBEPBE-D3
GEN_SCFMAN TRUE
UNRESTRICTED True
THRESH  14
SYMMETRY FALSE
SYM_IGNORE TRUE
max_scf_cycles 200

XC_GRID 000099000590
BASIS DEF2-QZVPPD


$end



$comment
step_size = 0.001
$end






