$molecule
0 1
C 6.288586589272248e-05 2.2782078870691986 0.0
H 0.047774476840634815 3.365341238767345 0.0
H 0.49631089108089865 1.8930150259403138 0.8888437653436545
H -1.0411004078783381 1.960991973037159 0.0
H 0.49631089108089865 1.8930150259403138 -0.8888437653436545
N -1.6008551420967514e-06 -1.304076607470949 0.5500601585795943
N -1.6008551420967514e-06 -1.304076607470949 -0.5500601585795943
$end


$rem
N_FROZEN_CORE FC
MEM_TOTAL 3750
MEM_STATIC 1500
AUX_BASIS_CORR rimp2-def2-QZVPPD
SCF_CONVERGENCE 7
SCF_ALGORITHM  GDM
method DSD-PBEPBE-D3
GEN_SCFMAN TRUE
UNRESTRICTED True
THRESH  14
SYMMETRY FALSE
SYM_IGNORE TRUE
max_scf_cycles 200

XC_GRID 000099000590
BASIS DEF2-QZVPPD


$end



$comment
step_size = 0.001
$end






