$molecule
0 1
O -0.7745035911836607 0.6531626637974681 0.0
H 0.1399557632094244 0.3486352838211043 0.0
C -1.613554317123062 -0.4880002279803838 -0.0
H -2.6430547771878516 -0.13303889763300594 0.0
H -1.4625691737527204 -1.1084494695202394 -0.889074183409417
H -1.4625691737527204 -1.1084494695202394 0.889074183409417
O 2.013321302529465 -0.18100443174258019 0.0
H 2.489808054063163 0.15917195714441854 -0.7603753062996994
H 2.489808054063163 0.15917195714441854 0.7603753062996994
$end


$rem
N_FROZEN_CORE FC
MEM_TOTAL 3750
MEM_STATIC 1500
AUX_BASIS_CORR rimp2-def2-QZVPPD
SCF_CONVERGENCE 7
SCF_ALGORITHM  GDM
method DSD-PBEPBE-D3
GEN_SCFMAN TRUE
UNRESTRICTED True
THRESH  14
SYMMETRY FALSE
SYM_IGNORE TRUE
max_scf_cycles 200

XC_GRID 000099000590
BASIS DEF2-QZVPPD


$end



$comment
step_size = 0.001
$end






