$molecule
0 1
O -1.653791331651099 0.062308463039198285 0.0
H -2.0728297724963283 -0.8009625062288328 0.0
H -0.7139541871888925 -0.12751619360727628 0.0
C 1.824030205703837 -0.003876033943922544 0.0
H 1.4086753116497543 0.46473627027595416 0.8910355115745968
H 1.4086753116497543 0.46473627027595416 -0.8910355115745968
H 2.904240285916319 0.12490042857140368 0.0
H 1.5936463503538958 -1.0686234863092265 0.0
$end


$rem
N_FROZEN_CORE FC
MEM_TOTAL 3750
MEM_STATIC 1500
AUX_BASIS_CORR rimp2-def2-QZVPPD
SCF_CONVERGENCE 7
SCF_ALGORITHM  GDM
method DSD-PBEPBE-D3
GEN_SCFMAN TRUE
UNRESTRICTED True
THRESH  14
SYMMETRY FALSE
SYM_IGNORE TRUE
max_scf_cycles 200

XC_GRID 000099000590
BASIS DEF2-QZVPPD


$end



$comment
step_size = 0.001
$end






