$molecule
0 1
C 1.82437768629363 -0.00032499490317498397 0.00026191992116239175
H 1.458795914278831 0.8852467669308036 0.5165767894401957
H 1.4576729785083247 0.0016411400345569594 -1.0244305698714782
H 1.4641153942112173 -0.8911296522844339 0.5113060257985309
H 2.9126976571866434 0.0029316855669504526 -0.0023958369668329272
C -1.82437768629363 0.00032499490317498397 -0.00026191992116239175
H -2.9126976571866434 -0.0029316855669504526 0.0023958369668329272
H -1.4576729785083247 -0.0016411400345569594 1.0244305698714782
H -1.458795914278831 -0.8852467669308036 -0.5165767894401957
H -1.4641153942112173 0.8911296522844339 -0.5113060257985309
$end


$rem
N_FROZEN_CORE FC
MEM_TOTAL 3750
MEM_STATIC 1500
AUX_BASIS_CORR rimp2-def2-QZVPPD
SCF_CONVERGENCE 7
SCF_ALGORITHM  GDM
method DSD-PBEPBE-D3
GEN_SCFMAN TRUE
UNRESTRICTED True
THRESH  14
SYMMETRY FALSE
SYM_IGNORE TRUE
max_scf_cycles 200

XC_GRID 000099000590
BASIS DEF2-QZVPPD


$end



$comment
step_size = 0.01
$end






