$molecule
0 1
O -0.7744755225382144 0.6531079503356406 0.0
H 0.14037731356868874 0.3493343796063484 0.0
C -1.6136412580732014 -0.4879548256630809 -0.0
H -2.6432292971842095 -0.13325079500893275 -0.0
H -1.4623898777187734 -1.1085090450878805 -0.8889561170797858
H -1.4623898777187734 -1.1085090450878805 0.8889561170797858
O 2.013359585161603 -0.18098164200201422 -0.0
H 2.489496316882792 0.15897096101111635 -0.7597999011459948
H 2.489496316882792 0.15897096101111635 0.7597999011459948
$end


$rem
N_FROZEN_CORE FC
MEM_TOTAL 3750
MEM_STATIC 1500
AUX_BASIS_CORR rimp2-def2-QZVPPD
SCF_CONVERGENCE 7
SCF_ALGORITHM  GDM
method DSD-PBEPBE-D3
GEN_SCFMAN TRUE
UNRESTRICTED True
THRESH  14
SYMMETRY FALSE
SYM_IGNORE TRUE
max_scf_cycles 200

XC_GRID 000099000590
BASIS DEF2-QZVPPD


$end



$comment
step_size = 0.001
$end






