$molecule
0 1
N -0.05930969697923633 1.6405908442154127 0.0
H 0.32358882145723544 2.113025498079337 -0.8100056499417398
H 0.32358882145723544 2.113025498079337 0.8100056499417398
H 0.31868007529692655 0.6975171608355714 0.0
N 0.03453205813675368 -1.5879608744087355 0.0
H -0.935324700486743 -1.2929355778594456 0.0
H 0.15686809115605319 -2.180945920261955 -0.8120216437299935
H 0.15686809115605319 -2.180945920261955 0.8120216437299935
$end


$rem
N_FROZEN_CORE FC
MEM_TOTAL 3750
MEM_STATIC 1500
AUX_BASIS_CORR rimp2-def2-QZVPPD
SCF_CONVERGENCE 7
SCF_ALGORITHM  GDM
method DSD-PBEPBE-D3
GEN_SCFMAN TRUE
UNRESTRICTED True
THRESH  14
SYMMETRY FALSE
SYM_IGNORE TRUE
max_scf_cycles 200

XC_GRID 000099000590
BASIS DEF2-QZVPPD


$end



$comment
step_size = 0.001
$end






