$molecule
0 1
C 6.293413410727753e-05 2.278207652930801 0.0
H 0.04777452315936518 3.3653415812326553 0.0
H 0.4963105289191013 1.8930157540596861 0.8888442946563455
H -1.041100352121662 1.960992546962841 0.0
H 0.4963105289191013 1.8930157540596861 -0.8888442946563455
N -1.5991448579032485e-06 -1.304076592529051 0.5504380814204057
N -1.5991448579032485e-06 -1.304076592529051 -0.5504380814204057
$end


$rem
N_FROZEN_CORE FC
MEM_TOTAL 3750
MEM_STATIC 1500
AUX_BASIS_CORR rimp2-def2-QZVPPD
SCF_CONVERGENCE 7
SCF_ALGORITHM  GDM
method DSD-PBEPBE-D3
GEN_SCFMAN TRUE
UNRESTRICTED True
THRESH  14
SYMMETRY FALSE
SYM_IGNORE TRUE
max_scf_cycles 200

XC_GRID 000099000590
BASIS DEF2-QZVPPD


$end



$comment
step_size = 0.001
$end






