$molecule
0 1
C       1.824377540000000      0.000000000000000     -0.000000040000000
H       1.460209750000000      0.886656170000000      0.515450060000000
H       1.460164280000000      0.003055420000000     -1.025575490000000
H       1.460209780000000     -0.889711700000000      0.510157860000000
H       2.912697590000000      0.000000110000000     -0.000031990000000
C      -1.824377540000000     -0.000000000000000      0.000000040000000
H      -2.912697590000000     -0.000000110000000      0.000031990000000
H      -1.460164280000000     -0.003055420000000      1.025575490000000
H      -1.460209750000000     -0.886656170000000     -0.515450060000000
H      -1.460209780000000      0.889711700000000     -0.510157860000000
$end


$rem
N_FROZEN_CORE FC
MEM_TOTAL 3750
MEM_STATIC 1500
AUX_BASIS_CORR rimp2-def2-QZVPPD
SCF_CONVERGENCE 7
SCF_ALGORITHM  GDM
method DSD-PBEPBE-D3
GEN_SCFMAN TRUE
UNRESTRICTED True
THRESH  14
SYMMETRY FALSE
SYM_IGNORE TRUE
max_scf_cycles 200

XC_GRID 000099000590
BASIS DEF2-QZVPPD


$end



$comment
step_size = {step_size}
$end






