$molecule
0 1
N 0.06558049 -2.49828684 -7.572864212862389e-05
H -0.3759559200795046 -2.082296563084598 0.8119513234019528
H -0.37537865992049535 -2.0828755169154016 -0.8108763165980472
H -0.19414505 -3.47728791 -2.2930240984866593e-05
Ar 0.00086455 1.06815345 3.1199949496160348e-09
$end


$rem
N_FROZEN_CORE FC
MEM_TOTAL 3750
MEM_STATIC 1500
AUX_BASIS_CORR rimp2-def2-QZVPPD
SCF_CONVERGENCE 7
SCF_ALGORITHM  GDM
method DSD-PBEPBE-D3
GEN_SCFMAN TRUE
UNRESTRICTED True
THRESH  14
SYMMETRY FALSE
SYM_IGNORE TRUE
max_scf_cycles 200

XC_GRID 000099000590
BASIS DEF2-QZVPPD


$end



$comment
step_size = 0.001
$end






