$molecule
0 1
F -0.007387078217435587 1.2997437291871643 0.0
H 0.04135778502955064 0.36714265266686497 0.0
O 0.05326426431371652 -1.3473039990048485 0.0
H -0.3737236244966967 -1.74289116571589 0.7631368432732267
H -0.3737236244966967 -1.74289116571589 -0.7631368432732267
$end


$rem
N_FROZEN_CORE FC
MEM_TOTAL 3750
MEM_STATIC 1500
AUX_BASIS_CORR rimp2-def2-QZVPPD
SCF_CONVERGENCE 7
SCF_ALGORITHM  GDM
method DSD-PBEPBE-D3
GEN_SCFMAN TRUE
UNRESTRICTED True
THRESH  14
SYMMETRY FALSE
SYM_IGNORE TRUE
max_scf_cycles 200

XC_GRID 000099000590
BASIS DEF2-QZVPPD


$end



$comment
step_size = 0.003
$end






