$molecule
0 1
N -0.05938476472455498 1.6406300370770879 0.0
H 0.32384101117242803 2.112619014135148 -0.8101434787090855
H 0.32384101117242803 2.112619014135148 0.8101434787090855
H 0.3192726396413442 0.6977790358993236 0.0
N 0.034534242345881504 -1.5878742210124304 0.0
H -0.9354122490652969 -1.2931040008097103 0.0
H 0.15686972824878284 -2.1814604383668112 -0.8116346173475275
H 0.15686972824878284 -2.1814604383668112 0.8116346173475275
$end


$rem
N_FROZEN_CORE FC
MEM_TOTAL 3750
MEM_STATIC 1500
AUX_BASIS_CORR rimp2-def2-QZVPPD
SCF_CONVERGENCE 7
SCF_ALGORITHM  GDM
method DSD-PBEPBE-D3
GEN_SCFMAN TRUE
UNRESTRICTED True
THRESH  14
SYMMETRY FALSE
SYM_IGNORE TRUE
max_scf_cycles 200

XC_GRID 000099000590
BASIS DEF2-QZVPPD


$end



$comment
step_size = 0.001
$end






