$molecule
0 1
H 0.815377396111794 1.8627539370516295 0.0
O -0.0670561412125602 1.4897043065132576 0.0
H 0.0707601165613062 0.534437903036365 0.0
H -0.41205480402036565 -1.7612297926807083 0.7601588880677524
O 0.0631478219963833 -1.4188022061466754 0.0
H -0.41205480402036565 -1.7612297926807083 -0.7601588880677524
$end


$rem
N_FROZEN_CORE FC
MEM_TOTAL 3750
MEM_STATIC 1500
AUX_BASIS_CORR rimp2-def2-QZVPPD
SCF_CONVERGENCE 7
SCF_ALGORITHM  GDM
method DSD-PBEPBE-D3
GEN_SCFMAN TRUE
UNRESTRICTED True
THRESH  14
SYMMETRY FALSE
SYM_IGNORE TRUE
max_scf_cycles 200

XC_GRID 000099000590
BASIS DEF2-QZVPPD


$end



$comment
step_size = 0.003
$end






