$molecule
0 1
O -1.476957295213417 -0.05789822814444333 0.0
H -1.8502450495555032 0.8242574143228798 0.0
H -0.5158260590775325 0.07736379428661101 0.0
N 1.4610657037295394 0.014288169089756707 0.0
H 1.6540903509356322 -0.9805085640096355 0.0
H 1.925903106668559 0.39962472153988815 0.8132524043189512
H 1.925903106668559 0.39962472153988815 -0.8132524043189512
$end


$rem
N_FROZEN_CORE FC
MEM_TOTAL 3750
MEM_STATIC 1500
AUX_BASIS_CORR rimp2-def2-QZVPPD
SCF_CONVERGENCE 7
SCF_ALGORITHM  GDM
method DSD-PBEPBE-D3
GEN_SCFMAN TRUE
UNRESTRICTED True
THRESH  14
SYMMETRY FALSE
SYM_IGNORE TRUE
max_scf_cycles 200

XC_GRID 000099000590
BASIS DEF2-QZVPPD


$end



$comment
step_size = 0.001
$end






