$molecule
0 1
F -7.000292058502367e-07 -1.4638436969040094 0.0
H 2.0399869509551114e-05 -0.5439305415926476 0.0
C -6.463465470390794e-07 1.7665494372386894 0.0
H 0.5161210026066303 1.4168876053976913 0.8939452919264411
H 0.5161210026066303 1.4168876053976913 -0.8939452919264411
H -1.0322356914336577 1.4168744874854833 0.0
H -5.918466081149417e-06 2.8540421685451713 0.0
$end


$rem
N_FROZEN_CORE FC
MEM_TOTAL 3750
MEM_STATIC 1500
AUX_BASIS_CORR rimp2-def2-QZVPPD
SCF_CONVERGENCE 7
SCF_ALGORITHM  GDM
method DSD-PBEPBE-D3
GEN_SCFMAN TRUE
UNRESTRICTED True
THRESH  14
SYMMETRY FALSE
SYM_IGNORE TRUE
max_scf_cycles 200

XC_GRID 000099000590
BASIS DEF2-QZVPPD


$end



$comment
step_size = 0.001
$end






