$molecule
0 1
F -9.999908229850003e-09 1.7596150810448588 0.0
H 3.399979081683766e-07 0.8341626785521217 0.0
C 4.9968072530113814e-08 -1.3168693443364676 -0.6040825722322073
C 4.9968072530113814e-08 -1.3168693443364676 0.6040825722322073
H -6.296195854776342e-07 -1.322502701284985 1.668176065218138
H -6.296195854776342e-07 -1.322502701284985 -1.668176065218138
$end


$rem
N_FROZEN_CORE FC
MEM_TOTAL 3750
MEM_STATIC 1500
AUX_BASIS_CORR rimp2-def2-QZVPPD
SCF_CONVERGENCE 7
SCF_ALGORITHM  GDM
method DSD-PBEPBE-D3
GEN_SCFMAN TRUE
UNRESTRICTED True
THRESH  14
SYMMETRY FALSE
SYM_IGNORE TRUE
max_scf_cycles 200

XC_GRID 000099000590
BASIS DEF2-QZVPPD


$end



$comment
step_size = 0.001
$end






