$molecule
0 1
C 1.8243775708530787 -5.903456965764202e-05 5.6148200065909394e-05
H 1.4602486384501014 0.8868445654558869 0.5151206461316871
H 1.4602606281019652 0.00334089109888285 -1.0255680876164086
H 1.4600741627854794 -0.8897663297038053 0.5100808481263511
H 2.912697603298272 0.0002837876488117284 -0.0003019899156827321
C -1.8243775091469212 -5.903456965764202e-05 5.6228200065909394e-05
H -2.9126975767017282 0.0002835676488117284 -0.00023800991568273216
H -1.460067931898035 -0.00276994890111715 1.0255828923835915
H -1.4601708615498985 -0.8864677745441131 -0.515779473868313
H -1.4603453972145206 0.8896570702961947 -0.5102348718736488
$end


$rem
N_FROZEN_CORE FC
MEM_TOTAL 3750
MEM_STATIC 1500
AUX_BASIS_CORR rimp2-def2-QZVPPD
SCF_CONVERGENCE 7
SCF_ALGORITHM  GDM
method DSD-PBEPBE-D3
GEN_SCFMAN TRUE
UNRESTRICTED True
THRESH  14
SYMMETRY FALSE
SYM_IGNORE TRUE
max_scf_cycles 200

XC_GRID 000099000590
BASIS DEF2-QZVPPD


$end



$comment
step_size = 0.001
$end






