$molecule
0 1
F -9.980085877450529e-09 1.7595635600311577 0.0
H 3.3962137847616856e-07 0.8351292134000031 0.0
C 5.0000317542648054e-08 -1.3168688506952613 -0.6039943952792665
C 5.0000317542648054e-08 -1.3168688506952613 0.6039943952792665
H -6.300022910536828e-07 -1.3225062378175074 1.6688144450305005
H -6.300022910536828e-07 -1.3225062378175074 -1.6688144450305005
$end


$rem
N_FROZEN_CORE FC
MEM_TOTAL 3750
MEM_STATIC 1500
AUX_BASIS_CORR rimp2-def2-QZVPPD
SCF_CONVERGENCE 7
SCF_ALGORITHM  GDM
method DSD-PBEPBE-D3
GEN_SCFMAN TRUE
UNRESTRICTED True
THRESH  14
SYMMETRY FALSE
SYM_IGNORE TRUE
max_scf_cycles 200

XC_GRID 000099000590
BASIS DEF2-QZVPPD


$end



$comment
step_size = 0.001
$end






