$molecule
0 1
O -1.4766667284750719 -0.05795022746178476 0.0
H -1.850876997454891 0.8238143394161492 0.0
H -0.5156636436626906 0.07826306052992989 0.0
N 1.4609486392559154 0.014405456364400701 0.0
H 1.6516175547495366 -0.9808043453255341 0.0
H 1.9258817860447928 0.3991423347732258 0.8134237327247259
H 1.9258817860447928 0.3991423347732258 -0.8134237327247259
$end


$rem
N_FROZEN_CORE FC
MEM_TOTAL 3750
MEM_STATIC 1500
AUX_BASIS_CORR rimp2-def2-QZVPPD
SCF_CONVERGENCE 7
SCF_ALGORITHM  GDM
method DSD-PBEPBE-D3
GEN_SCFMAN TRUE
UNRESTRICTED True
THRESH  14
SYMMETRY FALSE
SYM_IGNORE TRUE
max_scf_cycles 200

XC_GRID 000099000590
BASIS DEF2-QZVPPD


$end



$comment
step_size = 0.003
$end






