$molecule
0 1
N -0.059301613178855093 1.640710015832251 0.0
H 0.3233264018248649 2.1124520372372055 -0.8098679430359379
H 0.3233264018248649 2.1124520372372055 0.8098679430359379
H 0.3190972012974341 0.6970035202706167 0.0
N 0.034496439322257835 -1.587931701299626 0.0
H -0.9352971574102825 -1.2927426953344787 0.0
H 0.15709946681498804 -2.1812426571896926 -0.8117348880581294
H 0.15709946681498804 -2.1812426571896926 0.8117348880581294
$end


$rem
N_FROZEN_CORE FC
MEM_TOTAL 3750
MEM_STATIC 1500
AUX_BASIS_CORR rimp2-def2-QZVPPD
SCF_CONVERGENCE 7
SCF_ALGORITHM  GDM
method DSD-PBEPBE-D3
GEN_SCFMAN TRUE
UNRESTRICTED True
THRESH  14
SYMMETRY FALSE
SYM_IGNORE TRUE
max_scf_cycles 200

XC_GRID 000099000590
BASIS DEF2-QZVPPD


$end



$comment
step_size = 0.001
$end






