$molecule
0 1
F -7.000261315502117e-07 -1.46384279294603 0.0
H 2.0400958158494537e-05 -0.5439295049196438 0.0
C -6.205377198357108e-07 1.7667507281618404 0.0
H 0.5161333478139288 1.4163432941408767 0.8939668126334042
H 0.5161333478139288 1.4163432941408767 -0.8939668126334042
H -1.0322606158872576 1.4163301783061562 0.0
H -5.992872531992973e-06 2.853260286613291 0.0
$end


$rem
N_FROZEN_CORE FC
MEM_TOTAL 3750
MEM_STATIC 1500
AUX_BASIS_CORR rimp2-def2-QZVPPD
SCF_CONVERGENCE 7
SCF_ALGORITHM  GDM
method DSD-PBEPBE-D3
GEN_SCFMAN TRUE
UNRESTRICTED True
THRESH  14
SYMMETRY FALSE
SYM_IGNORE TRUE
max_scf_cycles 200

XC_GRID 000099000590
BASIS DEF2-QZVPPD


$end



$comment
step_size = 0.001
$end






