$molecule
0 1
C 1.72852551 0.27837717 -0.0005224846221573745
O 0.977543 1.16866841 0.0001950557345326788
O 2.4818868 -0.60575885 0.00019617581314763322
C -1.72852551 -0.27837717 0.0005224846221573745
O -0.977543 -1.16866841 -0.0001950557345326788
O -2.4818868 0.60575885 -0.00019617581314763322
$end


$rem
N_FROZEN_CORE FC
MEM_TOTAL 3750
MEM_STATIC 1500
AUX_BASIS_CORR rimp2-def2-QZVPPD
SCF_CONVERGENCE 7
SCF_ALGORITHM  GDM
method DSD-PBEPBE-D3
GEN_SCFMAN TRUE
UNRESTRICTED True
THRESH  14
SYMMETRY FALSE
SYM_IGNORE TRUE
max_scf_cycles 200

XC_GRID 000099000590
BASIS DEF2-QZVPPD


$end



$comment
step_size = 0.003
$end






