$molecule
0 1
C 1.8243775403249616 4.0258131975858414e-07 2.7822129442821316e-07
H 1.4605362186670061 0.8867823612832644 0.5154651213658925
H 1.4599606136387497 0.0027752417662503066 -1.0255035325298514
H 1.4600869673833075 -0.8898379535650608 0.5098494448129042
H 2.9126975965243234 0.0002742769103186138 0.00018460598396973586
C -1.8243775403249616 -4.0258131975858414e-07 -2.7822129442821316e-07
H -2.9126975965243234 -0.0002742769103186138 -0.00018460598396973586
H -1.4599606136387497 -0.0027752417662503066 1.0255035325298514
H -1.4605362186670061 -0.8867823612832644 -0.5154651213658925
H -1.4600869673833075 0.8898379535650608 -0.5098494448129042
$end


$rem
N_FROZEN_CORE FC
MEM_TOTAL 3750
MEM_STATIC 1500
AUX_BASIS_CORR rimp2-def2-QZVPPD
SCF_CONVERGENCE 7
SCF_ALGORITHM  GDM
method DSD-PBEPBE-D3
GEN_SCFMAN TRUE
UNRESTRICTED True
THRESH  14
SYMMETRY FALSE
SYM_IGNORE TRUE
max_scf_cycles 200

XC_GRID 000099000590
BASIS DEF2-QZVPPD


$end



$comment
step_size = 0.001
$end






