$molecule
0 1
O -1.6538275127106326 0.06223443390846669 0.0
H -2.072190953753542 -0.7997528803330454 0.0
H -0.7140191376037356 -0.12755105008369952 0.0
C 1.8240302363572969 -0.0038760921171871847 0.0
H 1.4086751256862218 0.46473627859885414 0.8910359848177335
H 1.4086751256862218 0.46473627859885414 -0.8910359848177335
H 2.9042408738133445 0.12490071607523227 0.0
H 1.5936461207412085 -1.0686229711938964 0.0
$end


$rem
N_FROZEN_CORE FC
MEM_TOTAL 3750
MEM_STATIC 1500
AUX_BASIS_CORR rimp2-def2-QZVPPD
SCF_CONVERGENCE 7
SCF_ALGORITHM  GDM
method DSD-PBEPBE-D3
GEN_SCFMAN TRUE
UNRESTRICTED True
THRESH  14
SYMMETRY FALSE
SYM_IGNORE TRUE
max_scf_cycles 200

XC_GRID 000099000590
BASIS DEF2-QZVPPD


$end



$comment
step_size = 0.001
$end






