$molecule
0 1
H 0.8143901457380045 1.865378188962374 0.0
O -0.06704139889222692 1.4899770913789907 0.0
H 0.07302003586932511 0.5350437224590333 0.0
H -0.4120855839283485 -1.7617163830099127 0.7601577614690985
O 0.0630567688026043 -1.4192171956349984 0.0
H -0.4120855839283485 -1.7617163830099127 -0.7601577614690985
$end


$rem
N_FROZEN_CORE FC
MEM_TOTAL 3750
MEM_STATIC 1500
AUX_BASIS_CORR rimp2-def2-QZVPPD
SCF_CONVERGENCE 7
SCF_ALGORITHM  GDM
method DSD-PBEPBE-D3
GEN_SCFMAN TRUE
UNRESTRICTED True
THRESH  14
SYMMETRY FALSE
SYM_IGNORE TRUE
max_scf_cycles 200

XC_GRID 000099000590
BASIS DEF2-QZVPPD


$end



$comment
step_size = 0.003
$end






