$molecule
0 1
F 0.0 0.0 -2.087232282770204
H 0.0 0.0 -1.1665599593720486
N 0.0 0.0 0.9079534871049085
N -0.0 0.0 2.007818357827586
$end


$rem
N_FROZEN_CORE FC
MEM_TOTAL 3750
MEM_STATIC 1500
AUX_BASIS_CORR rimp2-def2-QZVPPD
SCF_CONVERGENCE 7
SCF_ALGORITHM  GDM
method DSD-PBEPBE-D3
GEN_SCFMAN TRUE
UNRESTRICTED True
THRESH  14
SYMMETRY FALSE
SYM_IGNORE TRUE
max_scf_cycles 200

XC_GRID 000099000590
BASIS DEF2-QZVPPD


$end



$comment
step_size = 0.001
$end






