$molecule
0 1
H 0.002085168837537316 -0.76042903 -2.53071975
O 0.0 0.0 -1.94639556
H -0.002085168837537316 0.76042903 -2.53071975
O -8.590902358709097e-05 -1.1628517 0.82889029
C 0.0 0.0 0.8097848
O 8.590902358709097e-05 1.1628517 0.82889029
$end


$rem
N_FROZEN_CORE FC
MEM_TOTAL 3750
MEM_STATIC 1500
AUX_BASIS_CORR rimp2-def2-QZVPPD
SCF_CONVERGENCE 7
SCF_ALGORITHM  GDM
method DSD-PBEPBE-D3
GEN_SCFMAN TRUE
UNRESTRICTED True
THRESH  14
SYMMETRY FALSE
SYM_IGNORE TRUE
max_scf_cycles 200

XC_GRID 000099000590
BASIS DEF2-QZVPPD


$end



$comment
step_size = 0.003
$end






