$molecule
0 1
C 1.8244592493430987 -7.225293245043761e-08 -4.5280763104656374e-08
H 1.4598670515477528 0.886533352044455 0.5153784840092156
H 1.4598214695859517 0.0030553447099993234 -1.025433327948262
H 1.459866858473932 -0.8895882943086997 0.5100873247987447
H 2.912756281896382 4.5816784217004826e-07 -3.1977852534540985e-05
C -1.8244592493430987 7.225293245043761e-08 4.5280763104656374e-08
H -2.912756281896382 -4.5816784217004826e-07 3.1977852534540985e-05
H -1.4598214695859517 -0.0030553447099993234 1.025433327948262
H -1.4598670515477528 -0.886533352044455 -0.5153784840092156
H -1.459866858473932 0.8895882943086997 -0.5100873247987447
$end


$rem
N_FROZEN_CORE FC
MEM_TOTAL 3750
MEM_STATIC 1500
AUX_BASIS_CORR rimp2-def2-QZVPPD
SCF_CONVERGENCE 7
SCF_ALGORITHM  GDM
method DSD-PBEPBE-D3
GEN_SCFMAN TRUE
UNRESTRICTED True
THRESH  14
SYMMETRY FALSE
SYM_IGNORE TRUE
max_scf_cycles 200

XC_GRID 000099000590
BASIS DEF2-QZVPPD


$end



$comment
step_size = 0.001
$end






