$molecule
0 1
C -9.296205359356759e-09 2.6327374386051017 0.0
H -0.5129291987562854 2.269336792285533 0.8884161101627874
H -0.5129291987562854 2.269336792285533 -0.8884161101627874
H 5.7941898076095795e-06 3.7209943305560547 0.0
H 1.0258525958311637 2.2693286126523726 0.0
Ar 3.5483213617821195e-09 -1.056099056324727 0.0
$end


$rem
N_FROZEN_CORE FC
MEM_TOTAL 3750
MEM_STATIC 1500
AUX_BASIS_CORR rimp2-def2-QZVPPD
SCF_CONVERGENCE 7
SCF_ALGORITHM  GDM
method DSD-PBEPBE-D3
GEN_SCFMAN TRUE
UNRESTRICTED True
THRESH  14
SYMMETRY FALSE
SYM_IGNORE TRUE
max_scf_cycles 200

XC_GRID 000099000590
BASIS DEF2-QZVPPD


$end



$comment
step_size = 0.01
$end






