$molecule
0 1
O -1.6539108283489008 0.06224577696080171 0.0
H -2.072213407503672 -0.7997037737711672 0.0
H -0.7126712128111076 -0.12777990639272374 0.0
C 1.824030034296163 -0.0038760860560774564 0.0
H 1.4086744483502456 0.4647338297240458 0.8910318884254033
H 1.4086744483502456 0.4647338297240458 -0.8910318884254033
H 2.904242654083681 0.12490089142859631 0.0
H 1.593644909646104 -1.0686185936907735 0.0
$end


$rem
N_FROZEN_CORE FC
MEM_TOTAL 3750
MEM_STATIC 1500
AUX_BASIS_CORR rimp2-def2-QZVPPD
SCF_CONVERGENCE 7
SCF_ALGORITHM  GDM
method DSD-PBEPBE-D3
GEN_SCFMAN TRUE
UNRESTRICTED True
THRESH  14
SYMMETRY FALSE
SYM_IGNORE TRUE
max_scf_cycles 200

XC_GRID 000099000590
BASIS DEF2-QZVPPD


$end



$comment
step_size = 0.001
$end






