$molecule
0 1
O      -0.774467230000000      0.653105600000000      0.000000000000000
H       0.140244650000000      0.349374100000000      0.000000000000000
C      -1.613641120000000     -0.487955060000000     -0.000000000000000
H      -2.643231020000000     -0.133250400000000     -0.000000000000000
H      -1.462390200000000     -1.108509520000000     -0.888956280000000
H      -1.462390200000000     -1.108509520000000      0.888956280000000
O       2.013320330000000     -0.181009460000000     -0.000000000000000
H       2.489808710000000      0.159192170000000     -0.760366510000000
H       2.489808710000000      0.159192170000000      0.760366510000000
$end


$rem
N_FROZEN_CORE FC
MEM_TOTAL 3750
MEM_STATIC 1500
AUX_BASIS_CORR rimp2-def2-QZVPPD
SCF_CONVERGENCE 7
SCF_ALGORITHM  GDM
method DSD-PBEPBE-D3
GEN_SCFMAN TRUE
UNRESTRICTED True
THRESH  14
SYMMETRY FALSE
SYM_IGNORE TRUE
max_scf_cycles 200

XC_GRID 000099000590
BASIS DEF2-QZVPPD


$end



$comment
step_size = {step_size}
$end






