$molecule
0 1
N -0.0593083 1.64063502 -1.9278807118913758e-06
H 0.32349135753014696 2.1126585066357975 -0.8102564582543603
H 0.323504282469853 2.112675913364203 0.8102843617456397
H 0.31884714 0.69761594 -1.4715914941118508e-06
N 0.03449577 -1.58793052 -7.56553299148041e-05
H -0.93529327 -1.29274353 -2.324469666937222e-05
H 0.15700738095951064 -2.180853380633512 -0.811210959451168
H 0.15719709904048937 -2.1816482593664874 0.8122857405488321
$end


$rem
N_FROZEN_CORE FC
MEM_TOTAL 3750
MEM_STATIC 1500
AUX_BASIS_CORR rimp2-def2-QZVPPD
SCF_CONVERGENCE 7
SCF_ALGORITHM  GDM
method DSD-PBEPBE-D3
GEN_SCFMAN TRUE
UNRESTRICTED True
THRESH  14
SYMMETRY FALSE
SYM_IGNORE TRUE
max_scf_cycles 200

XC_GRID 000099000590
BASIS DEF2-QZVPPD


$end



$comment
step_size = 0.001
$end






