$molecule
0 1
F -9.978319302063075e-09 1.7591113776048537 0.0
H 3.399231998961131e-07 0.8336497980400427 0.0
C 4.998172686398015e-08 -1.316484253652271 -0.6039940437370096
C 4.998172686398015e-08 -1.316484253652271 0.6039940437370096
H -6.300131486559183e-07 -1.3220838338876442 1.6688114936975371
H -6.300131486559183e-07 -1.3220838338876442 -1.6688114936975371
$end


$rem
N_FROZEN_CORE FC
MEM_TOTAL 3750
MEM_STATIC 1500
AUX_BASIS_CORR rimp2-def2-QZVPPD
SCF_CONVERGENCE 7
SCF_ALGORITHM  GDM
method DSD-PBEPBE-D3
GEN_SCFMAN TRUE
UNRESTRICTED True
THRESH  14
SYMMETRY FALSE
SYM_IGNORE TRUE
max_scf_cycles 200

XC_GRID 000099000590
BASIS DEF2-QZVPPD


$end



$comment
step_size = 0.003
$end






