$molecule
0 1
H -4.2635849610911925e-05 1.66770771 2.18526215
C 1.9146306133217317e-06 0.60359613 2.18269227
C 1.9146306133217317e-06 -0.60359613 2.18269227
H -4.2635849610911925e-05 -1.66770771 2.18526215
H 0.001396506965090363 0.0 -0.51318153
C -0.00034878298547023244 0.0 -1.57920508
C 0.0003955975418883619 0.0 -2.78676655
H -0.0019142409380288096 0.0 -3.85035227
$end


$rem
N_FROZEN_CORE FC
MEM_TOTAL 3750
MEM_STATIC 1500
AUX_BASIS_CORR rimp2-def2-QZVPPD
SCF_CONVERGENCE 7
SCF_ALGORITHM  GDM
method DSD-PBEPBE-D3
GEN_SCFMAN TRUE
UNRESTRICTED True
THRESH  14
SYMMETRY FALSE
SYM_IGNORE TRUE
max_scf_cycles 200

XC_GRID 000099000590
BASIS DEF2-QZVPPD


$end



$comment
step_size = 0.003
$end






