$molecule
0 1
C -2.4651878085362673e-05 2.2782099888223826 0.0
H 0.04775579254210313 3.365357414275034 0.0
H 0.4964692799796512 1.8928775212161146 0.8891633855648021
H -1.04035633196952 1.9612254818885078 0.0
H 0.4964692799796512 1.8928775212161146 -0.8891633855648021
N -1.5962665832215356e-06 -1.3040765966797236 0.5502491061077357
N -1.5962665832215356e-06 -1.3040765966797236 -0.5502491061077357
$end


$rem
N_FROZEN_CORE FC
MEM_TOTAL 3750
MEM_STATIC 1500
AUX_BASIS_CORR rimp2-def2-QZVPPD
SCF_CONVERGENCE 7
SCF_ALGORITHM  GDM
method DSD-PBEPBE-D3
GEN_SCFMAN TRUE
UNRESTRICTED True
THRESH  14
SYMMETRY FALSE
SYM_IGNORE TRUE
max_scf_cycles 200

XC_GRID 000099000590
BASIS DEF2-QZVPPD


$end



$comment
step_size = 0.001
$end






