$molecule
0 1
C 1.8242958306569013 7.225293245043761e-08 -3.471923689534363e-08
H 1.4605524484522472 0.8867789879555449 0.5155216359907845
H 1.4605070904140485 0.0030554952900006768 -1.0257176520517381
H 1.460552701526068 -0.8898351056913003 0.5102283952012552
H 2.912638898103618 -2.3816784217004824e-07 -3.200214746545901e-05
C -1.8242958306569013 -7.225293245043761e-08 3.471923689534363e-08
H -2.912638898103618 2.3816784217004824e-07 3.200214746545901e-05
H -1.4605070904140485 -0.0030554952900006768 1.0257176520517381
H -1.4605524484522472 -0.8867789879555449 -0.5155216359907845
H -1.460552701526068 0.8898351056913003 -0.5102283952012552
$end


$rem
N_FROZEN_CORE FC
MEM_TOTAL 3750
MEM_STATIC 1500
AUX_BASIS_CORR rimp2-def2-QZVPPD
SCF_CONVERGENCE 7
SCF_ALGORITHM  GDM
method DSD-PBEPBE-D3
GEN_SCFMAN TRUE
UNRESTRICTED True
THRESH  14
SYMMETRY FALSE
SYM_IGNORE TRUE
max_scf_cycles 200

XC_GRID 000099000590
BASIS DEF2-QZVPPD


$end



$comment
step_size = 0.001
$end






