$molecule
0 1
C 1.8243773937063699 0.00032499490317498397 -0.0002619999211623917
H 1.461623585721169 0.8880655730691963 0.5143233305598044
H 1.4626555814916755 0.00446969996544304 -1.0267204101285219
H 1.4563041657887827 -0.8882937477155661 0.509009694201469
H 2.9126975228133567 -0.002931465566950452 0.0023318569668329273
C -1.8243773937063699 -0.00032499490317498397 0.0002619999211623917
H -2.9126975228133567 0.002931465566950452 -0.0023318569668329273
H -1.4626555814916755 -0.00446969996544304 1.0267204101285219
H -1.461623585721169 -0.8880655730691963 -0.5143233305598044
H -1.4563041657887827 0.8882937477155661 -0.509009694201469
$end


$rem
N_FROZEN_CORE FC
MEM_TOTAL 3750
MEM_STATIC 1500
AUX_BASIS_CORR rimp2-def2-QZVPPD
SCF_CONVERGENCE 7
SCF_ALGORITHM  GDM
method DSD-PBEPBE-D3
GEN_SCFMAN TRUE
UNRESTRICTED True
THRESH  14
SYMMETRY FALSE
SYM_IGNORE TRUE
max_scf_cycles 200

XC_GRID 000099000590
BASIS DEF2-QZVPPD


$end



$comment
step_size = 0.01
$end






