$molecule
0 1
N 0.06557217869603868 -2.4982225477899824 0.0
H -0.37547821955138677 -2.0830842471647157 0.811792185412618
H -0.37547821955138677 -2.0830842471647157 -0.811792185412618
H -0.19440735543559667 -3.477183973292221 0.0
Ar 0.0008645410397569406 1.0681534292983583 0.0
$end


$rem
N_FROZEN_CORE FC
MEM_TOTAL 3750
MEM_STATIC 1500
AUX_BASIS_CORR rimp2-def2-QZVPPD
SCF_CONVERGENCE 7
SCF_ALGORITHM  GDM
method DSD-PBEPBE-D3
GEN_SCFMAN TRUE
UNRESTRICTED True
THRESH  14
SYMMETRY FALSE
SYM_IGNORE TRUE
max_scf_cycles 200

XC_GRID 000099000590
BASIS DEF2-QZVPPD


$end



$comment
step_size = 0.001
$end






