$molecule
0 1
F -7e-07 -1.46384241 1.3615161697371178e-07
H 2.04e-05 -0.54393409 -6.376260889707944e-06
C -6.3e-07 1.76666382 -8.782353302528682e-05
H 0.5163492404008879 1.416179225136523 0.8943228391187212
H 0.5156999595991122 1.4166176348634771 -0.8932340808812789
H -1.032043 1.41638536 -1.79123865645707e-05
H -6e-06 2.854127 -2.1336408827346312e-05
$end


$rem
N_FROZEN_CORE FC
MEM_TOTAL 3750
MEM_STATIC 1500
AUX_BASIS_CORR rimp2-def2-QZVPPD
SCF_CONVERGENCE 7
SCF_ALGORITHM  GDM
method DSD-PBEPBE-D3
GEN_SCFMAN TRUE
UNRESTRICTED True
THRESH  14
SYMMETRY FALSE
SYM_IGNORE TRUE
max_scf_cycles 200

XC_GRID 000099000590
BASIS DEF2-QZVPPD


$end



$comment
step_size = 0.001
$end






