$molecule
0 1
F 0.0 1.27295673 1.7752178413291386e-08
H 2.1e-07 0.32364312 -2.854496897830729e-06
N 2.0000507740619947e-08 -1.37286122 -7.591101959303441e-05
H 0.940644919995119 -1.7483342899981074 -2.1058368046573535e-05
H -0.47064618019974375 -1.7485796013853612 0.8151617262592237
H -0.4699992998024477 -1.7480874386165317 -0.8140834137450598
$end


$rem
N_FROZEN_CORE FC
MEM_TOTAL 3750
MEM_STATIC 1500
AUX_BASIS_CORR rimp2-def2-QZVPPD
SCF_CONVERGENCE 7
SCF_ALGORITHM  GDM
method DSD-PBEPBE-D3
GEN_SCFMAN TRUE
UNRESTRICTED True
THRESH  14
SYMMETRY FALSE
SYM_IGNORE TRUE
max_scf_cycles 200

XC_GRID 000099000590
BASIS DEF2-QZVPPD


$end



$comment
step_size = 0.001
$end






