$molecule
0 1
F 0.0 0.0 -1.9575809306445036
H 0.0 0.0 -1.0282502752923715
N 0.0 0.0 0.8200052114327662
C -0.0 0.0 1.973395797717874
H 0.0 0.0 3.040076398017692
$end


$rem
N_FROZEN_CORE FC
MEM_TOTAL 3750
MEM_STATIC 1500
AUX_BASIS_CORR rimp2-def2-QZVPPD
SCF_CONVERGENCE 7
SCF_ALGORITHM  GDM
method DSD-PBEPBE-D3
GEN_SCFMAN TRUE
UNRESTRICTED True
THRESH  14
SYMMETRY FALSE
SYM_IGNORE TRUE
max_scf_cycles 200

XC_GRID 000099000590
BASIS DEF2-QZVPPD


$end



$comment
step_size = 0.001
$end






