$molecule
0 1
F      -0.000000700000000     -1.463842410000000      0.000000000000000
H       0.000020400000000     -0.543934090000000      0.000000000000000
C      -0.000000630000000      1.766663820000000      0.000000000000000
H       0.516024600000000      1.416398430000000      0.893778460000000
H       0.516024600000000      1.416398430000000     -0.893778460000000
H      -1.032043000000000      1.416385360000000      0.000000000000000
H      -0.000006000000000      2.854127000000000      0.000000000000000
$end


$rem
N_FROZEN_CORE FC
MEM_TOTAL 3750
MEM_STATIC 1500
AUX_BASIS_CORR rimp2-def2-QZVPPD
SCF_CONVERGENCE 7
SCF_ALGORITHM  GDM
method DSD-PBEPBE-D3
GEN_SCFMAN TRUE
UNRESTRICTED True
THRESH  14
SYMMETRY FALSE
SYM_IGNORE TRUE
max_scf_cycles 200

XC_GRID 000099000590
BASIS DEF2-QZVPPD


$end



$comment
step_size = {step_size}
$end






