$molecule
0 1
C -8.561148513105759e-06 2.2801444774319304 0.0
H 0.049103963816347164 3.3672170777160955 0.0
H 0.4957451202180285 1.8943163742230837 0.8888445998707164
H -1.041580747928109 1.9642699268229653 0.0
H 0.4957451202180285 1.8943163742230837 -0.8888445998707164
N 3.9174615553079606e-05 -1.3051855162224792 0.550249218621133
N 3.9174615553079606e-05 -1.3051855162224792 -0.550249218621133
$end


$rem
N_FROZEN_CORE FC
MEM_TOTAL 3750
MEM_STATIC 1500
AUX_BASIS_CORR rimp2-def2-QZVPPD
SCF_CONVERGENCE 7
SCF_ALGORITHM  GDM
method DSD-PBEPBE-D3
GEN_SCFMAN TRUE
UNRESTRICTED True
THRESH  14
SYMMETRY FALSE
SYM_IGNORE TRUE
max_scf_cycles 200

XC_GRID 000099000590
BASIS DEF2-QZVPPD


$end



$comment
step_size = 0.01
$end






