$molecule
0 1
C 6.290308721202192e-05 2.278208480855533 0.0
H 0.04779612087900203 3.3658318495047896 0.0
H 0.4965391195628199 1.8928385643666055 0.8892529239363293
H -1.041578730511005 1.9608468393895817 0.0
H 0.4965391195628199 1.8928385643666055 -0.8892529239363293
N -1.6002585468683146e-06 -1.3040765939422267 0.550249113642366
N -1.6002585468683146e-06 -1.3040765939422267 -0.550249113642366
$end


$rem
N_FROZEN_CORE FC
MEM_TOTAL 3750
MEM_STATIC 1500
AUX_BASIS_CORR rimp2-def2-QZVPPD
SCF_CONVERGENCE 7
SCF_ALGORITHM  GDM
method DSD-PBEPBE-D3
GEN_SCFMAN TRUE
UNRESTRICTED True
THRESH  14
SYMMETRY FALSE
SYM_IGNORE TRUE
max_scf_cycles 200

XC_GRID 000099000590
BASIS DEF2-QZVPPD


$end



$comment
step_size = 0.001
$end






