$molecule
0 1
F -7.01184546153631e-07 -1.4638938799936734 0.0
H 2.042234693762152e-05 -0.5429634172983906 0.0
C -6.299615773395854e-07 1.7666638726069441 0.0
H 0.5160219344832552 1.4163974844207847 0.8937738430338543
H 0.5160219344832552 1.4163974844207847 -0.8937738430338543
H -1.0320376692676343 1.4163844144756705 0.0
H -6.000173223580622e-06 2.854128793010189 0.0
$end


$rem
N_FROZEN_CORE FC
MEM_TOTAL 3750
MEM_STATIC 1500
AUX_BASIS_CORR rimp2-def2-QZVPPD
SCF_CONVERGENCE 7
SCF_ALGORITHM  GDM
method DSD-PBEPBE-D3
GEN_SCFMAN TRUE
UNRESTRICTED True
THRESH  14
SYMMETRY FALSE
SYM_IGNORE TRUE
max_scf_cycles 200

XC_GRID 000099000590
BASIS DEF2-QZVPPD


$end



$comment
step_size = 0.001
$end






