$molecule
0 1
F 7.284334736689196e-05 1.2729567300136966 3.923173912395886e-12
H -0.0027971109433593167 0.3236431193631867 -1.51807209239434e-10
N 0.00014110138050780208 -1.3728612199609576 7.616109299192836e-12
H 0.9405148191824448 -1.7489801296412362 -1.2252156651214164e-11
H -0.47052572731126724 -1.7480106002880078 0.8145804885090783
H -0.47052572730678477 -1.7480106002273448 -0.814580488525813
$end


$rem
N_FROZEN_CORE FC
MEM_TOTAL 3750
MEM_STATIC 1500
AUX_BASIS_CORR rimp2-def2-QZVPPD
SCF_CONVERGENCE 7
SCF_ALGORITHM  GDM
method DSD-PBEPBE-D3
GEN_SCFMAN TRUE
UNRESTRICTED True
THRESH  14
SYMMETRY FALSE
SYM_IGNORE TRUE
max_scf_cycles 200

XC_GRID 000099000590
BASIS DEF2-QZVPPD


$end



$comment
step_size = 0.003
$end






