$molecule
0 1
H 0.8150511659992585 1.8638417055304723 0.0
O -0.06706606561217766 1.490070314934432 0.0
H 0.0711977432906811 0.5348811021993882 0.0
H -0.41305609738309973 -1.7611723567029995 0.7597469796123945
O 0.06327690857666264 -1.4192719174153479 0.0
H -0.41305609738309973 -1.7611723567029995 -0.7597469796123945
$end


$rem
N_FROZEN_CORE FC
MEM_TOTAL 3750
MEM_STATIC 1500
AUX_BASIS_CORR rimp2-def2-QZVPPD
SCF_CONVERGENCE 7
SCF_ALGORITHM  GDM
method DSD-PBEPBE-D3
GEN_SCFMAN TRUE
UNRESTRICTED True
THRESH  14
SYMMETRY FALSE
SYM_IGNORE TRUE
max_scf_cycles 200

XC_GRID 000099000590
BASIS DEF2-QZVPPD


$end



$comment
step_size = 0.001
$end






