$molecule
0 1
N -0.0593083 1.64063502 -0.00010126723380788003
H 0.32419750040277573 2.1138010348638328 -0.8093792862051988
H 0.32279813959722425 2.1115333851361675 0.8111615337948012
H 0.31884714 0.69761594 -0.0010448997101557868
N 0.03449577 -1.58793052 -4.352561256867297e-05
H -0.93529327 -1.29274353 0.0004965055907786277
H 0.15642624203436434 -2.181981573828802 -0.8113593747882022
H 0.15777823796563567 -2.1805200661711974 0.8121373252117978
$end


$rem
N_FROZEN_CORE FC
MEM_TOTAL 3750
MEM_STATIC 1500
AUX_BASIS_CORR rimp2-def2-QZVPPD
SCF_CONVERGENCE 7
SCF_ALGORITHM  GDM
method DSD-PBEPBE-D3
GEN_SCFMAN TRUE
UNRESTRICTED True
THRESH  14
SYMMETRY FALSE
SYM_IGNORE TRUE
max_scf_cycles 200

XC_GRID 000099000590
BASIS DEF2-QZVPPD


$end



$comment
step_size = 0.003
$end






