$molecule
0 1
O -1.6538803195805438 0.06233717354180551 0.0
H -2.07192758176223 -0.8006284245129605 0.0
H -0.7134411254837528 -0.1283102328252671 0.0
C 1.8240286370678662 -0.003876672780119014 0.0
H 1.4087266252972017 0.46469184191490687 0.8910780569617539
H 1.4087266252972017 0.46469184191490687 -0.8910780569617539
H 2.9042306080173694 0.12498559763281507 0.0
H 1.5935691290164804 -1.0686078911451584 0.0
$end


$rem
N_FROZEN_CORE FC
MEM_TOTAL 3750
MEM_STATIC 1500
AUX_BASIS_CORR rimp2-def2-QZVPPD
SCF_CONVERGENCE 7
SCF_ALGORITHM  GDM
method DSD-PBEPBE-D3
GEN_SCFMAN TRUE
UNRESTRICTED True
THRESH  14
SYMMETRY FALSE
SYM_IGNORE TRUE
max_scf_cycles 200

XC_GRID 000099000590
BASIS DEF2-QZVPPD


$end



$comment
step_size = 0.001
$end






