$molecule
0 1
F -6.988154538463689e-07 -1.4637909400063267 0.0
H 2.0377653062378482e-05 -0.5449047627016095 0.0
C -6.300384226604146e-07 1.7666637673930559 0.0
H 0.5160272655167449 1.4163993755792155 0.8937830769661458
H 0.5160272655167449 1.4163993755792155 -0.8937830769661458
H -1.0320483307323658 1.4163863055243295 0.0
H -5.999826776419378e-06 2.8541252069898113 0.0
$end


$rem
N_FROZEN_CORE FC
MEM_TOTAL 3750
MEM_STATIC 1500
AUX_BASIS_CORR rimp2-def2-QZVPPD
SCF_CONVERGENCE 7
SCF_ALGORITHM  GDM
method DSD-PBEPBE-D3
GEN_SCFMAN TRUE
UNRESTRICTED True
THRESH  14
SYMMETRY FALSE
SYM_IGNORE TRUE
max_scf_cycles 200

XC_GRID 000099000590
BASIS DEF2-QZVPPD


$end



$comment
step_size = 0.001
$end






