$molecule
0 1
F 0.0 0.0 -1.9580897897135714
H 0.0 0.0 -1.028752185930424
N 0.0 0.0 0.820407411075301
C -0.0 0.0 1.9736655354845194
H -0.0 0.0 3.041370732833095
$end


$rem
N_FROZEN_CORE FC
MEM_TOTAL 3750
MEM_STATIC 1500
AUX_BASIS_CORR rimp2-def2-QZVPPD
SCF_CONVERGENCE 7
SCF_ALGORITHM  GDM
method DSD-PBEPBE-D3
GEN_SCFMAN TRUE
UNRESTRICTED True
THRESH  14
SYMMETRY FALSE
SYM_IGNORE TRUE
max_scf_cycles 200

XC_GRID 000099000590
BASIS DEF2-QZVPPD


$end



$comment
step_size = 0.003
$end






