$molecule
0 1
C 1.8226123138639425 1.138534730841942e-09 1.7429897301695866e-08
H 1.4584404274066827 0.8866540108014372 0.5154490447444633
H 1.458394149597092 0.0030554186821460773 -1.0255727378229542
H 1.4584404298034703 -0.8897095209599163 0.5101568575265505
H 2.910932555462289 9.58412882406213e-08 -3.2492617333582894e-05
C -1.8226123138639425 -1.138534730841942e-09 -1.7429897301695866e-08
H -2.910932555462289 -9.58412882406213e-08 3.2492617333582894e-05
H -1.458394149597092 -0.0030554186821460773 1.0255727378229542
H -1.4584404274066827 -0.8866540108014372 -0.5154490447444633
H -1.4584404298034703 0.8897095209599163 -0.5101568575265505
$end


$rem
N_FROZEN_CORE FC
MEM_TOTAL 3750
MEM_STATIC 1500
AUX_BASIS_CORR rimp2-def2-QZVPPD
SCF_CONVERGENCE 7
SCF_ALGORITHM  GDM
method DSD-PBEPBE-D3
GEN_SCFMAN TRUE
UNRESTRICTED True
THRESH  14
SYMMETRY FALSE
SYM_IGNORE TRUE
max_scf_cycles 200

XC_GRID 000099000590
BASIS DEF2-QZVPPD


$end



$comment
step_size = 0.01
$end






