$molecule
0 1
O -1.6538564911451223 0.062287321793403856 0.0
H -2.0724159178216466 -0.8003852023753457 0.0
H -0.7133327996946627 -0.12774775792501886 0.0
C 1.8240305823454441 -0.0038767824896316734 0.0
H 1.4084015936916259 0.4650296215467167 0.8907507685294428
H 1.4084015936916259 0.4650296215467167 -0.8907507685294428
H 2.904299510719358 0.12441632188404597 0.0
H 1.5941289631451565 -1.0687273819822418 0.0
$end


$rem
N_FROZEN_CORE FC
MEM_TOTAL 3750
MEM_STATIC 1500
AUX_BASIS_CORR rimp2-def2-QZVPPD
SCF_CONVERGENCE 7
SCF_ALGORITHM  GDM
method DSD-PBEPBE-D3
GEN_SCFMAN TRUE
UNRESTRICTED True
THRESH  14
SYMMETRY FALSE
SYM_IGNORE TRUE
max_scf_cycles 200

XC_GRID 000099000590
BASIS DEF2-QZVPPD


$end



$comment
step_size = 0.001
$end






