$molecule
0 1
O -0.7745249845583263 0.6531226213545419 0.0
H 0.14115530301769444 0.3490832488751377 0.0
C -1.6136423794493422 -0.48795413487557926 -0.0
H -2.6432137942507907 -0.13325300689495667 -0.0
H -1.4623882057438549 -1.108503396664165 -0.8889526233085852
H -1.4623882057438549 -1.108503396664165 0.8889526233085852
O 2.0133143176986352 -0.18101358590260788 0.0
H 2.4898562875524948 0.15922493793535059 -0.7604466822238226
H 2.4898562875524948 0.15922493793535059 0.7604466822238226
$end


$rem
N_FROZEN_CORE FC
MEM_TOTAL 3750
MEM_STATIC 1500
AUX_BASIS_CORR rimp2-def2-QZVPPD
SCF_CONVERGENCE 7
SCF_ALGORITHM  GDM
method DSD-PBEPBE-D3
GEN_SCFMAN TRUE
UNRESTRICTED True
THRESH  14
SYMMETRY FALSE
SYM_IGNORE TRUE
max_scf_cycles 200

XC_GRID 000099000590
BASIS DEF2-QZVPPD


$end



$comment
step_size = 0.001
$end






