$molecule
0 1
N -0.05930834751856276 1.6406363718270922 0.0
H 0.32349558118513033 2.112665025835427 -0.8102653208610381
H 0.32349558118513033 2.112665025835427 0.8102653208610381
H 0.3188513253781502 0.6976010051332421 0.0
N 0.03443777920366195 -1.587881721563572 0.0
H -0.9345685235678624 -1.2929691942065398 0.0
H 0.1571432152473833 -2.181476738961947 -0.8120878111500627
H 0.1571432152473833 -2.181476738961947 0.8120878111500627
$end


$rem
N_FROZEN_CORE FC
MEM_TOTAL 3750
MEM_STATIC 1500
AUX_BASIS_CORR rimp2-def2-QZVPPD
SCF_CONVERGENCE 7
SCF_ALGORITHM  GDM
method DSD-PBEPBE-D3
GEN_SCFMAN TRUE
UNRESTRICTED True
THRESH  14
SYMMETRY FALSE
SYM_IGNORE TRUE
max_scf_cycles 200

XC_GRID 000099000590
BASIS DEF2-QZVPPD


$end



$comment
step_size = 0.001
$end






