$molecule
0 1
O -1.4769351940606887 -0.05784934200520667 0.0
H -1.8507159800977846 0.8240532475037634 0.0
H -0.5157343045635026 0.07672715642810694 0.0
N 1.4611657727604481 0.014241317587087536 0.0
H 1.6534004555393627 -0.9806510881472672 0.0
H 1.9255670646338203 0.40005394228930713 0.8132260262365149
H 1.9255670646338203 0.40005394228930713 -0.8132260262365149
$end


$rem
N_FROZEN_CORE FC
MEM_TOTAL 3750
MEM_STATIC 1500
AUX_BASIS_CORR rimp2-def2-QZVPPD
SCF_CONVERGENCE 7
SCF_ALGORITHM  GDM
method DSD-PBEPBE-D3
GEN_SCFMAN TRUE
UNRESTRICTED True
THRESH  14
SYMMETRY FALSE
SYM_IGNORE TRUE
max_scf_cycles 200

XC_GRID 000099000590
BASIS DEF2-QZVPPD


$end



$comment
step_size = 0.001
$end






