$molecule
0 1
C 9.296205359356759e-09 2.628518521394898 0.0
H -0.5129277412437145 2.265112547714467 0.8884138298372126
H -0.5129277412437145 2.265112547714467 -0.8884138298372126
H 5.445810192390421e-06 3.7167753094439453 0.0
H 1.0258501041688362 2.265104887347627 0.0
Ar -3.5483213617821195e-09 -1.054406203675273 0.0
$end


$rem
N_FROZEN_CORE FC
MEM_TOTAL 3750
MEM_STATIC 1500
AUX_BASIS_CORR rimp2-def2-QZVPPD
SCF_CONVERGENCE 7
SCF_ALGORITHM  GDM
method DSD-PBEPBE-D3
GEN_SCFMAN TRUE
UNRESTRICTED True
THRESH  14
SYMMETRY FALSE
SYM_IGNORE TRUE
max_scf_cycles 200

XC_GRID 000099000590
BASIS DEF2-QZVPPD


$end



$comment
step_size = 0.01
$end






