$molecule
0 1
F 1.40010002 -0.00968004 0.00010042315184285579
H 0.48568454 0.11860196 -0.002915129738435052
F -1.33630186 0.04606974 7.398507281143042e-05
H -1.68833696 -0.80458033 -0.00037262123899582016
$end


$rem
N_FROZEN_CORE FC
MEM_TOTAL 3750
MEM_STATIC 1500
AUX_BASIS_CORR rimp2-def2-QZVPPD
SCF_CONVERGENCE 7
SCF_ALGORITHM  GDM
method DSD-PBEPBE-D3
GEN_SCFMAN TRUE
UNRESTRICTED True
THRESH  14
SYMMETRY FALSE
SYM_IGNORE TRUE
max_scf_cycles 200

XC_GRID 000099000590
BASIS DEF2-QZVPPD


$end



$comment
step_size = 0.003
$end






