$molecule
0 1
C 1.8244394263048829 1.5155155891093084e-09 -1.6943661337479592e-08
H 1.4601570700046935 0.8868191409755374 0.5155448068027656
H 1.4601114742727632 0.0030559828068998257 -1.025764319324477
H 1.4601570917504256 -0.8898752520337678 0.5102516454834138
H 2.912118420139569 1.1020928277336749e-07 -3.196739128459247e-05
C -1.8244394263048829 -1.5155155891093084e-09 1.6943661337479592e-08
H -2.912118420139569 -1.1020928277336749e-07 3.196739128459247e-05
H -1.4601114742727632 -0.0030559828068998257 1.025764319324477
H -1.4601570700046935 -0.8868191409755374 -0.5155448068027656
H -1.4601570917504256 0.8898752520338674 -0.5102516454834138
$end


$rem
N_FROZEN_CORE FC
MEM_TOTAL 3750
MEM_STATIC 1500
AUX_BASIS_CORR rimp2-def2-QZVPPD
SCF_CONVERGENCE 7
SCF_ALGORITHM  GDM
method DSD-PBEPBE-D3
GEN_SCFMAN TRUE
UNRESTRICTED True
THRESH  14
SYMMETRY FALSE
SYM_IGNORE TRUE
max_scf_cycles 200

XC_GRID 000099000590
BASIS DEF2-QZVPPD


$end



$comment
step_size = 0.001
$end






