$molecule
0 1
O -1.65385108 0.06227712 -0.00027866263706690297
H -2.07252159 -0.80033314 -0.0022781989202070793
H -0.7133127 -0.12764805 0.003262839338690299
C 1.82403012 -0.00387606 0.0002236969691113362
H 1.413169921661667 0.46503720799864107 0.893189557769192
H 1.4041798383383328 0.4644328920013589 -0.8888778422308081
H 2.90424147 0.12490066 -0.00533333290089322
H 1.59364563 -1.06862104 0.0017960370851112894
$end


$rem
N_FROZEN_CORE FC
MEM_TOTAL 3750
MEM_STATIC 1500
AUX_BASIS_CORR rimp2-def2-QZVPPD
SCF_CONVERGENCE 7
SCF_ALGORITHM  GDM
method DSD-PBEPBE-D3
GEN_SCFMAN TRUE
UNRESTRICTED True
THRESH  14
SYMMETRY FALSE
SYM_IGNORE TRUE
max_scf_cycles 200

XC_GRID 000099000590
BASIS DEF2-QZVPPD


$end



$comment
step_size = 0.01
$end






