$molecule
0 1
C 6.291e-05 2.27820777 0.0002903733541199829
H 0.0477745 3.36534141 -0.005704456260247306
H 0.4959520550966714 1.8979162981030373 0.8914610534380498
H -1.04110038 1.96099226 0.00162003465858287
H 0.4966693649033286 1.8881144818969626 -0.8862270065619502
N 8.195933239449372e-05 -1.3041377118363209 0.5500833312687683
N -8.515933239449371e-05 -1.304015488163679 -0.5504149087312318
$end


$rem
N_FROZEN_CORE FC
MEM_TOTAL 3750
MEM_STATIC 1500
AUX_BASIS_CORR rimp2-def2-QZVPPD
SCF_CONVERGENCE 7
SCF_ALGORITHM  GDM
method DSD-PBEPBE-D3
GEN_SCFMAN TRUE
UNRESTRICTED True
THRESH  14
SYMMETRY FALSE
SYM_IGNORE TRUE
max_scf_cycles 200

XC_GRID 000099000590
BASIS DEF2-QZVPPD


$end



$comment
step_size = 0.01
$end






