$molecule
0 1
F -2.2942537499391146e-14 1.27295673 6.101037187070714e-07
H 2.100012949433859e-07 0.32364312 -3.42726521938023e-05
N 2.0002271471194496e-08 -1.37286122 -6.25148637367292e-05
H 0.9406449200050802 -1.7483342899906367 0.0007341410387133346
H -0.46994427314749376 -1.7485559551507541 0.8147011869991073
H -0.47070120688996003 -1.74811108485851 -0.8145439529734002
$end


$rem
N_FROZEN_CORE FC
MEM_TOTAL 3750
MEM_STATIC 1500
AUX_BASIS_CORR rimp2-def2-QZVPPD
SCF_CONVERGENCE 7
SCF_ALGORITHM  GDM
method DSD-PBEPBE-D3
GEN_SCFMAN TRUE
UNRESTRICTED True
THRESH  14
SYMMETRY FALSE
SYM_IGNORE TRUE
max_scf_cycles 200

XC_GRID 000099000590
BASIS DEF2-QZVPPD


$end



$comment
step_size = 0.001
$end






