$molecule
0 1
H 0.8150546084597221 1.8636860578262513 0.0
O -0.0670753399122743 1.4900742993794829 0.0
H 0.07134432419198869 0.5349836851185653 0.0
H -0.4129443028573516 -1.7610857627066054 0.7607168418074445
O 0.06326264189814847 -1.4192834707143978 0.0
H -0.4129443028573516 -1.7610857627066054 -0.7607168418074445
$end


$rem
N_FROZEN_CORE FC
MEM_TOTAL 3750
MEM_STATIC 1500
AUX_BASIS_CORR rimp2-def2-QZVPPD
SCF_CONVERGENCE 7
SCF_ALGORITHM  GDM
method DSD-PBEPBE-D3
GEN_SCFMAN TRUE
UNRESTRICTED True
THRESH  14
SYMMETRY FALSE
SYM_IGNORE TRUE
max_scf_cycles 200

XC_GRID 000099000590
BASIS DEF2-QZVPPD


$end



$comment
step_size = 0.001
$end






