$molecule
0 1
O -0.7744543341724812 0.6530864224040899 0.0
H 0.14031370476041682 0.3495350991998088 0.0
C -1.6136249347351523 -0.4879971353737601 0.0
H -2.643334917471592 -0.1335690139595904 -0.0
H -1.4625685824219035 -1.1080237119330458 -0.8893309044801554
H -1.4625685824219035 -1.1080237119330458 0.8893309044801554
O 2.013319471017406 -0.18101082896117007 -0.0
H 2.489812639457991 0.15919870583098572 -0.7603611223349502
H 2.489812639457991 0.15919870583098572 0.7603611223349502
$end


$rem
N_FROZEN_CORE FC
MEM_TOTAL 3750
MEM_STATIC 1500
AUX_BASIS_CORR rimp2-def2-QZVPPD
SCF_CONVERGENCE 7
SCF_ALGORITHM  GDM
method DSD-PBEPBE-D3
GEN_SCFMAN TRUE
UNRESTRICTED True
THRESH  14
SYMMETRY FALSE
SYM_IGNORE TRUE
max_scf_cycles 200

XC_GRID 000099000590
BASIS DEF2-QZVPPD


$end



$comment
step_size = 0.001
$end






