$molecule
0 1
C 1.8243775402509452 -9.083913665375735e-08 4.0908264041732996e-07
H 1.4601027491386103 0.886457225699313 0.515717502100973
H 1.460490891844912 0.002987488412514161 -1.0256904190941967
H 1.4599901761000176 -0.8895140023621293 0.510347590286119
H 2.9126975799266352 7.036985565005488e-05 -0.00037958043916643176
C -1.8243775397490547 -9.083913665375735e-08 4.8908264041733e-07
H -2.912697600073365 7.014985565005489e-05 -0.0003156004391664317
H -1.4598376681550882 -0.0031233515874858394 1.0254605609058034
H -1.4603167508613897 -0.886855114300687 -0.5151826178990271
H -1.4604293838999824 0.8899093976378707 -0.509968129713881
$end


$rem
N_FROZEN_CORE FC
MEM_TOTAL 3750
MEM_STATIC 1500
AUX_BASIS_CORR rimp2-def2-QZVPPD
SCF_CONVERGENCE 7
SCF_ALGORITHM  GDM
method DSD-PBEPBE-D3
GEN_SCFMAN TRUE
UNRESTRICTED True
THRESH  14
SYMMETRY FALSE
SYM_IGNORE TRUE
max_scf_cycles 200

XC_GRID 000099000590
BASIS DEF2-QZVPPD


$end



$comment
step_size = 0.001
$end






