$molecule
0 1
O -0.774466819796356 0.6531401321131652 0.0
H 0.14038745093516722 0.3498448489916173 0.0
C -1.613609362091335 -0.48805788894576285 -0.0
H -2.6429996464290118 -0.1327650045755216 0.0
H -1.4627561752059373 -1.1086340285236589 -0.8890043151396663
H -1.4627561752059373 -1.1086340285236589 0.8890043151396663
O 2.0133195628215965 -0.18101320759688347 -0.0
H 2.4898013626869644 0.1592065033262088 -0.7603639464105401
H 2.4898013626869644 0.1592065033262088 0.7603639464105401
$end


$rem
N_FROZEN_CORE FC
MEM_TOTAL 3750
MEM_STATIC 1500
AUX_BASIS_CORR rimp2-def2-QZVPPD
SCF_CONVERGENCE 7
SCF_ALGORITHM  GDM
method DSD-PBEPBE-D3
GEN_SCFMAN TRUE
UNRESTRICTED True
THRESH  14
SYMMETRY FALSE
SYM_IGNORE TRUE
max_scf_cycles 200

XC_GRID 000099000590
BASIS DEF2-QZVPPD


$end



$comment
step_size = 0.001
$end






