$molecule
0 1
F -1.0004198484362389e-08 1.7596066951903708 0.0
H 3.4019214967626167e-07 0.8341498909845921 0.0
C 5.0073698761862056e-08 -1.3166919952188738 -0.6039925923462426
C 5.0073698761862056e-08 -1.3166919952188738 0.6039925923462426
H -6.309335545702047e-07 -1.3245289325345395 1.668795675358244
H -6.309335545702047e-07 -1.3245289325345395 -1.668795675358244
$end


$rem
N_FROZEN_CORE FC
MEM_TOTAL 3750
MEM_STATIC 1500
AUX_BASIS_CORR rimp2-def2-QZVPPD
SCF_CONVERGENCE 7
SCF_ALGORITHM  GDM
method DSD-PBEPBE-D3
GEN_SCFMAN TRUE
UNRESTRICTED True
THRESH  14
SYMMETRY FALSE
SYM_IGNORE TRUE
max_scf_cycles 200

XC_GRID 000099000590
BASIS DEF2-QZVPPD


$end



$comment
step_size = 0.003
$end






