$molecule
0 1
N -0.05930825248143724 1.6406336681729077 0.0
H 0.32350005881486965 2.1126693941645733 -0.8102754991389619
H 0.32350005881486965 2.1126693941645733 0.8102754991389619
H 0.31884295462184975 0.697630874866758 0.0
N 0.034553760796338054 -1.587979318436428 0.0
H -0.9360180164321376 -1.2925178657934604 0.0
H 0.1570612647526167 -2.1810249010380525 -0.8114088888499373
H 0.1570612647526167 -2.1810249010380525 0.8114088888499373
$end


$rem
N_FROZEN_CORE FC
MEM_TOTAL 3750
MEM_STATIC 1500
AUX_BASIS_CORR rimp2-def2-QZVPPD
SCF_CONVERGENCE 7
SCF_ALGORITHM  GDM
method DSD-PBEPBE-D3
GEN_SCFMAN TRUE
UNRESTRICTED True
THRESH  14
SYMMETRY FALSE
SYM_IGNORE TRUE
max_scf_cycles 200

XC_GRID 000099000590
BASIS DEF2-QZVPPD


$end



$comment
step_size = 0.001
$end






