$molecule
0 1
O -1.47695936 -0.05789871 2.3780346928799081e-07
H -1.85023887 0.82426102 -1.8839297577150588e-06
H -0.515823 0.07736194 -8.473613753239336e-06
N 1.46117117 0.01426827 -6.397977754563842e-05
H 1.65356907 -0.98060402 0.0007357722199268241
H 1.9255827473722202 0.3994001178925791 0.8134997643235421
H 1.9253028926277798 0.40022716210742093 -0.8133399956764579
$end


$rem
N_FROZEN_CORE FC
MEM_TOTAL 3750
MEM_STATIC 1500
AUX_BASIS_CORR rimp2-def2-QZVPPD
SCF_CONVERGENCE 7
SCF_ALGORITHM  GDM
method DSD-PBEPBE-D3
GEN_SCFMAN TRUE
UNRESTRICTED True
THRESH  14
SYMMETRY FALSE
SYM_IGNORE TRUE
max_scf_cycles 200

XC_GRID 000099000590
BASIS DEF2-QZVPPD


$end



$comment
step_size = 0.001
$end






