$molecule
0 1
H 0.0 1.6677127479257439 2.1837486773005725
C 0.0 0.6035961345662055 2.1830456299217618
C 0.0 -0.6035961254337945 2.182338910078238
H 0.0 -1.667702672074256 2.186775622699427
H 0.0 -0.0006065424083871863 -0.51318153
C 0.0 0.0001455056767669201 -1.57920508
C 0.0 -0.00015333352320811688 -2.78676655
H 0.0 0.0006895606416502592 -3.85035227
$end


$rem
N_FROZEN_CORE FC
MEM_TOTAL 3750
MEM_STATIC 1500
AUX_BASIS_CORR rimp2-def2-QZVPPD
SCF_CONVERGENCE 7
SCF_ALGORITHM  GDM
method DSD-PBEPBE-D3
GEN_SCFMAN TRUE
UNRESTRICTED True
THRESH  14
SYMMETRY FALSE
SYM_IGNORE TRUE
max_scf_cycles 200

XC_GRID 000099000590
BASIS DEF2-QZVPPD


$end



$comment
step_size = 0.003
$end






