$molecule
0 1
N -0.0593083 1.64063502 -2.7010018544329345e-05
H 0.3226660726838609 2.1136597725616695 -0.8101100620409664
H 0.3243295673161391 2.1116746474383308 0.8104307579590336
H 0.31884714 0.69761594 -0.0014062789496458125
N 0.03449577 -1.58793052 0.00018299828528009693
H -0.93529327 -1.29274353 -0.00043943146418036597
H 0.15788605931301625 -2.180401253150813 -0.8120695206992979
H 0.15631842068698376 -2.1821003868491866 0.8114271793007021
$end


$rem
N_FROZEN_CORE FC
MEM_TOTAL 3750
MEM_STATIC 1500
AUX_BASIS_CORR rimp2-def2-QZVPPD
SCF_CONVERGENCE 7
SCF_ALGORITHM  GDM
method DSD-PBEPBE-D3
GEN_SCFMAN TRUE
UNRESTRICTED True
THRESH  14
SYMMETRY FALSE
SYM_IGNORE TRUE
max_scf_cycles 200

XC_GRID 000099000590
BASIS DEF2-QZVPPD


$end



$comment
step_size = 0.003
$end






