$molecule
0 1
H 0.8142802740922178 1.8633399631906336 0.0
O -0.06703119409884627 1.490121054304154 0.0
H 0.0714170054699461 0.5345877212530057 0.0
H -0.41262417447412203 -1.7608543068562097 0.7601311594140511
O 0.06322236461124833 -1.4193126368528943 0.0
H -0.41262417447412203 -1.7608543068562097 -0.7601311594140511
$end


$rem
N_FROZEN_CORE FC
MEM_TOTAL 3750
MEM_STATIC 1500
AUX_BASIS_CORR rimp2-def2-QZVPPD
SCF_CONVERGENCE 7
SCF_ALGORITHM  GDM
method DSD-PBEPBE-D3
GEN_SCFMAN TRUE
UNRESTRICTED True
THRESH  14
SYMMETRY FALSE
SYM_IGNORE TRUE
max_scf_cycles 200

XC_GRID 000099000590
BASIS DEF2-QZVPPD


$end



$comment
step_size = 0.001
$end






