$molecule
0 1
C 1.8243775870636598 5.718941512404852e-05 -5.810573049734316e-05
H 1.4601735545458403 0.8864677058268465 0.5157776859175677
H 1.4600605909704645 0.0027824484535146875 -1.0255814139010062
H 1.460349062622598 -0.8896533290534436 0.5102453980673988
H 2.9126976333336865 -0.0002780115907186616 0.0002503939292469383
C -1.8243775870636598 -5.718941512404852e-05 5.810573049734316e-05
H -2.9126976333336865 0.0002780115907186616 -0.0002503939292469383
H -1.4600605909704645 -0.0027824484535146875 1.0255814139010062
H -1.4601735545458403 -0.8864677058268465 -0.5157776859175677
H -1.460349062622598 0.8896533290534436 -0.5102453980673988
$end


$rem
N_FROZEN_CORE FC
MEM_TOTAL 3750
MEM_STATIC 1500
AUX_BASIS_CORR rimp2-def2-QZVPPD
SCF_CONVERGENCE 7
SCF_ALGORITHM  GDM
method DSD-PBEPBE-D3
GEN_SCFMAN TRUE
UNRESTRICTED True
THRESH  14
SYMMETRY FALSE
SYM_IGNORE TRUE
max_scf_cycles 200

XC_GRID 000099000590
BASIS DEF2-QZVPPD


$end



$comment
step_size = 0.001
$end






