$molecule
0 1
C 6.512436656663865e-05 2.2782953672765562 0.0
H 0.04773796480738225 3.3645166036193572 0.0
H 0.49644045248341134 1.8929346071483133 0.88907542873891
H -1.0413496957432429 1.960935644094199 0.0
H 0.49644045248341134 1.8929346071483133 -0.88907542873891
N -1.6000041153713404e-06 -1.3040766006396194 0.5502491714321206
N -1.6000041153713404e-06 -1.3040766006396194 -0.5502491714321206
$end


$rem
N_FROZEN_CORE FC
MEM_TOTAL 3750
MEM_STATIC 1500
AUX_BASIS_CORR rimp2-def2-QZVPPD
SCF_CONVERGENCE 7
SCF_ALGORITHM  GDM
method DSD-PBEPBE-D3
GEN_SCFMAN TRUE
UNRESTRICTED True
THRESH  14
SYMMETRY FALSE
SYM_IGNORE TRUE
max_scf_cycles 200

XC_GRID 000099000590
BASIS DEF2-QZVPPD


$end



$comment
step_size = 0.001
$end






