$molecule
0 1
O -0.77446723 0.6531056 -2.995746116230782e-07
H 0.14024465 0.3493741 -2.9892196201468862e-06
C -1.61364112 -0.48795506 8.923766954443313e-05
H -2.64323102 -0.1332504 2.667763670919138e-05
H -1.4622778683603237 -1.1088881050965758 -0.8894970224868759
H -1.4625025316396763 -1.108130934903424 0.8884155375131242
O 2.01332033 -0.18100946 -1.6854278663450923e-08
H 2.4898089579060536 0.1591923913694761 -0.7603663695643859
H 2.4898084620939467 0.15919194863052388 0.7603666504356141
$end


$rem
N_FROZEN_CORE FC
MEM_TOTAL 3750
MEM_STATIC 1500
AUX_BASIS_CORR rimp2-def2-QZVPPD
SCF_CONVERGENCE 7
SCF_ALGORITHM  GDM
method DSD-PBEPBE-D3
GEN_SCFMAN TRUE
UNRESTRICTED True
THRESH  14
SYMMETRY FALSE
SYM_IGNORE TRUE
max_scf_cycles 200

XC_GRID 000099000590
BASIS DEF2-QZVPPD


$end



$comment
step_size = 0.001
$end






