$molecule
0 1
C       0.000000000000000     -0.667364960000000      2.228542230000000
C       0.000000000000000      0.667364960000000      2.228542230000000
H       0.000000000000000     -1.231708150000000      3.152512440000000
H       0.000000000000000     -1.232298370000000      1.304978630000000
H       0.000000000000000      1.231708150000000      3.152512440000000
H       0.000000000000000      1.232298370000000      1.304978630000000
Ar      0.000000000000000      0.000000000000000     -1.563213950000000
$end


$rem
N_FROZEN_CORE FC
MEM_TOTAL 3750
MEM_STATIC 1500
AUX_BASIS_CORR rimp2-def2-QZVPPD
SCF_CONVERGENCE 7
SCF_ALGORITHM  GDM
method DSD-PBEPBE-D3
GEN_SCFMAN TRUE
UNRESTRICTED True
THRESH  14
SYMMETRY FALSE
SYM_IGNORE TRUE
max_scf_cycles 200

XC_GRID 000099000590
BASIS DEF2-QZVPPD


$end



$comment
step_size = {step_size}
$end






