$molecule
0 1
N 0.06558049 -2.49828684 0.0003474505918916142
H -0.37603206211627255 -2.087547334032503 0.814107379040785
H -0.3753025178837274 -2.077624745967497 -0.8087202609592149
H -0.19414505 -3.47728791 -0.005747825650461368
Ar 0.00086455 1.06815345 -0.00011265213142941904
$end


$rem
N_FROZEN_CORE FC
MEM_TOTAL 3750
MEM_STATIC 1500
AUX_BASIS_CORR rimp2-def2-QZVPPD
SCF_CONVERGENCE 7
SCF_ALGORITHM  GDM
method DSD-PBEPBE-D3
GEN_SCFMAN TRUE
UNRESTRICTED True
THRESH  14
SYMMETRY FALSE
SYM_IGNORE TRUE
max_scf_cycles 200

XC_GRID 000099000590
BASIS DEF2-QZVPPD


$end



$comment
step_size = 0.01
$end






