$molecule
0 1
O -1.4769740726106364 -0.05792850348982722 0.0
H -1.8499454648660674 0.8243880059986866 0.0
H -0.5158767196250645 0.0777334931169969 0.0
N 1.4611596156216133 0.014211329604094897 0.0
H 1.6533523884454742 -0.9806781109237428 0.0
H 1.9256283382161972 0.40023341295752624 0.8130950979678668
H 1.9256283382161972 0.40023341295752624 -0.8130950979678668
$end


$rem
N_FROZEN_CORE FC
MEM_TOTAL 3750
MEM_STATIC 1500
AUX_BASIS_CORR rimp2-def2-QZVPPD
SCF_CONVERGENCE 7
SCF_ALGORITHM  GDM
method DSD-PBEPBE-D3
GEN_SCFMAN TRUE
UNRESTRICTED True
THRESH  14
SYMMETRY FALSE
SYM_IGNORE TRUE
max_scf_cycles 200

XC_GRID 000099000590
BASIS DEF2-QZVPPD


$end



$comment
step_size = 0.001
$end






