$molecule
0 1
H       0.815107330000000      1.863713260000000      0.000000000000000
O      -0.067079070000000      1.490077790000000      0.000000000000000
H       0.071349340000000      0.534899840000000      0.000000000000000
H      -0.412632570000000     -1.760860020000000      0.760147710000000
O       0.063223450000000     -1.419311840000000      0.000000000000000
H      -0.412632570000000     -1.760860020000000     -0.760147710000000
$end


$rem
N_FROZEN_CORE FC
MEM_TOTAL 3750
MEM_STATIC 1500
AUX_BASIS_CORR rimp2-def2-QZVPPD
SCF_CONVERGENCE 7
SCF_ALGORITHM  GDM
method DSD-PBEPBE-D3
GEN_SCFMAN TRUE
UNRESTRICTED True
THRESH  14
SYMMETRY FALSE
SYM_IGNORE TRUE
max_scf_cycles 200

XC_GRID 000099000590
BASIS DEF2-QZVPPD


$end



$comment
step_size = {step_size}
$end






