$molecule
0 1
F -1.3117919223864266e-06 -1.4638424099188982 0.0
H 5.411284856652156e-05 -0.5439340909350487 0.0
C -1.699613080577215e-06 1.766663820106579 0.0
H 0.516349319565658 1.4161571946785827 0.8934955207907616
H 0.5163493195655584 1.416157194678483 -0.8934955207907616
H -1.0322083500397485 1.416867831634662 -9.9611029684668e-14
H -0.0004995334132111056 2.8541269971412633 9.9611029684668e-14
$end


$rem
N_FROZEN_CORE FC
MEM_TOTAL 3750
MEM_STATIC 1500
AUX_BASIS_CORR rimp2-def2-QZVPPD
SCF_CONVERGENCE 7
SCF_ALGORITHM  GDM
method DSD-PBEPBE-D3
GEN_SCFMAN TRUE
UNRESTRICTED True
THRESH  14
SYMMETRY FALSE
SYM_IGNORE TRUE
max_scf_cycles 200

XC_GRID 000099000590
BASIS DEF2-QZVPPD


$end



$comment
step_size = 0.001
$end






