$molecule
0 1
N 0.06530459942828945 -2.498078425396709 0.0
H -0.37908605812063334 -2.085715813099984 0.8114181894427976
H -0.37908605812063334 -2.085715813099984 -0.8114181894427976
H -0.1870354735712915 -3.479039930035935 0.0
Ar 0.0009543633147142357 1.0682824666341009 0.0
$end


$rem
N_FROZEN_CORE FC
MEM_TOTAL 3750
MEM_STATIC 1500
AUX_BASIS_CORR rimp2-def2-QZVPPD
SCF_CONVERGENCE 7
SCF_ALGORITHM  GDM
method DSD-PBEPBE-D3
GEN_SCFMAN TRUE
UNRESTRICTED True
THRESH  14
SYMMETRY FALSE
SYM_IGNORE TRUE
max_scf_cycles 200

XC_GRID 000099000590
BASIS DEF2-QZVPPD


$end



$comment
step_size = 0.01
$end






