$molecule
0 1
C -6.811578475899205e-10 2.630743290138552 0.0
H -0.5128278777002688 2.266739715350742 0.8882407453562219
H -0.5128278777002688 2.266739715350742 -0.8882407453562219
H 5.626578013567287e-06 3.718968236786755 0.0
H 1.0256501669231919 2.2667318002252075 0.0
Ar 2.8473890826123734e-13 -1.055252668731183 0.0
$end


$rem
N_FROZEN_CORE FC
MEM_TOTAL 3750
MEM_STATIC 1500
AUX_BASIS_CORR rimp2-def2-QZVPPD
SCF_CONVERGENCE 7
SCF_ALGORITHM  GDM
method DSD-PBEPBE-D3
GEN_SCFMAN TRUE
UNRESTRICTED True
THRESH  14
SYMMETRY FALSE
SYM_IGNORE TRUE
max_scf_cycles 200

XC_GRID 000099000590
BASIS DEF2-QZVPPD


$end



$comment
step_size = 0.001
$end






