$molecule
0 1
N -0.05918242241060186 1.6405256069671537 0.0
H 0.3225530863056679 2.113365560962198 -0.8102935066050512
H 0.3225530863056679 2.113365560962198 0.8102935066050512
H 0.32057835847030325 0.6981616048839469 0.0
N 0.034331896543857224 -1.587910114127249 0.0
H -0.9357767559966877 -1.2938052109440494 0.0
H 0.1576870713677566 -2.1810728146123184 -0.8117476802911407
H 0.1576870713677566 -2.1810728146123184 0.8117476802911407
$end


$rem
N_FROZEN_CORE FC
MEM_TOTAL 3750
MEM_STATIC 1500
AUX_BASIS_CORR rimp2-def2-QZVPPD
SCF_CONVERGENCE 7
SCF_ALGORITHM  GDM
method DSD-PBEPBE-D3
GEN_SCFMAN TRUE
UNRESTRICTED True
THRESH  14
SYMMETRY FALSE
SYM_IGNORE TRUE
max_scf_cycles 200

XC_GRID 000099000590
BASIS DEF2-QZVPPD


$end



$comment
step_size = 0.003
$end






