$molecule
0 1
F 0.0 0.0 -1.9575827693554964
H 0.0 0.0 -1.0282217847076285
N -0.0 0.0 0.8200650485672337
C 0.0 0.0 1.9731732622821259
H -0.0 0.0 3.0419008619823082
$end


$rem
N_FROZEN_CORE FC
MEM_TOTAL 3750
MEM_STATIC 1500
AUX_BASIS_CORR rimp2-def2-QZVPPD
SCF_CONVERGENCE 7
SCF_ALGORITHM  GDM
method DSD-PBEPBE-D3
GEN_SCFMAN TRUE
UNRESTRICTED True
THRESH  14
SYMMETRY FALSE
SYM_IGNORE TRUE
max_scf_cycles 200

XC_GRID 000099000590
BASIS DEF2-QZVPPD


$end



$comment
step_size = 0.001
$end






