$molecule
0 1
C -0.0 2.63062798 -8.759352542489825e-05
H -0.5132522303705114 2.2669953302945864 0.888955931853971
H -0.5126047096294886 2.2674540097054137 -0.887874008146029
H 5.62e-06 3.71888482 -1.929800049179773e-05
H 1.02585135 2.26721675 -1.980554349118751e-05
Ar 0.0 -1.05525263 3.5544748859662096e-09
$end


$rem
N_FROZEN_CORE FC
MEM_TOTAL 3750
MEM_STATIC 1500
AUX_BASIS_CORR rimp2-def2-QZVPPD
SCF_CONVERGENCE 7
SCF_ALGORITHM  GDM
method DSD-PBEPBE-D3
GEN_SCFMAN TRUE
UNRESTRICTED True
THRESH  14
SYMMETRY FALSE
SYM_IGNORE TRUE
max_scf_cycles 200

XC_GRID 000099000590
BASIS DEF2-QZVPPD


$end



$comment
step_size = 0.001
$end






