$molecule
0 1
O -0.77446723 0.6531056 -5.4740936069006766e-05
H 0.14024465 0.3493741 2.3403740918751334e-07
C -1.61364112 -0.48795506 0.00012152570220814937
H -2.64323102 -0.1332504 -0.00024463367929687766
H -1.462094526871541 -1.1080205631773967 -0.889123585019962
H -1.4626858731284589 -1.108998476822603 0.8887889749800381
O 2.01332033 -0.18100946 6.855204502915979e-08
H 2.489808005913681 0.1591926904441219 -0.7603666528110383
H 2.489809414086319 0.15919164955587808 0.7603663671889617
$end


$rem
N_FROZEN_CORE FC
MEM_TOTAL 3750
MEM_STATIC 1500
AUX_BASIS_CORR rimp2-def2-QZVPPD
SCF_CONVERGENCE 7
SCF_ALGORITHM  GDM
method DSD-PBEPBE-D3
GEN_SCFMAN TRUE
UNRESTRICTED True
THRESH  14
SYMMETRY FALSE
SYM_IGNORE TRUE
max_scf_cycles 200

XC_GRID 000099000590
BASIS DEF2-QZVPPD


$end



$comment
step_size = 0.001
$end






