$molecule
0 1
C      -2.100046260000000     -0.575566060000000      0.000000000000000
C      -2.732757390000000      0.452168780000000      0.000000000000000
H      -1.542163740000000     -1.481178400000000      0.000000000000000
H      -3.290123920000000      1.358072650000000      0.000000000000000
Ar      1.573072940000000      0.040158670000000      0.000000000000000
$end


$rem
N_FROZEN_CORE FC
MEM_TOTAL 3750
MEM_STATIC 1500
AUX_BASIS_CORR rimp2-def2-QZVPPD
SCF_CONVERGENCE 7
SCF_ALGORITHM  GDM
method DSD-PBEPBE-D3
GEN_SCFMAN TRUE
UNRESTRICTED True
THRESH  14
SYMMETRY FALSE
SYM_IGNORE TRUE
max_scf_cycles 200

XC_GRID 000099000590
BASIS DEF2-QZVPPD


$end



$comment
step_size = {step_size}
$end






