$molecule
0 1
C 1.82437749293634 -5.718941512404852e-05 5.802573049734316e-05
H 1.4602459454541596 0.8868446341731534 0.5151224340824324
H 1.4602679690295357 0.0033283915464853127 -1.0255695660989939
H 1.4600704973774021 -0.8897700709465564 0.5100703219326012
H 2.9126975466663136 0.0002782315907186616 -0.00031437392924693836
C -1.82437749293634 5.718941512404852e-05 -5.802573049734316e-05
H -2.9126975466663136 -0.0002782315907186616 0.00031437392924693836
H -1.4602679690295357 -0.0033283915464853127 1.0255695660989939
H -1.4602459454541596 -0.8868446341731534 -0.5151224340824324
H -1.4600704973774021 0.8897700709465564 -0.5100703219326012
$end


$rem
N_FROZEN_CORE FC
MEM_TOTAL 3750
MEM_STATIC 1500
AUX_BASIS_CORR rimp2-def2-QZVPPD
SCF_CONVERGENCE 7
SCF_ALGORITHM  GDM
method DSD-PBEPBE-D3
GEN_SCFMAN TRUE
UNRESTRICTED True
THRESH  14
SYMMETRY FALSE
SYM_IGNORE TRUE
max_scf_cycles 200

XC_GRID 000099000590
BASIS DEF2-QZVPPD


$end



$comment
step_size = 0.001
$end






