$molecule
0 1
O -0.7742938302936765 0.6529372290313976 0.0
H 0.14039215889568973 0.34914253953222374 0.0
C -1.6137181793769055 -0.48791854327614087 -0.0
H -2.6432244463835626 -0.1329647304840145 -0.0
H -1.4626347484480158 -1.1085179251064667 -0.8889568806374756
H -1.4626347484480158 -1.1085179251064667 0.8889568806374756
O 2.0131080165400586 -0.18070038555886173 0.0
H 2.4907437783253545 0.15783958830985384 -0.7603823905372169
H 2.4907437783253545 0.15783958830985384 0.7603823905372169
$end


$rem
N_FROZEN_CORE FC
MEM_TOTAL 3750
MEM_STATIC 1500
AUX_BASIS_CORR rimp2-def2-QZVPPD
SCF_CONVERGENCE 7
SCF_ALGORITHM  GDM
method DSD-PBEPBE-D3
GEN_SCFMAN TRUE
UNRESTRICTED True
THRESH  14
SYMMETRY FALSE
SYM_IGNORE TRUE
max_scf_cycles 200

XC_GRID 000099000590
BASIS DEF2-QZVPPD


$end



$comment
step_size = 0.003
$end






