$molecule
0 1
H 0.8146881975921964 1.8642981431238546 0.0
O -0.06710368558344859 1.4897344704019526 0.0
H 0.0722623173910674 0.5346902037179457 0.0
H -0.41344597399831456 -1.7594721536454583 0.7601415420213905
O 0.06331945257751337 -1.4191670607509477 0.0
H -0.41344597399831456 -1.7594721536454583 -0.7601415420213905
$end


$rem
N_FROZEN_CORE FC
MEM_TOTAL 3750
MEM_STATIC 1500
AUX_BASIS_CORR rimp2-def2-QZVPPD
SCF_CONVERGENCE 7
SCF_ALGORITHM  GDM
method DSD-PBEPBE-D3
GEN_SCFMAN TRUE
UNRESTRICTED True
THRESH  14
SYMMETRY FALSE
SYM_IGNORE TRUE
max_scf_cycles 200

XC_GRID 000099000590
BASIS DEF2-QZVPPD


$end



$comment
step_size = 0.003
$end






