$molecule
0 1
C 1.824315653695117 -1.5155155891093084e-09 -6.305633866252041e-08
H 1.4602624299953064 0.8864931990244626 0.5153553131972345
H 1.460217085727237 0.0030548571931001745 -1.025386660675523
H 1.4602624682495744 -0.8895481479662322 0.5100640745165861
H 2.913276759860431 1.0979071722663252e-07 -3.2012608715407525e-05
C -1.824315653695117 1.5155155891093084e-09 6.305633866252041e-08
H -2.913276759860431 -1.0979071722663252e-07 3.2012608715407525e-05
H -1.460217085727237 -0.0030548571931001745 1.025386660675523
H -1.4602624299953064 -0.8864931990244626 -0.5153553131972345
H -1.4602624682495744 0.8895481479661326 -0.5100640745165861
$end


$rem
N_FROZEN_CORE FC
MEM_TOTAL 3750
MEM_STATIC 1500
AUX_BASIS_CORR rimp2-def2-QZVPPD
SCF_CONVERGENCE 7
SCF_ALGORITHM  GDM
method DSD-PBEPBE-D3
GEN_SCFMAN TRUE
UNRESTRICTED True
THRESH  14
SYMMETRY FALSE
SYM_IGNORE TRUE
max_scf_cycles 200

XC_GRID 000099000590
BASIS DEF2-QZVPPD


$end



$comment
step_size = 0.001
$end






