$molecule
0 1
F -0.007329955449596562 1.2994843038828097 0.0
H 0.04077150735247578 0.3668376880241659 0.0
O 0.05304884978572016 -1.3469198664286381 0.0
H -0.37225950087056675 -1.7433417152865651 0.7635749167168309
H -0.37225950087056675 -1.7433417152865651 -0.7635749167168309
$end


$rem
N_FROZEN_CORE FC
MEM_TOTAL 3750
MEM_STATIC 1500
AUX_BASIS_CORR rimp2-def2-QZVPPD
SCF_CONVERGENCE 7
SCF_ALGORITHM  GDM
method DSD-PBEPBE-D3
GEN_SCFMAN TRUE
UNRESTRICTED True
THRESH  14
SYMMETRY FALSE
SYM_IGNORE TRUE
max_scf_cycles 200

XC_GRID 000099000590
BASIS DEF2-QZVPPD


$end



$comment
step_size = 0.001
$end






