$molecule
0 1
H -0.0019523997231929708 1.66770771 2.18526215
C 0.0001641090144168283 0.60359613 2.18269227
C 0.0001641090144168283 -0.60359613 2.18269227
H -0.0019523997231929708 -1.66770771 2.18526215
H 0.0005779490636111458 0.0 -0.51318153
C -5.277382063537711e-05 0.0 -1.57920508
C -4.035655215455933e-05 0.0 -2.78676655
H 0.0005277022140333004 0.0 -3.85035227
$end


$rem
N_FROZEN_CORE FC
MEM_TOTAL 3750
MEM_STATIC 1500
AUX_BASIS_CORR rimp2-def2-QZVPPD
SCF_CONVERGENCE 7
SCF_ALGORITHM  GDM
method DSD-PBEPBE-D3
GEN_SCFMAN TRUE
UNRESTRICTED True
THRESH  14
SYMMETRY FALSE
SYM_IGNORE TRUE
max_scf_cycles 200

XC_GRID 000099000590
BASIS DEF2-QZVPPD


$end



$comment
step_size = 0.003
$end






