$molecule
0 1
O -1.65385108 0.06227712 -6.763387652893496e-05
H -2.07252159 -0.80033314 -0.0003348061916725054
H -0.7133127 -0.12764805 0.002733919449546824
C 1.82403012 -0.00387606 -8.921038033340454e-05
H 1.4081691175931885 0.464714495678008 0.8907314170828522
H 1.4091806424068114 0.464755604321992 -0.8913359829171479
H 2.90424147 0.12490066 0.0006304252582372929
H 1.59364563 -1.06862104 -0.00028936160597274477
$end


$rem
N_FROZEN_CORE FC
MEM_TOTAL 3750
MEM_STATIC 1500
AUX_BASIS_CORR rimp2-def2-QZVPPD
SCF_CONVERGENCE 7
SCF_ALGORITHM  GDM
method DSD-PBEPBE-D3
GEN_SCFMAN TRUE
UNRESTRICTED True
THRESH  14
SYMMETRY FALSE
SYM_IGNORE TRUE
max_scf_cycles 200

XC_GRID 000099000590
BASIS DEF2-QZVPPD


$end



$comment
step_size = 0.003
$end






