$molecule
0 1
O -1.6530595678713695 0.062037960376427365 0.0
H -2.070771043191271 -0.801037012435142 0.0
H -0.7123143669856253 -0.12684562557872264 0.0
C 1.8230667585540143 -0.0036309830567342236 0.0
H 1.409856679399949 0.4668963641934443 0.8910195823369499
H 1.409856679399949 0.4668963641934443 -0.8910195823369499
H 2.9038817812616857 0.12007029475372386 0.0
H 1.5878015464681718 -1.0673343048418562 0.0
$end


$rem
N_FROZEN_CORE FC
MEM_TOTAL 3750
MEM_STATIC 1500
AUX_BASIS_CORR rimp2-def2-QZVPPD
SCF_CONVERGENCE 7
SCF_ALGORITHM  GDM
method DSD-PBEPBE-D3
GEN_SCFMAN TRUE
UNRESTRICTED True
THRESH  14
SYMMETRY FALSE
SYM_IGNORE TRUE
max_scf_cycles 200

XC_GRID 000099000590
BASIS DEF2-QZVPPD


$end



$comment
step_size = 0.01
$end






