$molecule
0 1
C 4.618802153517007e-13 2.63062798 -0.00011525447422076364
H -0.512682196272813 2.2673982366083356 0.8885449446422561
H -0.5131747437304741 2.2670511033923617 -0.8882849953558513
H 5.619997808557348e-06 3.71888482 0.0005558809917489486
H 1.02585135 2.267216749999203 0.0005565316889466512
Ar 0.0 -1.05525263 -1.1770315526107715e-09
$end


$rem
N_FROZEN_CORE FC
MEM_TOTAL 3750
MEM_STATIC 1500
AUX_BASIS_CORR rimp2-def2-QZVPPD
SCF_CONVERGENCE 7
SCF_ALGORITHM  GDM
method DSD-PBEPBE-D3
GEN_SCFMAN TRUE
UNRESTRICTED True
THRESH  14
SYMMETRY FALSE
SYM_IGNORE TRUE
max_scf_cycles 200

XC_GRID 000099000590
BASIS DEF2-QZVPPD


$end



$comment
step_size = 0.001
$end






