$molecule
0 1
N -0.059311983342890784 1.6406351700174977 0.0
H 0.32351452758109983 2.112693033928647 -0.8103155344784839
H 0.32351452758109983 2.112693033928647 0.8103155344784839
H 0.31886444236104833 0.6975612780064826 0.0
N 0.034470048747991366 -1.587957940925519 0.0
H -0.9347393345884704 -1.2929557413496933 0.0
H 0.15700419240288 -2.180953751483381 -0.8112925257822523
H 0.15700419240288 -2.180953751483381 0.8112925257822523
$end


$rem
N_FROZEN_CORE FC
MEM_TOTAL 3750
MEM_STATIC 1500
AUX_BASIS_CORR rimp2-def2-QZVPPD
SCF_CONVERGENCE 7
SCF_ALGORITHM  GDM
method DSD-PBEPBE-D3
GEN_SCFMAN TRUE
UNRESTRICTED True
THRESH  14
SYMMETRY FALSE
SYM_IGNORE TRUE
max_scf_cycles 200

XC_GRID 000099000590
BASIS DEF2-QZVPPD


$end



$comment
step_size = 0.001
$end






