$molecule
0 1
O -1.653851043840703 0.06227606184852717 0.0
H -2.072534476910506 -0.8003268192879979 0.0
H -0.7133095747707827 -0.12764290599149777 0.0
C 1.8239390253648944 -0.003945829243097215 0.0
H 1.4091069686175037 0.46508820813471646 0.8910528444390328
H 1.4091069686175037 0.46508820813471646 -0.8910528444390328
H 2.90413690401528 0.12516625302969667 0.0
H 1.5939798547698618 -1.0687568899656528 0.0
$end


$rem
N_FROZEN_CORE FC
MEM_TOTAL 3750
MEM_STATIC 1500
AUX_BASIS_CORR rimp2-def2-QZVPPD
SCF_CONVERGENCE 7
SCF_ALGORITHM  GDM
method DSD-PBEPBE-D3
GEN_SCFMAN TRUE
UNRESTRICTED True
THRESH  14
SYMMETRY FALSE
SYM_IGNORE TRUE
max_scf_cycles 200

XC_GRID 000099000590
BASIS DEF2-QZVPPD


$end



$comment
step_size = 0.001
$end






