$molecule
0 1
C 0.00015377830170467806 2.2781368806733626 0.0
H 0.04731997950963762 3.3653128732295077 0.0
H 0.49604033007849896 1.8932269681177953 0.8891454861453025
H -1.0411872278683516 1.961441310214001 0.0
H 0.49604033007849896 1.8932269681177953 -0.8891454861453025
N -1.5937058067664322e-06 -1.3040765856996723 0.5502489966907277
N -1.5937058067664322e-06 -1.3040765856996723 -0.5502489966907277
$end


$rem
N_FROZEN_CORE FC
MEM_TOTAL 3750
MEM_STATIC 1500
AUX_BASIS_CORR rimp2-def2-QZVPPD
SCF_CONVERGENCE 7
SCF_ALGORITHM  GDM
method DSD-PBEPBE-D3
GEN_SCFMAN TRUE
UNRESTRICTED True
THRESH  14
SYMMETRY FALSE
SYM_IGNORE TRUE
max_scf_cycles 200

XC_GRID 000099000590
BASIS DEF2-QZVPPD


$end



$comment
step_size = 0.001
$end






