$molecule
0 1
O -1.6538456688548775 0.06226691820659614 0.0
H -2.0726272621783535 -0.8002810776246543 0.0
H -0.7132926003053374 -0.12754834207498117 0.0
C 1.8240296576545558 -0.003875337510368327 0.0
H 1.408948166308374 0.4644404784532833 0.8913166314705573
H 1.408948166308374 0.4644404784532833 -0.8913166314705573
H 2.9041834292806423 0.12538499811595402 0.0
H 1.5931622968548433 -1.0685146980177582 0.0
$end


$rem
N_FROZEN_CORE FC
MEM_TOTAL 3750
MEM_STATIC 1500
AUX_BASIS_CORR rimp2-def2-QZVPPD
SCF_CONVERGENCE 7
SCF_ALGORITHM  GDM
method DSD-PBEPBE-D3
GEN_SCFMAN TRUE
UNRESTRICTED True
THRESH  14
SYMMETRY FALSE
SYM_IGNORE TRUE
max_scf_cycles 200

XC_GRID 000099000590
BASIS DEF2-QZVPPD


$end



$comment
step_size = 0.001
$end






