$molecule
0 1
C -0.00029804591830916686 2.630627915658065 1.1547005383792516e-12
H -0.5152413848542332 2.2700708313920805 0.8884174570712553
H -0.5152413848542332 2.2700708313532325 -0.8884174570533253
H 0.005743330663393692 3.718884724511871 -2.2910536827473636e-11
H 1.0235340833430864 2.2615242652622496 8.964992671620119e-12
Ar 0.00011989691700485546 -1.0552526044516433 -4.745648471020622e-13
$end


$rem
N_FROZEN_CORE FC
MEM_TOTAL 3750
MEM_STATIC 1500
AUX_BASIS_CORR rimp2-def2-QZVPPD
SCF_CONVERGENCE 7
SCF_ALGORITHM  GDM
method DSD-PBEPBE-D3
GEN_SCFMAN TRUE
UNRESTRICTED True
THRESH  14
SYMMETRY FALSE
SYM_IGNORE TRUE
max_scf_cycles 200

XC_GRID 000099000590
BASIS DEF2-QZVPPD


$end



$comment
step_size = 0.01
$end






