$molecule
0 1
F 6.735741097201518e-06 1.7596153300076398 0.0
H -0.00019214847289744395 0.8341588099285789 0.0
C 0.00017267040119923585 -1.3168690700806271 -0.603994090036633
C 0.00017267040119923585 -1.3168690700806271 0.603994090036633
H -0.002023328348651112 -1.322506379076008 1.6688107887511765
H -0.002023328348651112 -1.322506379076008 -1.6688107887511765
$end


$rem
N_FROZEN_CORE FC
MEM_TOTAL 3750
MEM_STATIC 1500
AUX_BASIS_CORR rimp2-def2-QZVPPD
SCF_CONVERGENCE 7
SCF_ALGORITHM  GDM
method DSD-PBEPBE-D3
GEN_SCFMAN TRUE
UNRESTRICTED True
THRESH  14
SYMMETRY FALSE
SYM_IGNORE TRUE
max_scf_cycles 200

XC_GRID 000099000590
BASIS DEF2-QZVPPD


$end



$comment
step_size = 0.003
$end






