$molecule
0 1
F -1e-08 1.75961533 2.129722826644407e-05
H 3.4e-07 0.83415881 -0.000768083495883053
C 4.9807049540036824e-08 -1.317220461082375 -0.6039788854288437
C 5.019295045996317e-08 -1.3165176789176252 0.6040092945711564
H -6.30896200434073e-07 -1.3241473698963422 1.6688130573628928
H -6.29103799565927e-07 -1.320865390103658 -1.6688085226371072
$end


$rem
N_FROZEN_CORE FC
MEM_TOTAL 3750
MEM_STATIC 1500
AUX_BASIS_CORR rimp2-def2-QZVPPD
SCF_CONVERGENCE 7
SCF_ALGORITHM  GDM
method DSD-PBEPBE-D3
GEN_SCFMAN TRUE
UNRESTRICTED True
THRESH  14
SYMMETRY FALSE
SYM_IGNORE TRUE
max_scf_cycles 200

XC_GRID 000099000590
BASIS DEF2-QZVPPD


$end



$comment
step_size = 0.003
$end






