$molecule
0 1
N 0.06561770101641966 -2.4982819067765303 0.0
H -0.3758742729592931 -2.0823396669107113 0.8118829019201513
H -0.3758742729592931 -2.0823396669107113 -0.8118829019201513
H -0.19424800268358702 -3.477849069863923 0.0
Ar 0.000864547369803429 1.0681534467152045 0.0
$end


$rem
N_FROZEN_CORE FC
MEM_TOTAL 3750
MEM_STATIC 1500
AUX_BASIS_CORR rimp2-def2-QZVPPD
SCF_CONVERGENCE 7
SCF_ALGORITHM  GDM
method DSD-PBEPBE-D3
GEN_SCFMAN TRUE
UNRESTRICTED True
THRESH  14
SYMMETRY FALSE
SYM_IGNORE TRUE
max_scf_cycles 200

XC_GRID 000099000590
BASIS DEF2-QZVPPD


$end



$comment
step_size = 0.001
$end






