$molecule
0 1
O -1.4765523026117067 -0.057867413659023495 0.0
H -1.8494321578191608 0.8244606318758779 0.0
H -0.5153415773507632 0.07695636532909761 0.0
N 1.4607018650282337 0.014184704498931099 0.0
H 1.6540671002380956 -0.980498381624749 0.0
H 1.9245799333283817 0.40019599849227316 0.8134232677222105
H 1.9245799333283817 0.40019599849227316 -0.8134232677222105
$end


$rem
N_FROZEN_CORE FC
MEM_TOTAL 3750
MEM_STATIC 1500
AUX_BASIS_CORR rimp2-def2-QZVPPD
SCF_CONVERGENCE 7
SCF_ALGORITHM  GDM
method DSD-PBEPBE-D3
GEN_SCFMAN TRUE
UNRESTRICTED True
THRESH  14
SYMMETRY FALSE
SYM_IGNORE TRUE
max_scf_cycles 200

XC_GRID 000099000590
BASIS DEF2-QZVPPD


$end



$comment
step_size = 0.003
$end






