$molecule
0 1
F -6.999707941497633e-07 -1.4638411230959907 0.0
H 2.040013049044889e-05 -0.5439376384073524 0.0
C -6.136534529609206e-07 1.7667782027613106 0.0
H 0.5159281973933698 1.4159092546023089 0.893611628073559
H 0.5159281973933698 1.4159092546023089 -0.893611628073559
H -1.0318503085663424 1.4158962325145168 0.0
H -6.0815339188505834e-06 2.854211831454829 0.0
$end


$rem
N_FROZEN_CORE FC
MEM_TOTAL 3750
MEM_STATIC 1500
AUX_BASIS_CORR rimp2-def2-QZVPPD
SCF_CONVERGENCE 7
SCF_ALGORITHM  GDM
method DSD-PBEPBE-D3
GEN_SCFMAN TRUE
UNRESTRICTED True
THRESH  14
SYMMETRY FALSE
SYM_IGNORE TRUE
max_scf_cycles 200

XC_GRID 000099000590
BASIS DEF2-QZVPPD


$end



$comment
step_size = 0.001
$end






