$molecule
0 1
N 0.06554327898358035 -2.4982917732234697 0.0
H -0.3754603070407069 -2.0828324130892883 0.8109447380798486
H -0.3754603070407069 -2.0828324130892883 -0.8109447380798486
H -0.194042097316413 -3.4767267501360766 0.0
Ar 0.0008645526301965709 1.0681534532847956 0.0
$end


$rem
N_FROZEN_CORE FC
MEM_TOTAL 3750
MEM_STATIC 1500
AUX_BASIS_CORR rimp2-def2-QZVPPD
SCF_CONVERGENCE 7
SCF_ALGORITHM  GDM
method DSD-PBEPBE-D3
GEN_SCFMAN TRUE
UNRESTRICTED True
THRESH  14
SYMMETRY FALSE
SYM_IGNORE TRUE
max_scf_cycles 200

XC_GRID 000099000590
BASIS DEF2-QZVPPD


$end



$comment
step_size = 0.001
$end






