$molecule
0 1
F -0.007366435592417124 1.2991030578101759 0.0
H 0.04115273505964269 0.3664682204097068 0.0
O 0.05321013845180172 -1.3465490052116051 0.0
H -0.37338615714765644 -1.742506485032323 0.76315906755401
H -0.37338615714765644 -1.742506485032323 -0.76315906755401
$end


$rem
N_FROZEN_CORE FC
MEM_TOTAL 3750
MEM_STATIC 1500
AUX_BASIS_CORR rimp2-def2-QZVPPD
SCF_CONVERGENCE 7
SCF_ALGORITHM  GDM
method DSD-PBEPBE-D3
GEN_SCFMAN TRUE
UNRESTRICTED True
THRESH  14
SYMMETRY FALSE
SYM_IGNORE TRUE
max_scf_cycles 200

XC_GRID 000099000590
BASIS DEF2-QZVPPD


$end



$comment
step_size = 0.003
$end






