$molecule
0 1
N -0.05930690302076367 1.6406791957845872 0.0
H 0.32340681854276454 2.1123089219206634 -0.8105351700582601
H 0.32340681854276454 2.1123089219206634 0.8105351700582601
H 0.3190142047030734 0.6977147191644287 0.0
N 0.03445948186324632 -1.5879001655912646 0.0
H -0.9352618395132569 -1.2925514821405546 0.0
H 0.15733638884394682 -2.1815557197380446 -0.8114750562700065
H 0.15733638884394682 -2.1815557197380446 0.8114750562700065
$end


$rem
N_FROZEN_CORE FC
MEM_TOTAL 3750
MEM_STATIC 1500
AUX_BASIS_CORR rimp2-def2-QZVPPD
SCF_CONVERGENCE 7
SCF_ALGORITHM  GDM
method DSD-PBEPBE-D3
GEN_SCFMAN TRUE
UNRESTRICTED True
THRESH  14
SYMMETRY FALSE
SYM_IGNORE TRUE
max_scf_cycles 200

XC_GRID 000099000590
BASIS DEF2-QZVPPD


$end



$comment
step_size = 0.001
$end






