$molecule
0 1
N -0.0593083 1.64063502 0.000464676853135763
H 0.3204009706592905 2.1127879787281567 -0.8111990155037747
H 0.32659466934070946 2.1125464412718435 0.8093418044962253
H 0.31884714 0.69761594 -0.0011356594763685896
N 0.03449577 -1.58793052 -0.0004175166138922906
H -0.93529327 -1.29274353 -0.0035761907064336446
H 0.15851372460601976 -2.1855703433586884 -0.8087914400012701
H 0.15569075539398025 -2.1769312966413112 0.8147052599987299
$end


$rem
N_FROZEN_CORE FC
MEM_TOTAL 3750
MEM_STATIC 1500
AUX_BASIS_CORR rimp2-def2-QZVPPD
SCF_CONVERGENCE 7
SCF_ALGORITHM  GDM
method DSD-PBEPBE-D3
GEN_SCFMAN TRUE
UNRESTRICTED True
THRESH  14
SYMMETRY FALSE
SYM_IGNORE TRUE
max_scf_cycles 200

XC_GRID 000099000590
BASIS DEF2-QZVPPD


$end



$comment
step_size = 0.01
$end






