$molecule
0 1
H 0.0 1.6675760716410777 2.184536508673727
C 0.0 0.603463072410527 2.182419376903542
C 0.0 -0.603729187589473 2.182965163096458
H 0.0 -1.6678393483589222 2.1859877913262724
H 0.0 0.0010263440591693266 -0.51318153
C 0.0 0.0005143143034587774 -1.57920508
C 0.0 -0.00023878854381328702 -2.78676655
H 0.0 -0.0008748923106939898 -3.85035227
$end


$rem
N_FROZEN_CORE FC
MEM_TOTAL 3750
MEM_STATIC 1500
AUX_BASIS_CORR rimp2-def2-QZVPPD
SCF_CONVERGENCE 7
SCF_ALGORITHM  GDM
method DSD-PBEPBE-D3
GEN_SCFMAN TRUE
UNRESTRICTED True
THRESH  14
SYMMETRY FALSE
SYM_IGNORE TRUE
max_scf_cycles 200

XC_GRID 000099000590
BASIS DEF2-QZVPPD


$end



$comment
step_size = 0.003
$end






