$molecule
0 1
C -0.000232250493774273 -0.66736496 2.22854223
C -0.000232250493774273 0.66736496 2.22854223
H 0.001382839628762979 -1.23170815 3.15251244
H 0.001382229177309989 -1.23229837 1.30497863
H 0.001382839628762979 1.23170815 3.15251244
H 0.001382229177309989 1.23229837 1.30497863
Ar 1.503165170601898e-08 0.0 -1.56321395
$end


$rem
N_FROZEN_CORE FC
MEM_TOTAL 3750
MEM_STATIC 1500
AUX_BASIS_CORR rimp2-def2-QZVPPD
SCF_CONVERGENCE 7
SCF_ALGORITHM  GDM
method DSD-PBEPBE-D3
GEN_SCFMAN TRUE
UNRESTRICTED True
THRESH  14
SYMMETRY FALSE
SYM_IGNORE TRUE
max_scf_cycles 200

XC_GRID 000099000590
BASIS DEF2-QZVPPD


$end



$comment
step_size = 0.003
$end






