$molecule
0 1
C 6.280377520036018e-05 2.2782076702022347 0.0
H 0.04827247463143349 3.365319452787046 0.0
H 0.49598997045728216 1.8932652295370842 0.8891312803653395
H -1.0409554260093818 1.9605156574312694 0.0
H 0.49598997045728216 1.8932652295370842 -0.8891312803653395
N -1.6066483289543848e-06 -1.3040765975176294 0.5502490580548159
N -1.6066483289543848e-06 -1.3040765975176294 -0.5502490580548159
$end


$rem
N_FROZEN_CORE FC
MEM_TOTAL 3750
MEM_STATIC 1500
AUX_BASIS_CORR rimp2-def2-QZVPPD
SCF_CONVERGENCE 7
SCF_ALGORITHM  GDM
method DSD-PBEPBE-D3
GEN_SCFMAN TRUE
UNRESTRICTED True
THRESH  14
SYMMETRY FALSE
SYM_IGNORE TRUE
max_scf_cycles 200

XC_GRID 000099000590
BASIS DEF2-QZVPPD


$end



$comment
step_size = 0.001
$end






