$molecule
0 1
F -0.0073328560749796904 1.2995328847635506 0.0
H 0.04084680805844961 0.3659121224943212 0.0
O 0.053104886305172225 -1.3468616169108727 0.0
H -0.37271448164596577 -1.743799060103537 0.7633089726583636
H -0.37271448164596577 -1.743799060103537 -0.7633089726583636
$end


$rem
N_FROZEN_CORE FC
MEM_TOTAL 3750
MEM_STATIC 1500
AUX_BASIS_CORR rimp2-def2-QZVPPD
SCF_CONVERGENCE 7
SCF_ALGORITHM  GDM
method DSD-PBEPBE-D3
GEN_SCFMAN TRUE
UNRESTRICTED True
THRESH  14
SYMMETRY FALSE
SYM_IGNORE TRUE
max_scf_cycles 200

XC_GRID 000099000590
BASIS DEF2-QZVPPD


$end



$comment
step_size = 0.001
$end






