$molecule
0 1
C 1.8243775436800307 1.347666298124558e-06 -1.385051767430533e-06
H 1.4591672927280865 0.8856376791189181 0.5164648440847214
H 1.4572821847736623 0.0020300547665220384 -1.0245540757902012
H 1.4641343914400897 -0.8907318838900645 0.511182773675762
H 2.912697502439913 0.0030481232722835883 -0.0030770841869964434
C -1.8243775363199692 1.347666298124558e-06 -1.305051767430533e-06
H -2.9126976775600872 0.003047903272283588 -0.0030131041869964435
H -1.4630463752263378 -0.004080785233477962 1.0265969042097989
H -1.4612522072719134 -0.8876746608810818 -0.5144352759152787
H -1.4562851685599103 0.8886915161099355 -0.5091329463242379
$end


$rem
N_FROZEN_CORE FC
MEM_TOTAL 3750
MEM_STATIC 1500
AUX_BASIS_CORR rimp2-def2-QZVPPD
SCF_CONVERGENCE 7
SCF_ALGORITHM  GDM
method DSD-PBEPBE-D3
GEN_SCFMAN TRUE
UNRESTRICTED True
THRESH  14
SYMMETRY FALSE
SYM_IGNORE TRUE
max_scf_cycles 200

XC_GRID 000099000590
BASIS DEF2-QZVPPD


$end



$comment
step_size = 0.01
$end






