$molecule
0 1
C 6.811578475899205e-10 2.6305126698614476 0.0
H -0.5130290622997311 2.267709624649258 0.8885891946437782
H -0.5130290622997311 2.267709624649258 -0.8885891946437782
H 5.613421986432714e-06 3.718801403213245 0.0
H 1.026052533076808 2.267701699774792 0.0
Ar -2.8473890826123734e-13 -1.055252591268817 0.0
$end


$rem
N_FROZEN_CORE FC
MEM_TOTAL 3750
MEM_STATIC 1500
AUX_BASIS_CORR rimp2-def2-QZVPPD
SCF_CONVERGENCE 7
SCF_ALGORITHM  GDM
method DSD-PBEPBE-D3
GEN_SCFMAN TRUE
UNRESTRICTED True
THRESH  14
SYMMETRY FALSE
SYM_IGNORE TRUE
max_scf_cycles 200

XC_GRID 000099000590
BASIS DEF2-QZVPPD


$end



$comment
step_size = 0.001
$end






