$molecule
0 1
F -7.000103011993372e-07 -1.4638428383676199 0.0
H 2.040014602976952e-05 -0.5439275927482665 0.0
C -6.31833837660027e-07 1.7666708170495942 0.0
H 0.5162727301469682 1.4162333290286662 0.894208232637157
H 0.5162727301469682 1.4162333290286662 -0.894208232637157
H -1.032539235359104 1.4162202609055372 0.0
H -6.003052878837776e-06 2.854540566226939 0.0
$end


$rem
N_FROZEN_CORE FC
MEM_TOTAL 3750
MEM_STATIC 1500
AUX_BASIS_CORR rimp2-def2-QZVPPD
SCF_CONVERGENCE 7
SCF_ALGORITHM  GDM
method DSD-PBEPBE-D3
GEN_SCFMAN TRUE
UNRESTRICTED True
THRESH  14
SYMMETRY FALSE
SYM_IGNORE TRUE
max_scf_cycles 200

XC_GRID 000099000590
BASIS DEF2-QZVPPD


$end



$comment
step_size = 0.001
$end






