$molecule
0 1
O -1.6538513693540873 0.06227720664919622 0.0
H -2.072521243140748 -0.8003330306921355 0.0
H -0.7133097120206368 -0.12764996177651913 0.0
C 1.8241174426174365 -0.00387673688949705 0.0
H 1.4085796459028663 0.46486413163216406 0.8912793654372934
H 1.4085796459028663 0.46486413163216406 -0.8912793654372934
H 2.9034066876957616 0.12479875496754844 0.0
H 1.5936324024748574 -1.068768811342065 0.0
$end


$rem
N_FROZEN_CORE FC
MEM_TOTAL 3750
MEM_STATIC 1500
AUX_BASIS_CORR rimp2-def2-QZVPPD
SCF_CONVERGENCE 7
SCF_ALGORITHM  GDM
method DSD-PBEPBE-D3
GEN_SCFMAN TRUE
UNRESTRICTED True
THRESH  14
SYMMETRY FALSE
SYM_IGNORE TRUE
max_scf_cycles 200

XC_GRID 000099000590
BASIS DEF2-QZVPPD


$end



$comment
step_size = 0.001
$end






