$molecule
0 1
F -0.0072416173827147 1.2994951911878339 0.0
H 0.03793036947152658 0.366692880953541 0.0
O 0.05320671275545316 -1.3469124025137424 0.0
H -0.37292425766067905 -1.7434311583327275 0.7631368603270334
H -0.37292425766067905 -1.7434311583327275 -0.7631368603270334
$end


$rem
N_FROZEN_CORE FC
MEM_TOTAL 3750
MEM_STATIC 1500
AUX_BASIS_CORR rimp2-def2-QZVPPD
SCF_CONVERGENCE 7
SCF_ALGORITHM  GDM
method DSD-PBEPBE-D3
GEN_SCFMAN TRUE
UNRESTRICTED True
THRESH  14
SYMMETRY FALSE
SYM_IGNORE TRUE
max_scf_cycles 200

XC_GRID 000099000590
BASIS DEF2-QZVPPD


$end



$comment
step_size = 0.003
$end






