$molecule
0 1
F -6.101022044995965e-07 1.2729567300005735 -2.2942537499391146e-14
H 3.448258894079846e-05 0.3236431200026895 1.294943385900684e-12
N 6.25348668366193e-05 -1.372861220035355 2.2714711944961087e-12
H 0.9407848111447845 -1.7480774443489344 -2.6695755955491022e-11
H -0.47083837312223364 -1.7484619425785972 0.8142441030108275
H -0.47083837309474097 -1.7484619425948338 -0.8142441030166049
$end


$rem
N_FROZEN_CORE FC
MEM_TOTAL 3750
MEM_STATIC 1500
AUX_BASIS_CORR rimp2-def2-QZVPPD
SCF_CONVERGENCE 7
SCF_ALGORITHM  GDM
method DSD-PBEPBE-D3
GEN_SCFMAN TRUE
UNRESTRICTED True
THRESH  14
SYMMETRY FALSE
SYM_IGNORE TRUE
max_scf_cycles 200

XC_GRID 000099000590
BASIS DEF2-QZVPPD


$end



$comment
step_size = 0.001
$end






