$molecule
0 1
O -1.47695936 -0.05789871 4.2809735784183143e-05
H -1.85023887 0.82426102 0.0009418506402469688
H -0.515823 0.07736194 -0.0008849843807501207
N 1.46117117 0.01426827 -0.0001851007807971228
H 1.65356907 -0.98060402 0.0006175131024115911
H 1.9237947004810643 0.40012904187085013 0.8140289072064192
H 1.9270909395189357 0.3994982381291499 -0.8128108527935808
$end


$rem
N_FROZEN_CORE FC
MEM_TOTAL 3750
MEM_STATIC 1500
AUX_BASIS_CORR rimp2-def2-QZVPPD
SCF_CONVERGENCE 7
SCF_ALGORITHM  GDM
method DSD-PBEPBE-D3
GEN_SCFMAN TRUE
UNRESTRICTED True
THRESH  14
SYMMETRY FALSE
SYM_IGNORE TRUE
max_scf_cycles 200

XC_GRID 000099000590
BASIS DEF2-QZVPPD


$end



$comment
step_size = 0.003
$end






