$molecule
0 1
F -1e-08 1.75961533 -0.0006441677177926512
H 3.4e-07 0.83415881 0.0015064013483895202
C 5.061256863561019e-08 -1.3154069042393695 -0.6035807994161604
C 4.938743136438981e-08 -1.3183312357606307 0.6044073805838397
H -6.316724691884055e-07 -1.326619592382773 1.669208022019854
H -6.283275308115945e-07 -1.3183931676172271 -1.668413557980146
$end


$rem
N_FROZEN_CORE FC
MEM_TOTAL 3750
MEM_STATIC 1500
AUX_BASIS_CORR rimp2-def2-QZVPPD
SCF_CONVERGENCE 7
SCF_ALGORITHM  GDM
method DSD-PBEPBE-D3
GEN_SCFMAN TRUE
UNRESTRICTED True
THRESH  14
SYMMETRY FALSE
SYM_IGNORE TRUE
max_scf_cycles 200

XC_GRID 000099000590
BASIS DEF2-QZVPPD


$end



$comment
step_size = 0.01
$end






