$molecule
0 1
N 0.06557065639099806 -2.498211747115294 0.0
H -0.3755034702147727 -2.082730353790032 0.8110892630518383
H -0.3755034702147727 -2.082730353790032 -0.8110892630518383
H -0.1943361100734431 -3.4780429183131596 0.0
Ar 0.0008645513141966122 1.0681534567853124 0.0
$end


$rem
N_FROZEN_CORE FC
MEM_TOTAL 3750
MEM_STATIC 1500
AUX_BASIS_CORR rimp2-def2-QZVPPD
SCF_CONVERGENCE 7
SCF_ALGORITHM  GDM
method DSD-PBEPBE-D3
GEN_SCFMAN TRUE
UNRESTRICTED True
THRESH  14
SYMMETRY FALSE
SYM_IGNORE TRUE
max_scf_cycles 200

XC_GRID 000099000590
BASIS DEF2-QZVPPD


$end



$comment
step_size = 0.001
$end






