$molecule
0 1
O -0.7744684686040523 0.6531063982265377 0.0
H 0.14025533084993427 0.34936239879783104 0.0
C -1.613565890670652 -0.4879983853096399 0.0
H -2.644081157301034 -0.13294466262692958 0.0
H -1.4624086232303746 -1.1084050857669039 -0.8887780761465062
H -1.4624086232303746 -1.1084050857669039 0.8887780761465062
O 2.0133203139555502 -0.18100945152665335 -0.0
H 2.4898089461792456 0.1591922497443071 -0.7603666872359129
H 2.4898089461792456 0.1591922497443071 0.7603666872359129
$end


$rem
N_FROZEN_CORE FC
MEM_TOTAL 3750
MEM_STATIC 1500
AUX_BASIS_CORR rimp2-def2-QZVPPD
SCF_CONVERGENCE 7
SCF_ALGORITHM  GDM
method DSD-PBEPBE-D3
GEN_SCFMAN TRUE
UNRESTRICTED True
THRESH  14
SYMMETRY FALSE
SYM_IGNORE TRUE
max_scf_cycles 200

XC_GRID 000099000590
BASIS DEF2-QZVPPD


$end



$comment
step_size = 0.001
$end






