$molecule
0 1
C -1.1221059402570167e-07 2.6306279800017607 0.0
H -0.5132602171773929 2.2669898724460955 0.8881275877749585
H -0.5132602171745042 2.2669898724419117 -0.8881275877749585
H 0.000504220724806473 3.7188848174297364 2.4902757421166995e-12
H 1.0260173670770398 2.2676863476695055 -2.4902757421166995e-12
Ar 5.363262981867483e-09 -1.055252630000174 0.0
$end


$rem
N_FROZEN_CORE FC
MEM_TOTAL 3750
MEM_STATIC 1500
AUX_BASIS_CORR rimp2-def2-QZVPPD
SCF_CONVERGENCE 7
SCF_ALGORITHM  GDM
method DSD-PBEPBE-D3
GEN_SCFMAN TRUE
UNRESTRICTED True
THRESH  14
SYMMETRY FALSE
SYM_IGNORE TRUE
max_scf_cycles 200

XC_GRID 000099000590
BASIS DEF2-QZVPPD


$end



$comment
step_size = 0.001
$end






