$molecule
0 1
N 0.06585638057171056 -2.498495254603291 0.0
H -0.37224852187936663 -2.0794562669000154 0.8114094505572023
H -0.37224852187936663 -2.0794562669000154 -0.8114094505572023
H -0.20125462642870853 -3.4755358899640645 0.0
Ar 0.0007747366852857642 1.0680244333658993 0.0
$end


$rem
N_FROZEN_CORE FC
MEM_TOTAL 3750
MEM_STATIC 1500
AUX_BASIS_CORR rimp2-def2-QZVPPD
SCF_CONVERGENCE 7
SCF_ALGORITHM  GDM
method DSD-PBEPBE-D3
GEN_SCFMAN TRUE
UNRESTRICTED True
THRESH  14
SYMMETRY FALSE
SYM_IGNORE TRUE
max_scf_cycles 200

XC_GRID 000099000590
BASIS DEF2-QZVPPD


$end



$comment
step_size = 0.01
$end






