$molecule
0 1
N -0.05934520805250879 1.6406494321791225 0.0
H 0.32364284430156154 2.1128993860076597 -0.8106712104564942
H 0.32364284430156154 2.1128993860076597 0.8106712104564942
H 0.31906865143436663 0.696951887040306 0.0
N 0.034498723341112654 -1.5879281084901211 0.0
H -0.9353502137473152 -1.2927202502481174 0.0
H 0.1571108211811143 -2.181279486517644 -0.8117899088605369
H 0.1571108211811143 -2.181279486517644 0.8117899088605369
$end


$rem
N_FROZEN_CORE FC
MEM_TOTAL 3750
MEM_STATIC 1500
AUX_BASIS_CORR rimp2-def2-QZVPPD
SCF_CONVERGENCE 7
SCF_ALGORITHM  GDM
method DSD-PBEPBE-D3
GEN_SCFMAN TRUE
UNRESTRICTED True
THRESH  14
SYMMETRY FALSE
SYM_IGNORE TRUE
max_scf_cycles 200

XC_GRID 000099000590
BASIS DEF2-QZVPPD


$end



$comment
step_size = 0.001
$end






