$molecule
0 1
F -6.999738684497882e-07 -1.46384202705397 0.0
H 2.0399041841505466e-05 -0.5439386750803563 0.0
C -6.394622801642892e-07 1.7665769118381596 0.0
H 0.5159158521860713 1.4164535658591235 0.8935901073665959
H 0.5159158521860713 1.4164535658591235 -0.8935901073665959
H -1.0318253841127425 1.416440541693844 0.0
H -6.0071274680070276e-06 2.854993713386709 0.0
$end


$rem
N_FROZEN_CORE FC
MEM_TOTAL 3750
MEM_STATIC 1500
AUX_BASIS_CORR rimp2-def2-QZVPPD
SCF_CONVERGENCE 7
SCF_ALGORITHM  GDM
method DSD-PBEPBE-D3
GEN_SCFMAN TRUE
UNRESTRICTED True
THRESH  14
SYMMETRY FALSE
SYM_IGNORE TRUE
max_scf_cycles 200

XC_GRID 000099000590
BASIS DEF2-QZVPPD


$end



$comment
step_size = 0.001
$end






