$molecule
0 1
O -1.65385108 0.06227712 -1.0350787558615392e-07
H -2.07252159 -0.80033314 -2.0507221514271654e-08
H -0.7133127 -0.12764805 3.502527408657602e-06
C 1.82403012 -0.00387606 8.778289206966797e-05
H 1.408935992163296 0.4644398720812008 0.8904909695044833
H 1.408413767836704 0.46503022791879917 -0.8915764304955168
H 2.90424147 0.12490066 2.0150798706849575e-05
H 1.59364563 -1.06862104 1.8255061655341874e-05
$end


$rem
N_FROZEN_CORE FC
MEM_TOTAL 3750
MEM_STATIC 1500
AUX_BASIS_CORR rimp2-def2-QZVPPD
SCF_CONVERGENCE 7
SCF_ALGORITHM  GDM
method DSD-PBEPBE-D3
GEN_SCFMAN TRUE
UNRESTRICTED True
THRESH  14
SYMMETRY FALSE
SYM_IGNORE TRUE
max_scf_cycles 200

XC_GRID 000099000590
BASIS DEF2-QZVPPD


$end



$comment
step_size = 0.001
$end






