$molecule
0 1
N -0.05937236645488218 1.6397857389613981 0.0
H 0.32157267506908604 2.1133169221910473 -0.8102756584075352
H 0.32157267506908604 2.1133169221910473 0.8102756584075352
H 0.3224490476326137 0.6982559033830896 0.0
N 0.03488061626657327 -1.5876073163377409 0.0
H -0.9331245202854626 -1.2865305409723005 0.0
H 0.1539135370676479 -2.1816722585190877 -0.8117435796666367
H 0.1539135370676479 -2.1816722585190877 0.8117435796666367
$end


$rem
N_FROZEN_CORE FC
MEM_TOTAL 3750
MEM_STATIC 1500
AUX_BASIS_CORR rimp2-def2-QZVPPD
SCF_CONVERGENCE 7
SCF_ALGORITHM  GDM
method DSD-PBEPBE-D3
GEN_SCFMAN TRUE
UNRESTRICTED True
THRESH  14
SYMMETRY FALSE
SYM_IGNORE TRUE
max_scf_cycles 200

XC_GRID 000099000590
BASIS DEF2-QZVPPD


$end



$comment
step_size = 0.01
$end






