$molecule
0 1
C 1.8243775372295847 -1.3456859867012377e-06 -1.3881506950004081e-06
H 1.4641396628655956 0.8876806984211397 0.5164667875795838
H 1.4572965748400069 0.00406918424508501 -1.024553116215238
H 1.4591476934622503 -0.8886888846863604 0.5111827866670325
H 2.9126974994764847 -0.003044972956848956 -0.0030799813927209173
C -1.8243775427704152 -1.3456859867012377e-06 -1.308150695000408e-06
H -2.9126976805235154 -0.0030451929568489564 -0.0030160013927209173
H -1.4630319851599933 -0.0020416557549149906 1.0265978637847621
H -1.4562798371344043 -0.8856316415788602 -0.5144333324204163
H -1.4612718665377498 0.8907345153136396 -0.5091329333329674
$end


$rem
N_FROZEN_CORE FC
MEM_TOTAL 3750
MEM_STATIC 1500
AUX_BASIS_CORR rimp2-def2-QZVPPD
SCF_CONVERGENCE 7
SCF_ALGORITHM  GDM
method DSD-PBEPBE-D3
GEN_SCFMAN TRUE
UNRESTRICTED True
THRESH  14
SYMMETRY FALSE
SYM_IGNORE TRUE
max_scf_cycles 200

XC_GRID 000099000590
BASIS DEF2-QZVPPD


$end



$comment
step_size = 0.01
$end






