$molecule
0 1
O -0.77446723 0.6531056 3.951878075017236e-09
H 0.14024465 0.3493741 8.694724041438491e-07
C -1.61364112 -0.48795506 -8.848268153005989e-09
H -2.64323102 -0.1332504 -2.4690585927938655e-08
H -1.4623902309697663 -1.1085094759479186 -0.8889562321907899
H -1.4623901690302337 -1.1085095640520812 0.8889563278092102
O 2.01332033 -0.18100946 6.760966118037102e-05
H 2.490146310614553 0.1594320624907263 -0.7609034660746069
H 2.4894711093854474 0.15895227750927368 0.7598295539253931
$end


$rem
N_FROZEN_CORE FC
MEM_TOTAL 3750
MEM_STATIC 1500
AUX_BASIS_CORR rimp2-def2-QZVPPD
SCF_CONVERGENCE 7
SCF_ALGORITHM  GDM
method DSD-PBEPBE-D3
GEN_SCFMAN TRUE
UNRESTRICTED True
THRESH  14
SYMMETRY FALSE
SYM_IGNORE TRUE
max_scf_cycles 200

XC_GRID 000099000590
BASIS DEF2-QZVPPD


$end



$comment
step_size = 0.001
$end






