$molecule
0 1
N -0.05929760874924078 1.6401735739265106 0.0
H 0.3236565415237877 2.112090208904277 -0.8102682709255548
H 0.3236565415237877 2.112090208904277 0.8102682709255548
H 0.3185415490187852 0.6970265469071872 0.0
N 0.03444766515698057 -1.5874173832945697 0.0
H -0.9355522620077745 -1.292925087879883 0.0
H 0.15748572876268924 -2.180647447237388 -0.8117491935926617
H 0.15748572876268924 -2.180647447237388 0.8117491935926617
$end


$rem
N_FROZEN_CORE FC
MEM_TOTAL 3750
MEM_STATIC 1500
AUX_BASIS_CORR rimp2-def2-QZVPPD
SCF_CONVERGENCE 7
SCF_ALGORITHM  GDM
method DSD-PBEPBE-D3
GEN_SCFMAN TRUE
UNRESTRICTED True
THRESH  14
SYMMETRY FALSE
SYM_IGNORE TRUE
max_scf_cycles 200

XC_GRID 000099000590
BASIS DEF2-QZVPPD


$end



$comment
step_size = 0.003
$end






