$molecule
0 1
F -8.820807761357344e-08 -1.4638424100811018 0.0
H -1.3312848566521558e-05 -0.5439340890649513 0.0
C 4.3961308057721516e-07 1.766663819893421 0.0
H 0.5156998804343421 1.4166396653214175 0.8940613992092385
H 0.5156998804344417 1.4166396653215172 -0.8940613992092385
H -1.0318776499602516 1.4159028883653382 9.9611029684668e-14
H 0.00048753341321110553 2.854127002858737 -9.9611029684668e-14
$end


$rem
N_FROZEN_CORE FC
MEM_TOTAL 3750
MEM_STATIC 1500
AUX_BASIS_CORR rimp2-def2-QZVPPD
SCF_CONVERGENCE 7
SCF_ALGORITHM  GDM
method DSD-PBEPBE-D3
GEN_SCFMAN TRUE
UNRESTRICTED True
THRESH  14
SYMMETRY FALSE
SYM_IGNORE TRUE
max_scf_cycles 200

XC_GRID 000099000590
BASIS DEF2-QZVPPD


$end



$comment
step_size = 0.001
$end






