$molecule
0 1
C 1.824377545238761 -6.109502457293934e-05 -1.0080109836274804e-05
H 1.4600340357527626 0.8870693784953422 0.5156959391187902
H 1.4601942140342286 0.0030415869727776703 -1.0254936390447424
H 1.4603555498745795 -0.8893700071653248 0.5099519141785954
H 2.9126975379331155 -1.3752001480978312e-05 -3.426813034697813e-05
C -1.824377545238761 6.109502457293934e-05 1.0080109836274804e-05
H -2.9126975379331155 1.3752001480978312e-05 3.426813034697813e-05
H -1.4601942140342286 -0.0030415869727776703 1.0254936390447424
H -1.4600340357527626 -0.8870693784953422 -0.5156959391187902
H -1.4603555498745795 0.8893700071653248 -0.5099519141785954
$end


$rem
N_FROZEN_CORE FC
MEM_TOTAL 3750
MEM_STATIC 1500
AUX_BASIS_CORR rimp2-def2-QZVPPD
SCF_CONVERGENCE 7
SCF_ALGORITHM  GDM
method DSD-PBEPBE-D3
GEN_SCFMAN TRUE
UNRESTRICTED True
THRESH  14
SYMMETRY FALSE
SYM_IGNORE TRUE
max_scf_cycles 200

XC_GRID 000099000590
BASIS DEF2-QZVPPD


$end



$comment
step_size = 0.001
$end






