$molecule
0 1
F -6.7557410972015175e-06 1.75961532999236 0.0
H 0.00019282847289744392 0.8341588100714211 0.0
C -0.00017257040119923584 -1.316869069919373 -0.6039940899633671
C -0.00017257040119923584 -1.316869069919373 0.6039940899633671
H 0.0020220683486511116 -1.322506380923992 1.6688107912488235
H 0.0020220683486511116 -1.322506380923992 -1.6688107912488235
$end


$rem
N_FROZEN_CORE FC
MEM_TOTAL 3750
MEM_STATIC 1500
AUX_BASIS_CORR rimp2-def2-QZVPPD
SCF_CONVERGENCE 7
SCF_ALGORITHM  GDM
method DSD-PBEPBE-D3
GEN_SCFMAN TRUE
UNRESTRICTED True
THRESH  14
SYMMETRY FALSE
SYM_IGNORE TRUE
max_scf_cycles 200

XC_GRID 000099000590
BASIS DEF2-QZVPPD


$end



$comment
step_size = 0.003
$end






