$molecule
0 1
C 1.1547005383792516e-12 2.63062798 0.0002980420662281708
H -0.512930934860984 2.2721544610681774 0.8907307661341463
H -0.5129260051200899 2.262294878909908 -0.8860991738658538
H 5.619977089463173e-06 3.71888482 -0.005737716036412634
H 1.025851350008965 2.2672167500219143 0.0023114939795952317
Ar -4.745648471020622e-13 -1.05525263 -0.00011989528988018305
$end


$rem
N_FROZEN_CORE FC
MEM_TOTAL 3750
MEM_STATIC 1500
AUX_BASIS_CORR rimp2-def2-QZVPPD
SCF_CONVERGENCE 7
SCF_ALGORITHM  GDM
method DSD-PBEPBE-D3
GEN_SCFMAN TRUE
UNRESTRICTED True
THRESH  14
SYMMETRY FALSE
SYM_IGNORE TRUE
max_scf_cycles 200

XC_GRID 000099000590
BASIS DEF2-QZVPPD


$end



$comment
step_size = 0.01
$end






