$molecule
0 1
F -0.0073302 1.29948237 6.755361339083224e-09
H 0.04079339 0.36684741 1.6162186407205842e-06
O 0.05309571 -1.34687005 6.774536689818497e-05
H -0.3723396275753364 -1.7434416219908722 0.7626265541516476
H -0.37294035242466356 -1.7440056980091276 -0.7637034658483525
$end


$rem
N_FROZEN_CORE FC
MEM_TOTAL 3750
MEM_STATIC 1500
AUX_BASIS_CORR rimp2-def2-QZVPPD
SCF_CONVERGENCE 7
SCF_ALGORITHM  GDM
method DSD-PBEPBE-D3
GEN_SCFMAN TRUE
UNRESTRICTED True
THRESH  14
SYMMETRY FALSE
SYM_IGNORE TRUE
max_scf_cycles 200

XC_GRID 000099000590
BASIS DEF2-QZVPPD


$end



$comment
step_size = 0.001
$end






