$molecule
0 1
F 1.1700694124689484e-11 1.272903871571976 0.0
H 2.0977936156924847e-07 0.32459272602510647 0.0
N 1.9989096938266418e-08 -1.3728669221456777 0.0
H 0.9405415332970118 -1.7482922732158055 0.0
H -0.47027104657305063 -1.7482915032801543 0.8145330343900891
H -0.47027104657305063 -1.7482915032801543 -0.8145330343900891
$end


$rem
N_FROZEN_CORE FC
MEM_TOTAL 3750
MEM_STATIC 1500
AUX_BASIS_CORR rimp2-def2-QZVPPD
SCF_CONVERGENCE 7
SCF_ALGORITHM  GDM
method DSD-PBEPBE-D3
GEN_SCFMAN TRUE
UNRESTRICTED True
THRESH  14
SYMMETRY FALSE
SYM_IGNORE TRUE
max_scf_cycles 200

XC_GRID 000099000590
BASIS DEF2-QZVPPD


$end



$comment
step_size = 0.001
$end






