$molecule
0 1
C -4.762475768004845e-09 2.6307156131822578 0.0
H -0.5130603490395901 2.2671508217471534 0.8886433885043044
H -0.5130603490395901 2.2671508217471534 -0.8886433885043044
H 5.614612537459505e-06 3.7180628123419477 0.0
H 1.0261151701620532 2.2671428760657366 0.0
Ar 2.372824235510311e-13 -1.0552526263479705 0.0
$end


$rem
N_FROZEN_CORE FC
MEM_TOTAL 3750
MEM_STATIC 1500
AUX_BASIS_CORR rimp2-def2-QZVPPD
SCF_CONVERGENCE 7
SCF_ALGORITHM  GDM
method DSD-PBEPBE-D3
GEN_SCFMAN TRUE
UNRESTRICTED True
THRESH  14
SYMMETRY FALSE
SYM_IGNORE TRUE
max_scf_cycles 200

XC_GRID 000099000590
BASIS DEF2-QZVPPD


$end



$comment
step_size = 0.001
$end






