$molecule
0 1
C 6.291e-05 2.27820777 -1.659632031253615e-07
H 0.0477745 3.36534141 0.0004988289480194688
H 0.49661530567647233 1.8934098703703481 0.8888445290872183
H -1.04110038 1.96099226 -0.0004966055928812149
H 0.49600611432352765 1.8926209096296518 -0.8888435309127817
N -1.6087338869124091e-06 -1.304076427420059 0.5502490751807735
N -1.5912661130875907e-06 -1.304076772579941 -0.5502491648192266
$end


$rem
N_FROZEN_CORE FC
MEM_TOTAL 3750
MEM_STATIC 1500
AUX_BASIS_CORR rimp2-def2-QZVPPD
SCF_CONVERGENCE 7
SCF_ALGORITHM  GDM
method DSD-PBEPBE-D3
GEN_SCFMAN TRUE
UNRESTRICTED True
THRESH  14
SYMMETRY FALSE
SYM_IGNORE TRUE
max_scf_cycles 200

XC_GRID 000099000590
BASIS DEF2-QZVPPD


$end



$comment
step_size = 0.001
$end






