$molecule
0 1
H 0.8153975163293171 1.863873539136279 0.0
O -0.0671033825063303 1.490124776282116 0.0
H 0.07144504101496994 0.533995105457997 0.0
H -0.41266565348715484 -1.7608849303753737 0.7602041080582721
O 0.0632276172163739 -1.4193087796633934 0.0
H -0.41266565348715484 -1.7608849303753737 -0.7602041080582721
$end


$rem
N_FROZEN_CORE FC
MEM_TOTAL 3750
MEM_STATIC 1500
AUX_BASIS_CORR rimp2-def2-QZVPPD
SCF_CONVERGENCE 7
SCF_ALGORITHM  GDM
method DSD-PBEPBE-D3
GEN_SCFMAN TRUE
UNRESTRICTED True
THRESH  14
SYMMETRY FALSE
SYM_IGNORE TRUE
max_scf_cycles 200

XC_GRID 000099000590
BASIS DEF2-QZVPPD


$end



$comment
step_size = 0.001
$end






