$molecule
0 1
F -0.007293964407582876 1.2998616821898241 0.0
H 0.04043404494035731 0.3672265995902932 0.0
O 0.05298128154819828 -1.3471910947883947 0.0
H -0.3718938228523435 -1.7449408349676767 0.7631709524459901
H -0.3718938228523435 -1.7449408349676767 -0.7631709524459901
$end


$rem
N_FROZEN_CORE FC
MEM_TOTAL 3750
MEM_STATIC 1500
AUX_BASIS_CORR rimp2-def2-QZVPPD
SCF_CONVERGENCE 7
SCF_ALGORITHM  GDM
method DSD-PBEPBE-D3
GEN_SCFMAN TRUE
UNRESTRICTED True
THRESH  14
SYMMETRY FALSE
SYM_IGNORE TRUE
max_scf_cycles 200

XC_GRID 000099000590
BASIS DEF2-QZVPPD


$end



$comment
step_size = 0.003
$end






