$molecule
0 1
O -1.4768627298438701 -0.05784334190585628 0.0
H -1.852036577246113 0.8235043258857117 0.0
H -0.5159544966116301 0.07899889333159159 0.0
N 1.4611824926306296 0.01408749258501868 0.0
H 1.6546475480432907 -0.9805707225607051 0.0
H 1.925022727248435 0.4001733881236214 0.8134109442335034
H 1.925022727248435 0.4001733881236214 -0.8134109442335034
$end


$rem
N_FROZEN_CORE FC
MEM_TOTAL 3750
MEM_STATIC 1500
AUX_BASIS_CORR rimp2-def2-QZVPPD
SCF_CONVERGENCE 7
SCF_ALGORITHM  GDM
method DSD-PBEPBE-D3
GEN_SCFMAN TRUE
UNRESTRICTED True
THRESH  14
SYMMETRY FALSE
SYM_IGNORE TRUE
max_scf_cycles 200

XC_GRID 000099000590
BASIS DEF2-QZVPPD


$end



$comment
step_size = 0.003
$end






