$molecule
0 1
O      -1.653851080000000      0.062277120000000      0.000000000000000
H      -2.072521590000000     -0.800333140000000      0.000000000000000
H      -0.713312700000000     -0.127648050000000      0.000000000000000
C       1.824030120000000     -0.003876060000000      0.000000000000000
H       1.408674880000000      0.464735050000000      0.891033700000000
H       1.408674880000000      0.464735050000000     -0.891033700000000
H       2.904241470000000      0.124900660000000      0.000000000000000
H       1.593645630000000     -1.068621040000000      0.000000000000000
$end


$rem
N_FROZEN_CORE FC
MEM_TOTAL 3750
MEM_STATIC 1500
AUX_BASIS_CORR rimp2-def2-QZVPPD
SCF_CONVERGENCE 7
SCF_ALGORITHM  GDM
method DSD-PBEPBE-D3
GEN_SCFMAN TRUE
UNRESTRICTED True
THRESH  14
SYMMETRY FALSE
SYM_IGNORE TRUE
max_scf_cycles 200

XC_GRID 000099000590
BASIS DEF2-QZVPPD


$end



$comment
step_size = {step_size}
$end






