$molecule
0 1
F 0.00010239531670833574 1.2729567305296285 6.882761249817344e-13
H -0.0009149693689814071 0.32364312031556774 -5.976661781080079e-12
N -0.00020683991567584445 -1.3728612205308028 -1.3628827166976652e-12
H 0.9412529125413744 -1.7463097998896848 4.1836632467560556e-12
H -0.4696971762328649 -1.7493457664539953 0.8146327157276292
H -0.4696971762328649 -1.7493457664770056 -0.8146327157195606
$end


$rem
N_FROZEN_CORE FC
MEM_TOTAL 3750
MEM_STATIC 1500
AUX_BASIS_CORR rimp2-def2-QZVPPD
SCF_CONVERGENCE 7
SCF_ALGORITHM  GDM
method DSD-PBEPBE-D3
GEN_SCFMAN TRUE
UNRESTRICTED True
THRESH  14
SYMMETRY FALSE
SYM_IGNORE TRUE
max_scf_cycles 200

XC_GRID 000099000590
BASIS DEF2-QZVPPD


$end



$comment
step_size = 0.003
$end






