$molecule
0 1
O -1.47695936 -0.05789871 8.937398800154623e-05
H -1.85023887 0.82426102 7.099200100151147e-05
H -0.515823 0.07736194 -0.0027927060684475526
N 1.46117117 0.01426827 0.00012921261447391502
H 1.65356907 -0.98060402 -0.0001767235807988611
H 1.9260195099907547 0.3997110766187295 0.8132622211511813
H 1.9248661300092453 0.39991620338127054 -0.8135775388488187
$end


$rem
N_FROZEN_CORE FC
MEM_TOTAL 3750
MEM_STATIC 1500
AUX_BASIS_CORR rimp2-def2-QZVPPD
SCF_CONVERGENCE 7
SCF_ALGORITHM  GDM
method DSD-PBEPBE-D3
GEN_SCFMAN TRUE
UNRESTRICTED True
THRESH  14
SYMMETRY FALSE
SYM_IGNORE TRUE
max_scf_cycles 200

XC_GRID 000099000590
BASIS DEF2-QZVPPD


$end



$comment
step_size = 0.003
$end






