$molecule
0 1
N 0.0656858017686245 -2.4982732025931655 0.0
H -0.37614218107861475 -2.0827440568289446 0.8112477410386116
H -0.37614218107861475 -2.0827440568289446 -0.8112477410386116
H -0.1946582177832163 -3.4771611500154527 0.0
Ar 0.0008645427202227019 1.0681534447233134 0.0
$end


$rem
N_FROZEN_CORE FC
MEM_TOTAL 3750
MEM_STATIC 1500
AUX_BASIS_CORR rimp2-def2-QZVPPD
SCF_CONVERGENCE 7
SCF_ALGORITHM  GDM
method DSD-PBEPBE-D3
GEN_SCFMAN TRUE
UNRESTRICTED True
THRESH  14
SYMMETRY FALSE
SYM_IGNORE TRUE
max_scf_cycles 200

XC_GRID 000099000590
BASIS DEF2-QZVPPD


$end



$comment
step_size = 0.001
$end






