$molecule
0 1
C -2.621170222120901e-11 2.6306278634847686 0.0
H -0.5126935791056797 2.2673909362827187 0.8880081284927568
H -0.5126935791056797 2.2673909362827187 -0.8880081284927568
H 5.617424656438533e-06 3.71838760650262 0.0
H 1.0253815711011751 2.267383019789923 0.0
Ar -4.745648471020622e-14 -1.0552526350824947 0.0
$end


$rem
N_FROZEN_CORE FC
MEM_TOTAL 3750
MEM_STATIC 1500
AUX_BASIS_CORR rimp2-def2-QZVPPD
SCF_CONVERGENCE 7
SCF_ALGORITHM  GDM
method DSD-PBEPBE-D3
GEN_SCFMAN TRUE
UNRESTRICTED True
THRESH  14
SYMMETRY FALSE
SYM_IGNORE TRUE
max_scf_cycles 200

XC_GRID 000099000590
BASIS DEF2-QZVPPD


$end



$comment
step_size = 0.001
$end






