$molecule
0 1
H 0.814837263888206 1.8646725829483703 0.0
O -0.0671019987874398 1.4904512734867423 0.0
H 0.0719385634386938 0.5353617769636351 0.0
H -0.4132103359796343 -1.7604902473192916 0.7601365319322476
O 0.0632990780036167 -1.4198214738533246 0.0
H -0.4132103359796343 -1.7604902473192916 -0.7601365319322476
$end


$rem
N_FROZEN_CORE FC
MEM_TOTAL 3750
MEM_STATIC 1500
AUX_BASIS_CORR rimp2-def2-QZVPPD
SCF_CONVERGENCE 7
SCF_ALGORITHM  GDM
method DSD-PBEPBE-D3
GEN_SCFMAN TRUE
UNRESTRICTED True
THRESH  14
SYMMETRY FALSE
SYM_IGNORE TRUE
max_scf_cycles 200

XC_GRID 000099000590
BASIS DEF2-QZVPPD


$end



$comment
step_size = 0.003
$end






