$molecule
0 1
O -1.477251991524928 -0.057847192538215235 0.0
H -1.849600742545109 0.8247077005838508 0.0
H -0.5159823563373095 0.07646081947007012 0.0
N 1.4613937007440847 0.014131083635599298 0.0
H 1.6555205852504635 -0.980403694674466 0.0
H 1.9250038539552072 0.40048494522677425 0.8134160272752741
H 1.9250038539552072 0.40048494522677425 -0.8134160272752741
$end


$rem
N_FROZEN_CORE FC
MEM_TOTAL 3750
MEM_STATIC 1500
AUX_BASIS_CORR rimp2-def2-QZVPPD
SCF_CONVERGENCE 7
SCF_ALGORITHM  GDM
method DSD-PBEPBE-D3
GEN_SCFMAN TRUE
UNRESTRICTED True
THRESH  14
SYMMETRY FALSE
SYM_IGNORE TRUE
max_scf_cycles 200

XC_GRID 000099000590
BASIS DEF2-QZVPPD


$end



$comment
step_size = 0.003
$end






