$molecule
0 1
C 4.762475768004845e-09 2.630540346817742 0.0
H -0.5127965909604099 2.2672985182528467 0.8881865514956957
H -0.5127965909604099 2.2672985182528467 -0.8881865514956957
H 5.625387462540496e-06 3.7197068276580523 0.0
H 1.0255875298379467 2.267290623934263 0.0
Ar -2.372824235510311e-13 -1.0552526336520296 0.0
$end


$rem
N_FROZEN_CORE FC
MEM_TOTAL 3750
MEM_STATIC 1500
AUX_BASIS_CORR rimp2-def2-QZVPPD
SCF_CONVERGENCE 7
SCF_ALGORITHM  GDM
method DSD-PBEPBE-D3
GEN_SCFMAN TRUE
UNRESTRICTED True
THRESH  14
SYMMETRY FALSE
SYM_IGNORE TRUE
max_scf_cycles 200

XC_GRID 000099000590
BASIS DEF2-QZVPPD


$end



$comment
step_size = 0.001
$end






