$molecule
0 1
C -0.00023561864115791142 2.2777448102045965 0.0
H 0.05333674381250025 3.36462117910189 0.0
H 0.49393773536273455 1.8898804331868557 0.8888432607239399
H -1.0431084776843687 1.9661344957277207 0.0
H 0.49393773536273455 1.8898804331868557 -0.8888432607239399
N 0.0001692005400154253 -1.3038117334656392 0.5502490019075488
N 0.0001692005400154253 -1.3038117334656392 -0.5502490019075488
$end


$rem
N_FROZEN_CORE FC
MEM_TOTAL 3750
MEM_STATIC 1500
AUX_BASIS_CORR rimp2-def2-QZVPPD
SCF_CONVERGENCE 7
SCF_ALGORITHM  GDM
method DSD-PBEPBE-D3
GEN_SCFMAN TRUE
UNRESTRICTED True
THRESH  14
SYMMETRY FALSE
SYM_IGNORE TRUE
max_scf_cycles 200

XC_GRID 000099000590
BASIS DEF2-QZVPPD


$end



$comment
step_size = 0.01
$end






