$molecule
0 1
C 1.8243775396750384 -4.0258131975858414e-07 -3.5822129442821314e-07
H 1.4598832813329938 0.8865299787167356 0.5154349986341076
H 1.4603679463612504 0.0033355982337496936 -1.0256474474701487
H 1.4603325926166926 -0.8895854464349392 0.5104662751870958
H 2.9126975834756768 -0.0002740569103186138 -0.00024858598396973583
C -1.8243775396750384 4.0258131975858414e-07 3.5822129442821314e-07
H -2.9126975834756768 0.0002740569103186138 0.00024858598396973583
H -1.4603679463612504 -0.0033355982337496936 1.0256474474701487
H -1.4598832813329938 -0.8865299787167356 -0.5154349986341076
H -1.4603325926166926 0.8895854464349392 -0.5104662751870958
$end


$rem
N_FROZEN_CORE FC
MEM_TOTAL 3750
MEM_STATIC 1500
AUX_BASIS_CORR rimp2-def2-QZVPPD
SCF_CONVERGENCE 7
SCF_ALGORITHM  GDM
method DSD-PBEPBE-D3
GEN_SCFMAN TRUE
UNRESTRICTED True
THRESH  14
SYMMETRY FALSE
SYM_IGNORE TRUE
max_scf_cycles 200

XC_GRID 000099000590
BASIS DEF2-QZVPPD


$end



$comment
step_size = 0.001
$end






