$molecule
0 1
C       0.000062910000000      2.278207770000000      0.000000000000000
H       0.047774500000000      3.365341410000000      0.000000000000000
H       0.496310710000000      1.893015390000000      0.888844030000000
H      -1.041100380000000      1.960992260000000      0.000000000000000
H       0.496310710000000      1.893015390000000     -0.888844030000000
N      -0.000001600000000     -1.304076600000000      0.550249120000000
N      -0.000001600000000     -1.304076600000000     -0.550249120000000
$end


$rem
N_FROZEN_CORE FC
MEM_TOTAL 3750
MEM_STATIC 1500
AUX_BASIS_CORR rimp2-def2-QZVPPD
SCF_CONVERGENCE 7
SCF_ALGORITHM  GDM
method DSD-PBEPBE-D3
GEN_SCFMAN TRUE
UNRESTRICTED True
THRESH  14
SYMMETRY FALSE
SYM_IGNORE TRUE
max_scf_cycles 200

XC_GRID 000099000590
BASIS DEF2-QZVPPD


$end



$comment
step_size = {step_size}
$end






