$molecule
0 1
C 6.0695633433361354e-05 2.2781201727234435 0.0
H 0.04781103519261774 3.366166216380643 0.0
H 0.49618096751658863 1.8930961728516866 0.88861263126109
H -1.0408510642567572 1.9610488759058011 0.0
H 0.49618096751658863 1.8930961728516866 -0.88861263126109
N -1.5999958846286594e-06 -1.3040765993603805 0.5502490685678795
N -1.5999958846286594e-06 -1.3040765993603805 -0.5502490685678795
$end


$rem
N_FROZEN_CORE FC
MEM_TOTAL 3750
MEM_STATIC 1500
AUX_BASIS_CORR rimp2-def2-QZVPPD
SCF_CONVERGENCE 7
SCF_ALGORITHM  GDM
method DSD-PBEPBE-D3
GEN_SCFMAN TRUE
UNRESTRICTED True
THRESH  14
SYMMETRY FALSE
SYM_IGNORE TRUE
max_scf_cycles 200

XC_GRID 000099000590
BASIS DEF2-QZVPPD


$end



$comment
step_size = 0.001
$end






