$molecule
0 1
O -1.4769577372218656 -0.05789831677712979 0.0
H -1.8502366063803903 0.8242578559202897 0.0
H -0.515850024485801 0.07735863579506351 0.0
N 1.461208050461269 0.014259650799133737 0.0
H 1.6534988109499045 -0.9800262829339612 0.0
H 1.9252212376017397 0.39958476434103524 0.8129562949925979
H 1.9252212376017397 0.39958476434103524 -0.8129562949925979
$end


$rem
N_FROZEN_CORE FC
MEM_TOTAL 3750
MEM_STATIC 1500
AUX_BASIS_CORR rimp2-def2-QZVPPD
SCF_CONVERGENCE 7
SCF_ALGORITHM  GDM
method DSD-PBEPBE-D3
GEN_SCFMAN TRUE
UNRESTRICTED True
THRESH  14
SYMMETRY FALSE
SYM_IGNORE TRUE
max_scf_cycles 200

XC_GRID 000099000590
BASIS DEF2-QZVPPD


$end



$comment
step_size = 0.001
$end






