$molecule
0 1
C 1.8243773538657373 -0.0002628014801938187 -0.00032587057727511705
H 1.4565168854094857 0.885503611021363 0.5140416733209101
H 1.4632347691324765 0.0019281839410957382 -1.0269961354947386
H 1.460831468159863 -0.8908537434605994 0.5087432648303951
H 2.912697498086911 0.0023626049124592674 0.0028982209914703606
C -1.8243773538657373 0.0002628014801938187 0.00032587057727511705
H -2.912697498086911 -0.0023626049124592674 -0.0028982209914703606
H -1.4632347691324765 -0.0019281839410957382 1.0269961354947386
H -1.4565168854094857 -0.885503611021363 -0.5140416733209101
H -1.460831468159863 0.8908537434605994 -0.5087432648303951
$end


$rem
N_FROZEN_CORE FC
MEM_TOTAL 3750
MEM_STATIC 1500
AUX_BASIS_CORR rimp2-def2-QZVPPD
SCF_CONVERGENCE 7
SCF_ALGORITHM  GDM
method DSD-PBEPBE-D3
GEN_SCFMAN TRUE
UNRESTRICTED True
THRESH  14
SYMMETRY FALSE
SYM_IGNORE TRUE
max_scf_cycles 200

XC_GRID 000099000590
BASIS DEF2-QZVPPD


$end



$comment
step_size = 0.01
$end






