$molecule
0 1
N -0.059308572257708955 1.6406796852364167 0.0
H 0.323408007958624 2.11229886008116 -0.8105417246218969
H 0.323408007958624 2.11229886008116 0.8105417246218969
H 0.31904630395506034 0.697725237127917 0.0
N 0.03452928658725294 -1.587957615622651 0.0
H -0.9353308302753802 -1.292948217137629 0.0
H 0.15688029602286613 -2.180956834260071 -0.8120107373599907
H 0.15688029602286613 -2.180956834260071 0.8120107373599907
$end


$rem
N_FROZEN_CORE FC
MEM_TOTAL 3750
MEM_STATIC 1500
AUX_BASIS_CORR rimp2-def2-QZVPPD
SCF_CONVERGENCE 7
SCF_ALGORITHM  GDM
method DSD-PBEPBE-D3
GEN_SCFMAN TRUE
UNRESTRICTED True
THRESH  14
SYMMETRY FALSE
SYM_IGNORE TRUE
max_scf_cycles 200

XC_GRID 000099000590
BASIS DEF2-QZVPPD


$end



$comment
step_size = 0.001
$end






