$molecule
0 1
F -1e-08 1.75961533 -6.951588862315516e-12
H 3.4e-07 0.83415881 3.1078641261616414e-10
C 0.0003827719282501556 -1.3168690702332206 -0.603994090100026
C -0.0003826719282501557 -1.3168690697667795 0.603994089899974
H 0.0016489139465994558 -1.3225063809251874 1.6688107911023953
H -0.0016501739465994557 -1.3225063790748128 -1.6688107888976047
$end


$rem
N_FROZEN_CORE FC
MEM_TOTAL 3750
MEM_STATIC 1500
AUX_BASIS_CORR rimp2-def2-QZVPPD
SCF_CONVERGENCE 7
SCF_ALGORITHM  GDM
method DSD-PBEPBE-D3
GEN_SCFMAN TRUE
UNRESTRICTED True
THRESH  14
SYMMETRY FALSE
SYM_IGNORE TRUE
max_scf_cycles 200

XC_GRID 000099000590
BASIS DEF2-QZVPPD


$end



$comment
step_size = 0.003
$end






