$molecule
0 1
O -1.6552387846739693 0.06218696059414639 0.0
H -2.0695915042803565 -0.8025199031460324 0.0
H -0.7137573042414437 -0.123096143346984 0.0
C 1.825258318520623 -0.003933168292417148 0.0
H 1.410757384793641 0.46541028608499724 0.8910506763422167
H 1.410757384793641 0.46541028608499724 -0.8910506763422167
H 2.905698600378208 0.12292582415673335 0.0
H 1.5929379385307736 -1.0682509519438985 0.0
$end


$rem
N_FROZEN_CORE FC
MEM_TOTAL 3750
MEM_STATIC 1500
AUX_BASIS_CORR rimp2-def2-QZVPPD
SCF_CONVERGENCE 7
SCF_ALGORITHM  GDM
method DSD-PBEPBE-D3
GEN_SCFMAN TRUE
UNRESTRICTED True
THRESH  14
SYMMETRY FALSE
SYM_IGNORE TRUE
max_scf_cycles 200

XC_GRID 000099000590
BASIS DEF2-QZVPPD


$end



$comment
step_size = 0.01
$end






