$molecule
0 1
C 0.0001337909586667497 2.2782987078087014 0.0
H 0.04745627454932422 3.3654235867344253 0.0
H 0.49596861871184267 1.8925767759050809 0.88884529422444
H -1.0409420902830533 1.9607058132362831 0.0
H 0.49596861871184267 1.8925767759050809 -0.88884529422444
N -1.5945706226581532e-06 -1.3040766461586195 0.5502491908986822
N -1.5945706226581532e-06 -1.3040766461586195 -0.5502491908986822
$end


$rem
N_FROZEN_CORE FC
MEM_TOTAL 3750
MEM_STATIC 1500
AUX_BASIS_CORR rimp2-def2-QZVPPD
SCF_CONVERGENCE 7
SCF_ALGORITHM  GDM
method DSD-PBEPBE-D3
GEN_SCFMAN TRUE
UNRESTRICTED True
THRESH  14
SYMMETRY FALSE
SYM_IGNORE TRUE
max_scf_cycles 200

XC_GRID 000099000590
BASIS DEF2-QZVPPD


$end



$comment
step_size = 0.001
$end






