$molecule
0 1
F 2.2942537499391146e-14 1.27295673 -6.101037187070714e-07
H 2.099987050566141e-07 0.32364312 3.42726521938023e-05
N 1.9997728528805505e-08 -1.37286122 6.25148637367292e-05
H 0.9406449199949198 -1.7483342900093635 -0.0007341410387133346
H -0.47070120685250627 -1.748111084849246 0.8145439530008928
H -0.46994427311004 -1.7485559551414902 -0.8147011870265999
$end


$rem
N_FROZEN_CORE FC
MEM_TOTAL 3750
MEM_STATIC 1500
AUX_BASIS_CORR rimp2-def2-QZVPPD
SCF_CONVERGENCE 7
SCF_ALGORITHM  GDM
method DSD-PBEPBE-D3
GEN_SCFMAN TRUE
UNRESTRICTED True
THRESH  14
SYMMETRY FALSE
SYM_IGNORE TRUE
max_scf_cycles 200

XC_GRID 000099000590
BASIS DEF2-QZVPPD


$end



$comment
step_size = 0.001
$end






