$molecule
0 1
N 0.06547517823137551 -2.4983004774068345 0.0
H -0.37519239892138523 -2.082428023171055 0.8115798989613883
H -0.37519239892138523 -2.082428023171055 -0.8115798989613883
H -0.19363188221678374 -3.477414669984547 0.0
Ar 0.000864557279777298 1.0681534552766867 0.0
$end


$rem
N_FROZEN_CORE FC
MEM_TOTAL 3750
MEM_STATIC 1500
AUX_BASIS_CORR rimp2-def2-QZVPPD
SCF_CONVERGENCE 7
SCF_ALGORITHM  GDM
method DSD-PBEPBE-D3
GEN_SCFMAN TRUE
UNRESTRICTED True
THRESH  14
SYMMETRY FALSE
SYM_IGNORE TRUE
max_scf_cycles 200

XC_GRID 000099000590
BASIS DEF2-QZVPPD


$end



$comment
step_size = 0.001
$end






