$molecule
0 1
O 0.00027662953149387297 1.16302166 1.42816398
C -0.0007389088524177754 0.0 1.4251331
O 0.00027662953149387297 -1.16302166 1.42816398
N 3.069777634669715e-06 0.0 -1.69179607
N -1.8147132110465745e-06 0.0 -2.79209933
$end


$rem
N_FROZEN_CORE FC
MEM_TOTAL 3750
MEM_STATIC 1500
AUX_BASIS_CORR rimp2-def2-QZVPPD
SCF_CONVERGENCE 7
SCF_ALGORITHM  GDM
method DSD-PBEPBE-D3
GEN_SCFMAN TRUE
UNRESTRICTED True
THRESH  14
SYMMETRY FALSE
SYM_IGNORE TRUE
max_scf_cycles 200

XC_GRID 000099000590
BASIS DEF2-QZVPPD


$end



$comment
step_size = 0.003
$end






