$molecule
0 1
C 6.291691278797809e-05 2.2782070591444668 0.0
H 0.04775287912099797 3.3648509704952105 0.0
H 0.4960823004371801 1.8931922156333945 0.8884351360636707
H -1.0406220294889952 1.9611376806104184 0.0
H 0.4960823004371801 1.8931922156333945 -0.8884351360636707
N -1.5997414531316853e-06 -1.304076606057773 0.5502491263576341
N -1.5997414531316853e-06 -1.304076606057773 -0.5502491263576341
$end


$rem
N_FROZEN_CORE FC
MEM_TOTAL 3750
MEM_STATIC 1500
AUX_BASIS_CORR rimp2-def2-QZVPPD
SCF_CONVERGENCE 7
SCF_ALGORITHM  GDM
method DSD-PBEPBE-D3
GEN_SCFMAN TRUE
UNRESTRICTED True
THRESH  14
SYMMETRY FALSE
SYM_IGNORE TRUE
max_scf_cycles 200

XC_GRID 000099000590
BASIS DEF2-QZVPPD


$end



$comment
step_size = 0.001
$end






