$molecule
0 1
F       1.400100020000000     -0.009680040000000      0.000000000000000
H       0.485684540000000      0.118601960000000      0.000000000000000
F      -1.336301860000000      0.046069740000000      0.000000000000000
H      -1.688336960000000     -0.804580330000000      0.000000000000000
$end


$rem
N_FROZEN_CORE FC
MEM_TOTAL 3750
MEM_STATIC 1500
AUX_BASIS_CORR rimp2-def2-QZVPPD
SCF_CONVERGENCE 7
SCF_ALGORITHM  GDM
method DSD-PBEPBE-D3
GEN_SCFMAN TRUE
UNRESTRICTED True
THRESH  14
SYMMETRY FALSE
SYM_IGNORE TRUE
max_scf_cycles 200

XC_GRID 000099000590
BASIS DEF2-QZVPPD


$end



$comment
step_size = {step_size}
$end






