$molecule
0 1
C 1.8261427661360574 -1.138534730841942e-09 -9.742989730169587e-08
H 1.4619790725933173 0.8866583291985627 0.5154510752555368
H 1.4619344104029082 0.003055421317853923 -1.0255782421770459
H 1.4619791301965297 -0.8897138790400837 0.5101588624734494
H 2.914462624537711 1.2415871175937873e-07 -3.14873826664171e-05
C -1.8261427661360574 1.138534730841942e-09 9.742989730169587e-08
H -2.914462624537711 -1.2415871175937873e-07 3.14873826664171e-05
H -1.4619344104029082 -0.003055421317853923 1.0255782421770459
H -1.4619790725933173 -0.8866583291985627 -0.5154510752555368
H -1.4619791301965297 0.8897138790400837 -0.5101588624734494
$end


$rem
N_FROZEN_CORE FC
MEM_TOTAL 3750
MEM_STATIC 1500
AUX_BASIS_CORR rimp2-def2-QZVPPD
SCF_CONVERGENCE 7
SCF_ALGORITHM  GDM
method DSD-PBEPBE-D3
GEN_SCFMAN TRUE
UNRESTRICTED True
THRESH  14
SYMMETRY FALSE
SYM_IGNORE TRUE
max_scf_cycles 200

XC_GRID 000099000590
BASIS DEF2-QZVPPD


$end



$comment
step_size = 0.01
$end






