$molecule
0 1
O -0.7744675780847213 0.6531043178023193 0.0
H 0.14025703359469982 0.34939803045057444 0.0
C -1.6136425272139452 -0.4879551624245647 -0.0
H -2.6432339552849293 -0.13325377868719132 -0.0
H -1.462388533292712 -1.1085037913708782 -0.8889593954447248
H -1.462388533292712 -1.1085037913708782 0.8889593954447248
O 2.013376918589418 -0.18097168016782228 -0.0
H 2.489364408054822 0.15888715329270753 -0.7607769936603287
H 2.489364408054822 0.15888715329270753 0.7607769936603287
$end


$rem
N_FROZEN_CORE FC
MEM_TOTAL 3750
MEM_STATIC 1500
AUX_BASIS_CORR rimp2-def2-QZVPPD
SCF_CONVERGENCE 7
SCF_ALGORITHM  GDM
method DSD-PBEPBE-D3
GEN_SCFMAN TRUE
UNRESTRICTED True
THRESH  14
SYMMETRY FALSE
SYM_IGNORE TRUE
max_scf_cycles 200

XC_GRID 000099000590
BASIS DEF2-QZVPPD


$end



$comment
step_size = 0.001
$end






