$molecule
0 1
F -2.2942537499391146e-12 1.2729672001856716 0.0
H 2.1004054168908166e-07 0.3234546855714969 0.0
N 1.9939044402415935e-08 -1.3728988286256407 0.0
H 0.940113545597267 -1.7481630867072724 0.0
H -0.4700570523735933 -1.7481623169054983 0.8141623856770922
H -0.4700570523735933 -1.7481623169054983 -0.8141623856770922
$end


$rem
N_FROZEN_CORE FC
MEM_TOTAL 3750
MEM_STATIC 1500
AUX_BASIS_CORR rimp2-def2-QZVPPD
SCF_CONVERGENCE 7
SCF_ALGORITHM  GDM
method DSD-PBEPBE-D3
GEN_SCFMAN TRUE
UNRESTRICTED True
THRESH  14
SYMMETRY FALSE
SYM_IGNORE TRUE
max_scf_cycles 200

XC_GRID 000099000590
BASIS DEF2-QZVPPD


$end



$comment
step_size = 0.001
$end






