$molecule
0 1
H 0.8151634940007415 1.8635848144695275 0.0
O -0.06709207438782235 1.4900852650655678 0.0
H 0.0715009367093189 0.5349185778006118 0.0
H -0.4122090426169002 -1.7605476832970004 0.7605484403876056
O 0.06316999142333736 -1.4193517625846521 0.0
H -0.4122090426169002 -1.7605476832970004 -0.7605484403876056
$end


$rem
N_FROZEN_CORE FC
MEM_TOTAL 3750
MEM_STATIC 1500
AUX_BASIS_CORR rimp2-def2-QZVPPD
SCF_CONVERGENCE 7
SCF_ALGORITHM  GDM
method DSD-PBEPBE-D3
GEN_SCFMAN TRUE
UNRESTRICTED True
THRESH  14
SYMMETRY FALSE
SYM_IGNORE TRUE
max_scf_cycles 200

XC_GRID 000099000590
BASIS DEF2-QZVPPD


$end



$comment
step_size = 0.001
$end






