$molecule
0 1
O -1.4769232634638747 -0.057949698569302474 0.0
H -1.850631080368361 0.8251223790718305 0.0
H -0.516001084496769 0.07730894790570636 0.0
N 1.4611710054540388 0.0142683446704467 0.0
H 1.6535685422500068 -0.9806053732823784 0.0
H 1.9254429353259646 0.3998142272015414 0.813420773082808
H 1.9254429353259646 0.3998142272015414 -0.813420773082808
$end


$rem
N_FROZEN_CORE FC
MEM_TOTAL 3750
MEM_STATIC 1500
AUX_BASIS_CORR rimp2-def2-QZVPPD
SCF_CONVERGENCE 7
SCF_ALGORITHM  GDM
method DSD-PBEPBE-D3
GEN_SCFMAN TRUE
UNRESTRICTED True
THRESH  14
SYMMETRY FALSE
SYM_IGNORE TRUE
max_scf_cycles 200

XC_GRID 000099000590
BASIS DEF2-QZVPPD


$end



$comment
step_size = 0.001
$end






