$molecule
0 1
F -7.124942764967933e-07 -1.463395057636153 0.0
H 2.0415616419567784e-05 -0.5434870440962839 0.0
C -6.150600225542339e-07 1.7661033812790583 0.0
H 0.5160274064488204 1.4158501225637348 0.8937831529677677
H 0.5160274064488204 1.4158501225637348 -0.8937831529677677
H -1.032048328442308 1.4158367029807186 0.0
H -6.242212884837853e-06 2.853565285444986 0.0
$end


$rem
N_FROZEN_CORE FC
MEM_TOTAL 3750
MEM_STATIC 1500
AUX_BASIS_CORR rimp2-def2-QZVPPD
SCF_CONVERGENCE 7
SCF_ALGORITHM  GDM
method DSD-PBEPBE-D3
GEN_SCFMAN TRUE
UNRESTRICTED True
THRESH  14
SYMMETRY FALSE
SYM_IGNORE TRUE
max_scf_cycles 200

XC_GRID 000099000590
BASIS DEF2-QZVPPD


$end



$comment
step_size = 0.003
$end






