$molecule
0 1
O -1.4770559901561298 -0.05795407809414372 0.0
H -1.8484411627538873 0.8250177141142884 0.0
H -0.51569150338837 0.07572498666840842 0.0
N 1.4611598473693705 0.01444904741498132 0.0
H 1.6524905919567094 -0.9806373174392949 0.0
H 1.925862912751565 0.39945389187637864 0.8134288157664966
H 1.925862912751565 0.39945389187637864 -0.8134288157664966
$end


$rem
N_FROZEN_CORE FC
MEM_TOTAL 3750
MEM_STATIC 1500
AUX_BASIS_CORR rimp2-def2-QZVPPD
SCF_CONVERGENCE 7
SCF_ALGORITHM  GDM
method DSD-PBEPBE-D3
GEN_SCFMAN TRUE
UNRESTRICTED True
THRESH  14
SYMMETRY FALSE
SYM_IGNORE TRUE
max_scf_cycles 200

XC_GRID 000099000590
BASIS DEF2-QZVPPD


$end



$comment
step_size = 0.003
$end






