$molecule
0 1
O -1.4769583938710524 -0.05789836320223316 0.0
H -1.850237571103949 0.824258018244033 0.0
H -0.5158388130346073 0.07735810421114132 0.0
N 1.4611558750166174 0.014194102991912505 0.0
H 1.6534284466424274 -0.9798473467165694 0.0
H 1.925618979092465 0.3999512213579527 0.8137515524019828
H 1.925618979092465 0.3999512213579527 -0.8137515524019828
$end


$rem
N_FROZEN_CORE FC
MEM_TOTAL 3750
MEM_STATIC 1500
AUX_BASIS_CORR rimp2-def2-QZVPPD
SCF_CONVERGENCE 7
SCF_ALGORITHM  GDM
method DSD-PBEPBE-D3
GEN_SCFMAN TRUE
UNRESTRICTED True
THRESH  14
SYMMETRY FALSE
SYM_IGNORE TRUE
max_scf_cycles 200

XC_GRID 000099000590
BASIS DEF2-QZVPPD


$end



$comment
step_size = 0.001
$end






