$molecule
0 1
N 0.06554038809026153 -2.4962030802978434 0.0
H -0.3761818101802519 -2.0810050982149666 0.8114132279150278
H -0.3761818101802519 -2.0810050982149666 -0.8114132279150278
H -0.19306914270880013 -3.4755007555860167 0.0
Ar 0.0008774199523542523 1.067298475946758 0.0
$end


$rem
N_FROZEN_CORE FC
MEM_TOTAL 3750
MEM_STATIC 1500
AUX_BASIS_CORR rimp2-def2-QZVPPD
SCF_CONVERGENCE 7
SCF_ALGORITHM  GDM
method DSD-PBEPBE-D3
GEN_SCFMAN TRUE
UNRESTRICTED True
THRESH  14
SYMMETRY FALSE
SYM_IGNORE TRUE
max_scf_cycles 200

XC_GRID 000099000590
BASIS DEF2-QZVPPD


$end



$comment
step_size = 0.01
$end






