$molecule
0 1
N -0.05930461665710922 1.6406348699825022 0.0
H 0.32348111241890015 2.112641386071353 -0.8102252855215161
H 0.32348111241890015 2.112641386071353 0.8102252855215161
H 0.3188298376389516 0.6976706019935175 0.0
N 0.03452149125200864 -1.5879030990744811 0.0
H -0.9358472054115295 -1.292531318650307 0.0
H 0.15720028759712001 -2.1815478885166186 -0.8122041742177477
H 0.15720028759712001 -2.1815478885166186 0.8122041742177477
$end


$rem
N_FROZEN_CORE FC
MEM_TOTAL 3750
MEM_STATIC 1500
AUX_BASIS_CORR rimp2-def2-QZVPPD
SCF_CONVERGENCE 7
SCF_ALGORITHM  GDM
method DSD-PBEPBE-D3
GEN_SCFMAN TRUE
UNRESTRICTED True
THRESH  14
SYMMETRY FALSE
SYM_IGNORE TRUE
max_scf_cycles 200

XC_GRID 000099000590
BASIS DEF2-QZVPPD


$end



$comment
step_size = 0.001
$end






