$molecule
0 1
N -0.05930802774229105 1.6405903547635832 0.0
H 0.32358763204137597 2.11303555991884 -0.8099990953781031
H 0.32358763204137597 2.11303555991884 0.8099990953781031
H 0.3186479760449396 0.6975066428720831 0.0
N 0.034462253412747064 -1.587903424377349 0.0
H -0.9352557097246197 -1.2925388428623712 0.0
H 0.15732418397713388 -2.1815448057399287 -0.8114859626400093
H 0.15732418397713388 -2.1815448057399287 0.8114859626400093
$end


$rem
N_FROZEN_CORE FC
MEM_TOTAL 3750
MEM_STATIC 1500
AUX_BASIS_CORR rimp2-def2-QZVPPD
SCF_CONVERGENCE 7
SCF_ALGORITHM  GDM
method DSD-PBEPBE-D3
GEN_SCFMAN TRUE
UNRESTRICTED True
THRESH  14
SYMMETRY FALSE
SYM_IGNORE TRUE
max_scf_cycles 200

XC_GRID 000099000590
BASIS DEF2-QZVPPD


$end



$comment
step_size = 0.001
$end






