$molecule
0 1
O -0.7744094754416736 0.653088578645458 0.0
H 0.13933399698230556 0.34966495112486234 0.0
C -1.613639860550658 -0.48795598512442073 0.0
H -2.6432482457492092 -0.1332477931050433 0.0
H -1.462392194256145 -1.1085156433358347 -0.8889599366914149
H -1.462392194256145 -1.1085156433358347 0.8889599366914149
O 2.0133263423013648 -0.18100533409739214 -0.0
H 2.4897611324475055 0.1591594020646494 -0.7602863377761774
H 2.4897611324475055 0.1591594020646494 0.7602863377761774
$end


$rem
N_FROZEN_CORE FC
MEM_TOTAL 3750
MEM_STATIC 1500
AUX_BASIS_CORR rimp2-def2-QZVPPD
SCF_CONVERGENCE 7
SCF_ALGORITHM  GDM
method DSD-PBEPBE-D3
GEN_SCFMAN TRUE
UNRESTRICTED True
THRESH  14
SYMMETRY FALSE
SYM_IGNORE TRUE
max_scf_cycles 200

XC_GRID 000099000590
BASIS DEF2-QZVPPD


$end



$comment
step_size = 0.001
$end






