$molecule
0 1
O -0.7744755683698735 0.6530926711287295 0.0
H 0.14023707496867938 0.3493836491694245 0.0
C -1.6137145974710383 -0.4880275486050694 -0.0
H -2.6430688011791794 -0.1326897639669738 0.0
H -1.4619579010653618 -1.1082632009083562 -0.8890696459158395
H -1.4619579010653618 -1.1082632009083562 0.8890696459158395
O 2.013319274980275 -0.1810090980680029 -0.0
H 2.4898110709540298 0.15919203623055522 -0.7603645419073891
H 2.4898110709540298 0.15919203623055522 0.7603645419073891
$end


$rem
N_FROZEN_CORE FC
MEM_TOTAL 3750
MEM_STATIC 1500
AUX_BASIS_CORR rimp2-def2-QZVPPD
SCF_CONVERGENCE 7
SCF_ALGORITHM  GDM
method DSD-PBEPBE-D3
GEN_SCFMAN TRUE
UNRESTRICTED True
THRESH  14
SYMMETRY FALSE
SYM_IGNORE TRUE
max_scf_cycles 200

XC_GRID 000099000590
BASIS DEF2-QZVPPD


$end



$comment
step_size = 0.001
$end






