$molecule
0 1
O -0.77446723 0.6531056 0.0005528877981323373
H 0.14024465 0.3493741 0.0022669034119471923
C -1.61364112 -0.48795506 -0.00037691972207001145
H -2.64323102 -0.1332504 -0.004865744580794952
H -1.4591086273110199 -1.1101993566921786 -0.8875931177902405
H -1.46567177268898 -1.1068196833078212 0.8903194422097596
O 2.01332033 -0.18100946 3.0568927843176974e-05
H 2.487015418961896 0.15756748600557158 -0.7628162335520403
H 2.4926020010381045 0.1608168539944284 0.7579167864479597
$end


$rem
N_FROZEN_CORE FC
MEM_TOTAL 3750
MEM_STATIC 1500
AUX_BASIS_CORR rimp2-def2-QZVPPD
SCF_CONVERGENCE 7
SCF_ALGORITHM  GDM
method DSD-PBEPBE-D3
GEN_SCFMAN TRUE
UNRESTRICTED True
THRESH  14
SYMMETRY FALSE
SYM_IGNORE TRUE
max_scf_cycles 200

XC_GRID 000099000590
BASIS DEF2-QZVPPD


$end



$comment
step_size = 0.01
$end






