$molecule
0 1
O -0.7746406297063234 0.6532739709686023 0.0
H 0.14009714110431026 0.3496056604677763 0.0
C -1.6135640606230945 -0.4879915767238591 0.0
H -2.6432375936164374 -0.13353606951598548 0.0
H -1.4621456515519842 -1.108501114893533 -0.8889556793625245
H -1.4621456515519842 -1.108501114893533 0.8889556793625245
O 2.0135326434599414 -0.1813185344411383 -0.0
H 2.4888736416746458 0.16054475169014615 -0.7603506294627831
H 2.4888736416746458 0.16054475169014615 0.7603506294627831
$end


$rem
N_FROZEN_CORE FC
MEM_TOTAL 3750
MEM_STATIC 1500
AUX_BASIS_CORR rimp2-def2-QZVPPD
SCF_CONVERGENCE 7
SCF_ALGORITHM  GDM
method DSD-PBEPBE-D3
GEN_SCFMAN TRUE
UNRESTRICTED True
THRESH  14
SYMMETRY FALSE
SYM_IGNORE TRUE
max_scf_cycles 200

XC_GRID 000099000590
BASIS DEF2-QZVPPD


$end



$comment
step_size = 0.003
$end






