$molecule
0 1
F -1.026219702347766e-10 1.2734088904386807 0.0
H 2.109180152495739e-07 0.3241444788490292 0.0
N 2.022936514426306e-08 -1.3733890934205992 0.0
H 0.9406331169631843 -1.7488978020808699 0.0
H -0.4703168395872746 -1.7488970285902006 0.8146123488905289
H -0.4703168395872746 -1.7488970285902006 -0.8146123488905289
$end


$rem
N_FROZEN_CORE FC
MEM_TOTAL 3750
MEM_STATIC 1500
AUX_BASIS_CORR rimp2-def2-QZVPPD
SCF_CONVERGENCE 7
SCF_ALGORITHM  GDM
method DSD-PBEPBE-D3
GEN_SCFMAN TRUE
UNRESTRICTED True
THRESH  14
SYMMETRY FALSE
SYM_IGNORE TRUE
max_scf_cycles 200

XC_GRID 000099000590
BASIS DEF2-QZVPPD


$end



$comment
step_size = 0.003
$end






