$molecule
0 1
O -1.6546425921286303 0.06251627962357263 0.0
H -2.074272136808729 -0.799629267564858 0.0
H -0.7143110330143747 -0.12845047442127738 0.0
C 1.8249934814459856 -0.004121136943265776 0.0
H 1.407493080600051 0.46257373580655564 0.8910478176630502
H 1.407493080600051 0.46257373580655564 -0.8910478176630502
H 2.9046011587383145 0.12973102524627614 0.0
H 1.599489713531828 -1.0699077751581438 0.0
$end


$rem
N_FROZEN_CORE FC
MEM_TOTAL 3750
MEM_STATIC 1500
AUX_BASIS_CORR rimp2-def2-QZVPPD
SCF_CONVERGENCE 7
SCF_ALGORITHM  GDM
method DSD-PBEPBE-D3
GEN_SCFMAN TRUE
UNRESTRICTED True
THRESH  14
SYMMETRY FALSE
SYM_IGNORE TRUE
max_scf_cycles 200

XC_GRID 000099000590
BASIS DEF2-QZVPPD


$end



$comment
step_size = 0.01
$end






