$molecule
0 1
F 8.506322264046562e-05 -1.4638423478799136 0.0
H 1.3050917971796681e-05 -0.5439340256319504 0.0
C -0.00011014780786168232 1.7666637422721416 0.0
H 0.5153318229765733 1.4155622383951285 0.8937938140907337
H 0.5153318229765733 1.4155622383954274 -0.8937938140910324
H -1.0327092056977842 1.4180575017660546 0.0
H 0.001740404329064513 2.854126932019656 2.98833089054004e-13
$end


$rem
N_FROZEN_CORE FC
MEM_TOTAL 3750
MEM_STATIC 1500
AUX_BASIS_CORR rimp2-def2-QZVPPD
SCF_CONVERGENCE 7
SCF_ALGORITHM  GDM
method DSD-PBEPBE-D3
GEN_SCFMAN TRUE
UNRESTRICTED True
THRESH  14
SYMMETRY FALSE
SYM_IGNORE TRUE
max_scf_cycles 200

XC_GRID 000099000590
BASIS DEF2-QZVPPD


$end



$comment
step_size = 0.003
$end






