$molecule
0 1
O -0.7743624066139887 0.6532402434335592 0.0
H 0.14027114044537115 0.3492424290717575 0.0
C -1.61377022825648 -0.48809126929909735 0.0
H -2.643385783026791 -0.1334791374558331 -0.0
H -1.4623782671504888 -1.1085983856212442 -0.8889526986635322
H -1.4623782671504888 -1.1085983856212442 0.8889526986635322
O 2.0133185482926317 -0.18100689543691204 0.0
H 2.4898118752799236 0.1591833549701398 -0.760367830122265
H 2.4898118752799236 0.1591833549701398 0.760367830122265
$end


$rem
N_FROZEN_CORE FC
MEM_TOTAL 3750
MEM_STATIC 1500
AUX_BASIS_CORR rimp2-def2-QZVPPD
SCF_CONVERGENCE 7
SCF_ALGORITHM  GDM
method DSD-PBEPBE-D3
GEN_SCFMAN TRUE
UNRESTRICTED True
THRESH  14
SYMMETRY FALSE
SYM_IGNORE TRUE
max_scf_cycles 200

XC_GRID 000099000590
BASIS DEF2-QZVPPD


$end



$comment
step_size = 0.001
$end






