$molecule
0 1
F 0.0 1.27295673 -1.7752178413291386e-08
H 2.1e-07 0.32364312 2.854496897830729e-06
N 1.9999492259380054e-08 -1.37286122 7.591101959303441e-05
H 0.940644920004881 -1.7483342900018928 2.1058368046573535e-05
H -0.4699992998002563 -1.748087438614639 0.8140834137407764
H -0.47064618019755233 -1.7485796013834685 -0.8151617262549403
$end


$rem
N_FROZEN_CORE FC
MEM_TOTAL 3750
MEM_STATIC 1500
AUX_BASIS_CORR rimp2-def2-QZVPPD
SCF_CONVERGENCE 7
SCF_ALGORITHM  GDM
method DSD-PBEPBE-D3
GEN_SCFMAN TRUE
UNRESTRICTED True
THRESH  14
SYMMETRY FALSE
SYM_IGNORE TRUE
max_scf_cycles 200

XC_GRID 000099000590
BASIS DEF2-QZVPPD


$end



$comment
step_size = 0.001
$end






