$molecule
0 1
O -0.7744668819152786 0.6531068821976806 0.0
H 0.14023226640530018 0.3493501695494256 0.0
C -1.613639712786055 -0.4879549575754353 0.0
H -2.6432280847150706 -0.13324702131280866 0.0
H -1.462391866707288 -1.1085152486291217 -0.8889531645552753
H -1.462391866707288 -1.1085152486291217 0.8889531645552753
O 2.013263741410582 -0.18104723983217774 0.0
H 2.4902530119451782 0.15949718670729246 -0.7599560263396713
H 2.4902530119451782 0.15949718670729246 0.7599560263396713
$end


$rem
N_FROZEN_CORE FC
MEM_TOTAL 3750
MEM_STATIC 1500
AUX_BASIS_CORR rimp2-def2-QZVPPD
SCF_CONVERGENCE 7
SCF_ALGORITHM  GDM
method DSD-PBEPBE-D3
GEN_SCFMAN TRUE
UNRESTRICTED True
THRESH  14
SYMMETRY FALSE
SYM_IGNORE TRUE
max_scf_cycles 200

XC_GRID 000099000590
BASIS DEF2-QZVPPD


$end



$comment
step_size = 0.001
$end






