$molecule
0 1
N -0.059376502614085815 1.6406333832968287 0.0
H 0.3238075761444023 2.112612455411157 -0.8101629206554841
H 0.3238075761444023 2.112612455411157 0.8101629206554841
H 0.3191993921364419 0.6977518986850153 0.0
N 0.03444239180822434 -1.5879915238587308 0.0
H -0.9351796136164058 -1.292378109680292 0.0
H 0.15740417274572938 -2.181011579960422 -0.8118697083406834
H 0.15740417274572938 -2.181011579960422 0.8118697083406834
$end


$rem
N_FROZEN_CORE FC
MEM_TOTAL 3750
MEM_STATIC 1500
AUX_BASIS_CORR rimp2-def2-QZVPPD
SCF_CONVERGENCE 7
SCF_ALGORITHM  GDM
method DSD-PBEPBE-D3
GEN_SCFMAN TRUE
UNRESTRICTED True
THRESH  14
SYMMETRY FALSE
SYM_IGNORE TRUE
max_scf_cycles 200

XC_GRID 000099000590
BASIS DEF2-QZVPPD


$end



$comment
step_size = 0.001
$end






