$molecule
0 1
C 6.291e-05 2.27820777 8.761107528536838e-05
H 0.0477745 3.36534141 1.9286779209692726e-05
H 0.4959974435160944 1.8932584593285178 0.8883029012508367
H -1.04110038 1.96099226 1.981512995707333e-05
H 0.49662397648390555 1.8927723206714822 -0.8893851587491634
N -1.5927048896653752e-06 -1.3040766320894477 0.5502491194788711
N -1.6072951103346247e-06 -1.3040765679105522 -0.550249120521129
$end


$rem
N_FROZEN_CORE FC
MEM_TOTAL 3750
MEM_STATIC 1500
AUX_BASIS_CORR rimp2-def2-QZVPPD
SCF_CONVERGENCE 7
SCF_ALGORITHM  GDM
method DSD-PBEPBE-D3
GEN_SCFMAN TRUE
UNRESTRICTED True
THRESH  14
SYMMETRY FALSE
SYM_IGNORE TRUE
max_scf_cycles 200

XC_GRID 000099000590
BASIS DEF2-QZVPPD


$end



$comment
step_size = 0.001
$end






