$molecule
0 1
O -0.7745720533860112 0.6529709565664407 0.0
H 0.14021815955462885 0.34950577092824253 0.0
C -1.61351201174352 -0.48781885070090264 -0.0
H -2.643076256973209 -0.1330216625441669 0.0
H -1.4624021328495111 -1.1084206543787556 -0.8889598613364679
H -1.4624021328495111 -1.1084206543787556 0.8889598613364679
O 2.0133221117073683 -0.181012024563088 -0.0
H 2.4898055447200766 0.1592009850298602 -0.7603651898777349
H 2.4898055447200766 0.1592009850298602 0.7603651898777349
$end


$rem
N_FROZEN_CORE FC
MEM_TOTAL 3750
MEM_STATIC 1500
AUX_BASIS_CORR rimp2-def2-QZVPPD
SCF_CONVERGENCE 7
SCF_ALGORITHM  GDM
method DSD-PBEPBE-D3
GEN_SCFMAN TRUE
UNRESTRICTED True
THRESH  14
SYMMETRY FALSE
SYM_IGNORE TRUE
max_scf_cycles 200

XC_GRID 000099000590
BASIS DEF2-QZVPPD


$end



$comment
step_size = 0.001
$end






