$molecule
0 1
O -1.6524633753260305 0.062367279405853605 0.0
H -2.0754516757196435 -0.7981463768539676 0.0
H -0.7128680957585564 -0.132199956653016 0.0
C 1.822801921479377 -0.0038189517075828527 0.0
H 1.406592375206359 0.46405981391500273 0.8910167236577834
H 1.406592375206359 0.46405981391500273 -0.8910167236577834
H 2.902784339621792 0.12687549584326663 0.0
H 1.5943533214692263 -1.0689911280561015 0.0
$end


$rem
N_FROZEN_CORE FC
MEM_TOTAL 3750
MEM_STATIC 1500
AUX_BASIS_CORR rimp2-def2-QZVPPD
SCF_CONVERGENCE 7
SCF_ALGORITHM  GDM
method DSD-PBEPBE-D3
GEN_SCFMAN TRUE
UNRESTRICTED True
THRESH  14
SYMMETRY FALSE
SYM_IGNORE TRUE
max_scf_cycles 200

XC_GRID 000099000590
BASIS DEF2-QZVPPD


$end



$comment
step_size = 0.01
$end






