$molecule
0 1
F -9.995801515637611e-09 1.759623964809629 0.0
H 3.398078503237383e-07 0.8341677290154079 0.0
C 4.992630123813794e-08 -1.3170461447811264 -0.6039955876537575
C 4.992630123813794e-08 -1.3170461447811264 0.6039955876537575
H -6.290664454297953e-07 -1.3204838274654607 1.668825904641756
H -6.290664454297953e-07 -1.3204838274654607 -1.668825904641756
$end


$rem
N_FROZEN_CORE FC
MEM_TOTAL 3750
MEM_STATIC 1500
AUX_BASIS_CORR rimp2-def2-QZVPPD
SCF_CONVERGENCE 7
SCF_ALGORITHM  GDM
method DSD-PBEPBE-D3
GEN_SCFMAN TRUE
UNRESTRICTED True
THRESH  14
SYMMETRY FALSE
SYM_IGNORE TRUE
max_scf_cycles 200

XC_GRID 000099000590
BASIS DEF2-QZVPPD


$end



$comment
step_size = 0.003
$end






