$molecule
0 1
N -0.05943417758939814 1.6407444330328462 0.0
H 0.32444255369433206 2.1119688590378023 -0.8102473133949488
H 0.32444255369433206 2.1119688590378023 0.8102473133949488
H 0.3171159215296967 0.6970702751160532 0.0
N 0.03465964345614278 -1.587950925872751 0.0
H -0.9348097840033122 -1.2916818490559507 0.0
H 0.15651740863224342 -2.1814288253876812 -0.8117490197088593
H 0.15651740863224342 -2.1814288253876812 0.8117490197088593
$end


$rem
N_FROZEN_CORE FC
MEM_TOTAL 3750
MEM_STATIC 1500
AUX_BASIS_CORR rimp2-def2-QZVPPD
SCF_CONVERGENCE 7
SCF_ALGORITHM  GDM
method DSD-PBEPBE-D3
GEN_SCFMAN TRUE
UNRESTRICTED True
THRESH  14
SYMMETRY FALSE
SYM_IGNORE TRUE
max_scf_cycles 200

XC_GRID 000099000590
BASIS DEF2-QZVPPD


$end



$comment
step_size = 0.003
$end






