$molecule
0 1
H 3.01283946 -0.78400249 -0.002343042637492636
O 2.56333698 0.06301936 -0.0002874531303967584
H 1.63101163 -0.16177196 0.009604094407349655
Ar -1.14308861 -0.00137164 -6.806595332923318e-05
$end


$rem
N_FROZEN_CORE FC
MEM_TOTAL 3750
MEM_STATIC 1500
AUX_BASIS_CORR rimp2-def2-QZVPPD
SCF_CONVERGENCE 7
SCF_ALGORITHM  GDM
method DSD-PBEPBE-D3
GEN_SCFMAN TRUE
UNRESTRICTED True
THRESH  14
SYMMETRY FALSE
SYM_IGNORE TRUE
max_scf_cycles 200

XC_GRID 000099000590
BASIS DEF2-QZVPPD


$end



$comment
step_size = 0.01
$end






