$molecule
0 1
O -1.6538506036127874 0.06227686582570388 0.0
H -2.072522214811379 -0.8003329058677611 0.0
H -0.7133132532207328 -0.12764586228439323 0.0
C 1.8240998767133838 -0.003967254451346208 0.0
H 1.4084796033207472 0.46502069594293566 0.8907343893863281
H 1.4084796033207472 0.46502069594293566 -0.8907343893863281
H 2.9042276599460695 0.12537793585203208 0.0
H 1.5932130295992544 -1.0685821589479103 0.0
$end


$rem
N_FROZEN_CORE FC
MEM_TOTAL 3750
MEM_STATIC 1500
AUX_BASIS_CORR rimp2-def2-QZVPPD
SCF_CONVERGENCE 7
SCF_ALGORITHM  GDM
method DSD-PBEPBE-D3
GEN_SCFMAN TRUE
UNRESTRICTED True
THRESH  14
SYMMETRY FALSE
SYM_IGNORE TRUE
max_scf_cycles 200

XC_GRID 000099000590
BASIS DEF2-QZVPPD


$end



$comment
step_size = 0.001
$end






