$molecule
0 1
F -7e-07 -1.46384241 6.117926106625516e-07
H 2.04e-05 -0.54393409 -3.3712675243329904e-05
C -6.3e-07 1.76666382 1.0694148184947755e-06
H 0.5163075355314998 1.4168162669953495 0.8937804518778322
H 0.5157416644684008 1.4159805930046507 -0.8937764681222675
H -1.032043 1.4163853599999003 -0.0004880715985077778
H -5.9999999003889704e-06 2.854127 0.0004935343414862911
$end


$rem
N_FROZEN_CORE FC
MEM_TOTAL 3750
MEM_STATIC 1500
AUX_BASIS_CORR rimp2-def2-QZVPPD
SCF_CONVERGENCE 7
SCF_ALGORITHM  GDM
method DSD-PBEPBE-D3
GEN_SCFMAN TRUE
UNRESTRICTED True
THRESH  14
SYMMETRY FALSE
SYM_IGNORE TRUE
max_scf_cycles 200

XC_GRID 000099000590
BASIS DEF2-QZVPPD


$end



$comment
step_size = 0.001
$end






