$molecule
0 1
N -0.05927139194749121 1.6406206078208774 0.0
H 0.32335279569843844 2.1124350339923406 -0.8098696095435058
H 0.32335279569843844 2.1124350339923406 0.8098696095435058
H 0.3186256285656333 0.6982799929596941 0.0
N 0.03449281665888735 -1.587932931509879 0.0
H -0.9352363262526847 -1.2927668097518827 0.0
H 0.1570936588188857 -2.1812221534823557 -0.8117067911394631
H 0.1570936588188857 -2.1812221534823557 0.8117067911394631
$end


$rem
N_FROZEN_CORE FC
MEM_TOTAL 3750
MEM_STATIC 1500
AUX_BASIS_CORR rimp2-def2-QZVPPD
SCF_CONVERGENCE 7
SCF_ALGORITHM  GDM
method DSD-PBEPBE-D3
GEN_SCFMAN TRUE
UNRESTRICTED True
THRESH  14
SYMMETRY FALSE
SYM_IGNORE TRUE
max_scf_cycles 200

XC_GRID 000099000590
BASIS DEF2-QZVPPD


$end



$comment
step_size = 0.001
$end






