$molecule
0 1
C 0.00015047187808536267 2.278205551177617 0.0
H 0.047793207457896864 3.365325405724966 0.0
H 0.4961521400203488 1.8931532587838853 0.8885246744351979
H -1.0418444280304802 1.9607590381114923 0.0
H 0.4961521400203488 1.8931532587838853 -0.8885246744351979
N -1.6037334167784642e-06 -1.3040766033202762 0.5502491338922644
N -1.6037334167784642e-06 -1.3040766033202762 -0.5502491338922644
$end


$rem
N_FROZEN_CORE FC
MEM_TOTAL 3750
MEM_STATIC 1500
AUX_BASIS_CORR rimp2-def2-QZVPPD
SCF_CONVERGENCE 7
SCF_ALGORITHM  GDM
method DSD-PBEPBE-D3
GEN_SCFMAN TRUE
UNRESTRICTED True
THRESH  14
SYMMETRY FALSE
SYM_IGNORE TRUE
max_scf_cycles 200

XC_GRID 000099000590
BASIS DEF2-QZVPPD


$end



$comment
step_size = 0.001
$end






