$molecule
0 1
H 0.8148592777280383 1.8642837988550753 0.0
O -0.06702182109128697 1.4900489497658493 0.0
H 0.07065451733687543 0.5347989781216443 0.0
H -0.4125459323948931 -1.7607804196392138 0.7602379208912105
O 0.0632146928706227 -1.419322624778033 0.0
H -0.4125459323948931 -1.7607804196392138 -0.7602379208912105
$end


$rem
N_FROZEN_CORE FC
MEM_TOTAL 3750
MEM_STATIC 1500
AUX_BASIS_CORR rimp2-def2-QZVPPD
SCF_CONVERGENCE 7
SCF_ALGORITHM  GDM
method DSD-PBEPBE-D3
GEN_SCFMAN TRUE
UNRESTRICTED True
THRESH  14
SYMMETRY FALSE
SYM_IGNORE TRUE
max_scf_cycles 200

XC_GRID 000099000590
BASIS DEF2-QZVPPD


$end



$comment
step_size = 0.001
$end






