$molecule
0 1
C      -1.688997820000000      0.514221870000000      0.000000000000000
O      -2.515289560000000     -0.259054390000000      0.000000000000000
C       1.688997820000000     -0.514221870000000      0.000000000000000
O       2.515289560000000      0.259054390000000      0.000000000000000
$end


$rem
N_FROZEN_CORE FC
MEM_TOTAL 3750
MEM_STATIC 1500
AUX_BASIS_CORR rimp2-def2-QZVPPD
SCF_CONVERGENCE 7
SCF_ALGORITHM  GDM
method DSD-PBEPBE-D3
GEN_SCFMAN TRUE
UNRESTRICTED True
THRESH  14
SYMMETRY FALSE
SYM_IGNORE TRUE
max_scf_cycles 200

XC_GRID 000099000590
BASIS DEF2-QZVPPD


$end



$comment
step_size = {step_size}
$end






