$molecule
0 1
N -0.0593083 1.64063502 -6.42787280074013e-05
H 0.3232946395783081 2.113026370954155 -0.810190966926524
H 0.32370100042169186 2.1123080490458452 0.810349853073476
H 0.31884714 0.69761594 0.0007568941062414195
N 0.03449577 -1.58793052 -8.348277793613728e-06
H -0.93529327 -1.29274353 7.152613705788515e-05
H 0.1571336750365764 -2.1812659953270863 -0.811737450667118
H 0.1570708049634236 -2.1812356446729133 0.811759249332882
$end


$rem
N_FROZEN_CORE FC
MEM_TOTAL 3750
MEM_STATIC 1500
AUX_BASIS_CORR rimp2-def2-QZVPPD
SCF_CONVERGENCE 7
SCF_ALGORITHM  GDM
method DSD-PBEPBE-D3
GEN_SCFMAN TRUE
UNRESTRICTED True
THRESH  14
SYMMETRY FALSE
SYM_IGNORE TRUE
max_scf_cycles 200

XC_GRID 000099000590
BASIS DEF2-QZVPPD


$end



$comment
step_size = 0.001
$end






