$molecule
0 1
C 2.621170222120901e-11 2.630628096515231 0.0
H -0.5131633608943202 2.2670584037172814 0.8888218115072433
H -0.5131633608943202 2.2670584037172814 -0.8888218115072433
H 5.622575343561468e-06 3.71938203349738 0.0
H 1.0263211288988248 2.2670504802100764 0.0
Ar 4.745648471020622e-14 -1.0552526249175054 0.0
$end


$rem
N_FROZEN_CORE FC
MEM_TOTAL 3750
MEM_STATIC 1500
AUX_BASIS_CORR rimp2-def2-QZVPPD
SCF_CONVERGENCE 7
SCF_ALGORITHM  GDM
method DSD-PBEPBE-D3
GEN_SCFMAN TRUE
UNRESTRICTED True
THRESH  14
SYMMETRY FALSE
SYM_IGNORE TRUE
max_scf_cycles 200

XC_GRID 000099000590
BASIS DEF2-QZVPPD


$end



$comment
step_size = 0.001
$end






