$molecule
0 1
O -1.65385108 0.06227712 1.7094654366546006e-07
H -2.07252159 -0.80033314 1.9339169630755376e-06
H -0.7133127 -0.12764805 -1.0294462734574953e-05
C 1.82403012 -0.00387606 -0.00011464258674300103
H 1.4088786446438673 0.4645079751471816 0.8911644196911208
H 1.4084711153561327 0.46496212485281835 -0.8909029803088793
H 2.90424147 0.12490066 0.0005479292552214928
H 1.59364563 -1.06862104 0.000561308500712486
$end


$rem
N_FROZEN_CORE FC
MEM_TOTAL 3750
MEM_STATIC 1500
AUX_BASIS_CORR rimp2-def2-QZVPPD
SCF_CONVERGENCE 7
SCF_ALGORITHM  GDM
method DSD-PBEPBE-D3
GEN_SCFMAN TRUE
UNRESTRICTED True
THRESH  14
SYMMETRY FALSE
SYM_IGNORE TRUE
max_scf_cycles 200

XC_GRID 000099000590
BASIS DEF2-QZVPPD


$end



$comment
step_size = 0.001
$end






