$molecule
0 1
F -0.007330444550403438 1.2994804361171903 0.0
H 0.040815272647524214 0.3668571319758341 0.0
O 0.05314257021427984 -1.3468202335713617 0.0
H -0.3730204791294332 -1.7441056047134347 0.7627551032831692
H -0.3730204791294332 -1.7441056047134347 -0.7627551032831692
$end


$rem
N_FROZEN_CORE FC
MEM_TOTAL 3750
MEM_STATIC 1500
AUX_BASIS_CORR rimp2-def2-QZVPPD
SCF_CONVERGENCE 7
SCF_ALGORITHM  GDM
method DSD-PBEPBE-D3
GEN_SCFMAN TRUE
UNRESTRICTED True
THRESH  14
SYMMETRY FALSE
SYM_IGNORE TRUE
max_scf_cycles 200

XC_GRID 000099000590
BASIS DEF2-QZVPPD


$end



$comment
step_size = 0.001
$end






