$molecule
0 1
C 1.1221059402570167e-07 2.630627979998239 0.0
H -0.512596722822607 2.2674594675539046 0.8887023522250416
H -0.5125967228254957 2.2674594675580884 -0.8887023522250416
H -0.0004929807248064729 3.7188848225702635 -2.4902757421166995e-12
H 1.02568533292296 2.266747152330494 2.4902757421166995e-12
Ar -5.363262981867483e-09 -1.055252629999826 0.0
$end


$rem
N_FROZEN_CORE FC
MEM_TOTAL 3750
MEM_STATIC 1500
AUX_BASIS_CORR rimp2-def2-QZVPPD
SCF_CONVERGENCE 7
SCF_ALGORITHM  GDM
method DSD-PBEPBE-D3
GEN_SCFMAN TRUE
UNRESTRICTED True
THRESH  14
SYMMETRY FALSE
SYM_IGNORE TRUE
max_scf_cycles 200

XC_GRID 000099000590
BASIS DEF2-QZVPPD


$end



$comment
step_size = 0.001
$end






