$molecule
0 1
O -1.6538507906459126 0.06227703335080378 0.0
H -2.072521936859252 -0.8003332493078645 0.0
H -0.7133156879793633 -0.1276461382234809 0.0
C 1.8239427973825635 -0.0038753831105029506 0.0
H 1.4087701140971336 0.4646059683678359 0.8907880345627067
H 1.4087701140971336 0.4646059683678359 -0.8907880345627067
H 2.9050762523042386 0.12500256503245155 0.0
H 1.5936588575251425 -1.068473268657935 0.0
$end


$rem
N_FROZEN_CORE FC
MEM_TOTAL 3750
MEM_STATIC 1500
AUX_BASIS_CORR rimp2-def2-QZVPPD
SCF_CONVERGENCE 7
SCF_ALGORITHM  GDM
method DSD-PBEPBE-D3
GEN_SCFMAN TRUE
UNRESTRICTED True
THRESH  14
SYMMETRY FALSE
SYM_IGNORE TRUE
max_scf_cycles 200

XC_GRID 000099000590
BASIS DEF2-QZVPPD


$end



$comment
step_size = 0.001
$end






