$molecule
0 1
N -0.05931899125075922 1.6410964660734892 0.0
H 0.3233390984762123 2.1132442110957235 -0.8102725490744452
H 0.3233390984762123 2.1132442110957235 0.8102725490744452
H 0.31915273098121477 0.6982053330928129 0.0
N 0.034543874843019434 -1.5884436567054303 0.0
H -0.9350342779922254 -1.2925619721201171 0.0
H 0.15671875123731077 -2.1818541927626116 -0.8117475064073383
H 0.15671875123731077 -2.1818541927626116 0.8117475064073383
$end


$rem
N_FROZEN_CORE FC
MEM_TOTAL 3750
MEM_STATIC 1500
AUX_BASIS_CORR rimp2-def2-QZVPPD
SCF_CONVERGENCE 7
SCF_ALGORITHM  GDM
method DSD-PBEPBE-D3
GEN_SCFMAN TRUE
UNRESTRICTED True
THRESH  14
SYMMETRY FALSE
SYM_IGNORE TRUE
max_scf_cycles 200

XC_GRID 000099000590
BASIS DEF2-QZVPPD


$end



$comment
step_size = 0.003
$end






