$molecule
0 1
C -2.10004626 -0.57556606 0.00016960839013281534
C -2.73275739 0.45216878 0.00017127072693461006
H -1.54216374 -1.4811784 -0.002026327768259431
H -3.29012392 1.35807265 -0.0020328114977956778
Ar 1.57307294 0.04015867 8.750453759230216e-09
$end


$rem
N_FROZEN_CORE FC
MEM_TOTAL 3750
MEM_STATIC 1500
AUX_BASIS_CORR rimp2-def2-QZVPPD
SCF_CONVERGENCE 7
SCF_ALGORITHM  GDM
method DSD-PBEPBE-D3
GEN_SCFMAN TRUE
UNRESTRICTED True
THRESH  14
SYMMETRY FALSE
SYM_IGNORE TRUE
max_scf_cycles 200

XC_GRID 000099000590
BASIS DEF2-QZVPPD


$end



$comment
step_size = 0.003
$end






