$molecule
0 1
F -0.007418782617285301 1.2994695488121661 0.0
H 0.04365641052847342 0.36700193904645895 0.0
O 0.05298470724454683 -1.3468276974862574 0.0
H -0.3723557223393209 -1.7440161616672722 0.7631931596729666
H -0.3723557223393209 -1.7440161616672722 -0.7631931596729666
$end


$rem
N_FROZEN_CORE FC
MEM_TOTAL 3750
MEM_STATIC 1500
AUX_BASIS_CORR rimp2-def2-QZVPPD
SCF_CONVERGENCE 7
SCF_ALGORITHM  GDM
method DSD-PBEPBE-D3
GEN_SCFMAN TRUE
UNRESTRICTED True
THRESH  14
SYMMETRY FALSE
SYM_IGNORE TRUE
max_scf_cycles 200

XC_GRID 000099000590
BASIS DEF2-QZVPPD


$end



$comment
step_size = 0.003
$end






