$molecule
0 1
N -0.05931498682114491 1.640560024167749 0.0
H 0.3236692381751351 2.1128823827627947 -0.8106728769640621
H 0.3236692381751351 2.1128823827627947 0.8106728769640621
H 0.3185970787025659 0.6982283597293834 0.0
N 0.03449510067774217 -1.5879293387003741 0.0
H -0.9352893825897174 -1.2927443646655215 0.0
H 0.15710501318501197 -2.181258982810307 -0.8117618119418706
H 0.15710501318501197 -2.181258982810307 0.8117618119418706
$end


$rem
N_FROZEN_CORE FC
MEM_TOTAL 3750
MEM_STATIC 1500
AUX_BASIS_CORR rimp2-def2-QZVPPD
SCF_CONVERGENCE 7
SCF_ALGORITHM  GDM
method DSD-PBEPBE-D3
GEN_SCFMAN TRUE
UNRESTRICTED True
THRESH  14
SYMMETRY FALSE
SYM_IGNORE TRUE
max_scf_cycles 200

XC_GRID 000099000590
BASIS DEF2-QZVPPD


$end



$comment
step_size = 0.001
$end






