$molecule
0 1
O -1.4769058525554206 -0.0578813127405652 0.0
H -1.8501337469391022 0.824088309691805 0.0
H -0.5167662227297855 0.07726032767685023 0.0
N 1.4611701994206416 0.014269542873479315 0.0
H 1.6535725022123813 -0.9806334833804806 0.0
H 1.9254422955260142 0.3998186365651526 0.8134286476962926
H 1.9254422955260142 0.3998186365651526 -0.8134286476962926
$end


$rem
N_FROZEN_CORE FC
MEM_TOTAL 3750
MEM_STATIC 1500
AUX_BASIS_CORR rimp2-def2-QZVPPD
SCF_CONVERGENCE 7
SCF_ALGORITHM  GDM
method DSD-PBEPBE-D3
GEN_SCFMAN TRUE
UNRESTRICTED True
THRESH  14
SYMMETRY FALSE
SYM_IGNORE TRUE
max_scf_cycles 200

XC_GRID 000099000590
BASIS DEF2-QZVPPD


$end



$comment
step_size = 0.001
$end






