$molecule
0 1
F -0.0073302 1.29948237 -6.918709436914612e-05
H 0.04079339 0.36684741 0.002741702957488742
O 0.05309571 -1.34687005 -0.00011697332058466808
H -0.3727273234909477 -1.7430155762311612 0.7633745035632558
H -0.3725526565090522 -1.7444317437688386 -0.7629555164367443
$end


$rem
N_FROZEN_CORE FC
MEM_TOTAL 3750
MEM_STATIC 1500
AUX_BASIS_CORR rimp2-def2-QZVPPD
SCF_CONVERGENCE 7
SCF_ALGORITHM  GDM
method DSD-PBEPBE-D3
GEN_SCFMAN TRUE
UNRESTRICTED True
THRESH  14
SYMMETRY FALSE
SYM_IGNORE TRUE
max_scf_cycles 200

XC_GRID 000099000590
BASIS DEF2-QZVPPD


$end



$comment
step_size = 0.003
$end






