$molecule
0 1
O -1.65385108 0.06227712 6.586644070400203e-07
H -2.07252159 -0.80033314 -1.546912473818942e-06
H -0.7133127 -0.12764805 -2.1374605473567133e-05
C 1.82403012 -0.00387606 2.2106539734676556e-07
H 1.4090518142364066 0.4650673011894802 0.891035459191049
H 1.4082979457635934 0.46440279881051977 -0.8910319408089511
H 2.90424147 0.12490066 0.000496515755984596
H 1.59364563 -1.06862104 -0.0004901982875168286
$end


$rem
N_FROZEN_CORE FC
MEM_TOTAL 3750
MEM_STATIC 1500
AUX_BASIS_CORR rimp2-def2-QZVPPD
SCF_CONVERGENCE 7
SCF_ALGORITHM  GDM
method DSD-PBEPBE-D3
GEN_SCFMAN TRUE
UNRESTRICTED True
THRESH  14
SYMMETRY FALSE
SYM_IGNORE TRUE
max_scf_cycles 200

XC_GRID 000099000590
BASIS DEF2-QZVPPD


$end



$comment
step_size = 0.001
$end






