$molecule
0 1
O -1.47695936 -0.05789871 2.8449196452639268e-08
H -1.85023887 0.82426102 -1.878165964704415e-08
H -0.515823 0.07736194 -1.5539796771530099e-06
N 1.46117117 0.01426827 -7.58180905531311e-05
H 1.65356907 -0.98060402 -2.2555598124782833e-05
H 1.9257486549002374 0.4000826110253883 0.8139584399772404
H 1.9251369850997626 0.39954466897461177 -0.8128813200227596
$end


$rem
N_FROZEN_CORE FC
MEM_TOTAL 3750
MEM_STATIC 1500
AUX_BASIS_CORR rimp2-def2-QZVPPD
SCF_CONVERGENCE 7
SCF_ALGORITHM  GDM
method DSD-PBEPBE-D3
GEN_SCFMAN TRUE
UNRESTRICTED True
THRESH  14
SYMMETRY FALSE
SYM_IGNORE TRUE
max_scf_cycles 200

XC_GRID 000099000590
BASIS DEF2-QZVPPD


$end



$comment
step_size = 0.001
$end






