$molecule
0 1
O -0.774980886639094 0.654084500209612 0.0
H 0.14018327900710068 0.351726879792952 0.0
C -1.6121735210387618 -0.48843683906436314 0.0
H -2.6423876757024214 -0.1355438323144474 -0.0
H -1.4598223985334662 -1.1087302859478112 -0.8889522643696032
H -1.4598223985334662 -1.1087302859478112 0.8889522643696032
O 2.0123253431439747 -0.18133423520177222 0.0
H 2.4900843311810488 0.15706077250906264 -0.7603753905693357
H 2.4900843311810488 0.15706077250906264 0.7603753905693357
$end


$rem
N_FROZEN_CORE FC
MEM_TOTAL 3750
MEM_STATIC 1500
AUX_BASIS_CORR rimp2-def2-QZVPPD
SCF_CONVERGENCE 7
SCF_ALGORITHM  GDM
method DSD-PBEPBE-D3
GEN_SCFMAN TRUE
UNRESTRICTED True
THRESH  14
SYMMETRY FALSE
SYM_IGNORE TRUE
max_scf_cycles 200

XC_GRID 000099000590
BASIS DEF2-QZVPPD


$end



$comment
step_size = 0.01
$end






