$molecule
0 1
N 0.06559032360900195 -2.498361932884706 0.0
H -0.37583110978522727 -2.0824417262099675 0.8117383769481616
H -0.37583110978522727 -2.0824417262099675 -0.8117383769481616
H -0.19395398992655694 -3.47653290168684 0.0
Ar 0.0008645486858033877 1.0681534432146877 0.0
$end


$rem
N_FROZEN_CORE FC
MEM_TOTAL 3750
MEM_STATIC 1500
AUX_BASIS_CORR rimp2-def2-QZVPPD
SCF_CONVERGENCE 7
SCF_ALGORITHM  GDM
method DSD-PBEPBE-D3
GEN_SCFMAN TRUE
UNRESTRICTED True
THRESH  14
SYMMETRY FALSE
SYM_IGNORE TRUE
max_scf_cycles 200

XC_GRID 000099000590
BASIS DEF2-QZVPPD


$end



$comment
step_size = 0.001
$end






