$molecule
0 1
N 0.06562059190973848 -2.5003705997021566 0.0
H -0.3751527698197481 -2.084166981785033 0.8114144120849721
H -0.3751527698197481 -2.084166981785033 -0.8114144120849721
H -0.1952209572911999 -3.479075064413983 0.0
Ar 0.0008516800476457476 1.069008424053242 0.0
$end


$rem
N_FROZEN_CORE FC
MEM_TOTAL 3750
MEM_STATIC 1500
AUX_BASIS_CORR rimp2-def2-QZVPPD
SCF_CONVERGENCE 7
SCF_ALGORITHM  GDM
method DSD-PBEPBE-D3
GEN_SCFMAN TRUE
UNRESTRICTED True
THRESH  14
SYMMETRY FALSE
SYM_IGNORE TRUE
max_scf_cycles 200

XC_GRID 000099000590
BASIS DEF2-QZVPPD


$end



$comment
step_size = 0.01
$end






