$molecule
0 1
O -0.00027703402548041287 -1.16311295 1.62818447
C 0.0007385148014193765 0.0 1.62822124
O -0.00027703402548041287 1.16311295 1.62818447
Ar 2.340743651846212e-09 0.0 -1.79228543
$end


$rem
N_FROZEN_CORE FC
MEM_TOTAL 3750
MEM_STATIC 1500
AUX_BASIS_CORR rimp2-def2-QZVPPD
SCF_CONVERGENCE 7
SCF_ALGORITHM  GDM
method DSD-PBEPBE-D3
GEN_SCFMAN TRUE
UNRESTRICTED True
THRESH  14
SYMMETRY FALSE
SYM_IGNORE TRUE
max_scf_cycles 200

XC_GRID 000099000590
BASIS DEF2-QZVPPD


$end



$comment
step_size = 0.003
$end






