$molecule
0 1
O -1.4769609827781343 -0.05789910322287021 0.0
H -1.8502411336196098 0.8242641840797104 0.0
H -0.5157959755141991 0.0773652442049365 0.0
N 1.4611342895387311 0.014276889200866262 0.0
H 1.6536393290500957 -0.9811817570660388 0.0
H 1.9256644023982603 0.4000425156589648 0.813883465007402
H 1.9256644023982603 0.4000425156589648 -0.813883465007402
$end


$rem
N_FROZEN_CORE FC
MEM_TOTAL 3750
MEM_STATIC 1500
AUX_BASIS_CORR rimp2-def2-QZVPPD
SCF_CONVERGENCE 7
SCF_ALGORITHM  GDM
method DSD-PBEPBE-D3
GEN_SCFMAN TRUE
UNRESTRICTED True
THRESH  14
SYMMETRY FALSE
SYM_IGNORE TRUE
max_scf_cycles 200

XC_GRID 000099000590
BASIS DEF2-QZVPPD


$end



$comment
step_size = 0.001
$end






