$molecule
0 1
O -1.4773664173882932 -0.0579300063409765 0.0
H -1.8510455821808394 0.8240614081241221 0.0
H -0.5163044226492368 0.0777675146709024 0.0
N 1.4616404749717664 0.0143518355010689 0.0
H 1.6530710397619046 -0.980709658375251 0.0
H 1.9263057066716183 0.3994312815077269 0.8134164922777894
H 1.9263057066716183 0.3994312815077269 -0.8134164922777894
$end


$rem
N_FROZEN_CORE FC
MEM_TOTAL 3750
MEM_STATIC 1500
AUX_BASIS_CORR rimp2-def2-QZVPPD
SCF_CONVERGENCE 7
SCF_ALGORITHM  GDM
method DSD-PBEPBE-D3
GEN_SCFMAN TRUE
UNRESTRICTED True
THRESH  14
SYMMETRY FALSE
SYM_IGNORE TRUE
max_scf_cycles 200

XC_GRID 000099000590
BASIS DEF2-QZVPPD


$end



$comment
step_size = 0.003
$end






