$molecule
0 1
H 0.8148171436706829 1.8635529808637208 0.0
O -0.06705475749366971 1.490030803717884 0.0
H 0.07125363898503005 0.535804574542003 0.0
H -0.4125994865128451 -1.7608351096246262 0.760091311941728
O 0.0632192827836261 -1.4193149003366066 0.0
H -0.4125994865128451 -1.7608351096246262 -0.760091311941728
$end


$rem
N_FROZEN_CORE FC
MEM_TOTAL 3750
MEM_STATIC 1500
AUX_BASIS_CORR rimp2-def2-QZVPPD
SCF_CONVERGENCE 7
SCF_ALGORITHM  GDM
method DSD-PBEPBE-D3
GEN_SCFMAN TRUE
UNRESTRICTED True
THRESH  14
SYMMETRY FALSE
SYM_IGNORE TRUE
max_scf_cycles 200

XC_GRID 000099000590
BASIS DEF2-QZVPPD


$end



$comment
step_size = 0.001
$end






