$molecule
0 1
F -1.0000091770149998e-08 1.759615578955141 0.0
H 3.4000209183162334e-07 0.8341549414478784 0.0
C 5.003192746988618e-08 -1.3168687956635325 -0.6039056077677928
C 5.003192746988618e-08 -1.3168687956635325 0.6039056077677928
H -6.303804145223658e-07 -1.3225100587150151 1.6694455147818619
H -6.303804145223658e-07 -1.3225100587150151 -1.6694455147818619
$end


$rem
N_FROZEN_CORE FC
MEM_TOTAL 3750
MEM_STATIC 1500
AUX_BASIS_CORR rimp2-def2-QZVPPD
SCF_CONVERGENCE 7
SCF_ALGORITHM  GDM
method DSD-PBEPBE-D3
GEN_SCFMAN TRUE
UNRESTRICTED True
THRESH  14
SYMMETRY FALSE
SYM_IGNORE TRUE
max_scf_cycles 200

XC_GRID 000099000590
BASIS DEF2-QZVPPD


$end



$comment
step_size = 0.001
$end






