$molecule
0 1
C 1.8243777261342626 0.0002628014801938187 0.0003257905772751171
H 1.4639026145905143 0.8878087289786369 0.51685844667909
H 1.4570937908675237 0.0041826560589042616 -1.0241548445052615
H 1.459588091840137 -0.8885696565394006 0.5115724551696048
H 2.912697681913089 -0.002362384912459267 -0.0029622009914703606
C -1.8243777261342626 -0.0002628014801938187 -0.0003257905772751171
H -2.912697681913089 0.002362384912459267 0.0029622009914703606
H -1.4570937908675237 -0.0041826560589042616 1.0241548445052615
H -1.4639026145905143 -0.8878087289786369 -0.51685844667909
H -1.459588091840137 0.8885696565394006 -0.5115724551696048
$end


$rem
N_FROZEN_CORE FC
MEM_TOTAL 3750
MEM_STATIC 1500
AUX_BASIS_CORR rimp2-def2-QZVPPD
SCF_CONVERGENCE 7
SCF_ALGORITHM  GDM
method DSD-PBEPBE-D3
GEN_SCFMAN TRUE
UNRESTRICTED True
THRESH  14
SYMMETRY FALSE
SYM_IGNORE TRUE
max_scf_cycles 200

XC_GRID 000099000590
BASIS DEF2-QZVPPD


$end



$comment
step_size = 0.01
$end






