$molecule
0 1
F -8.646322264046562e-05 -1.4638424721200864 0.0
H 2.7749082028203323e-05 -0.5439341543680497 0.0
C 0.00010888780786168232 1.7666638977278584 0.0
H 0.5167173770234268 1.4172346216048717 0.8937631059092664
H 0.5167173770234268 1.4172346216045728 -0.8937631059089677
H -1.0313767943022158 1.4147132182339455 0.0
H -0.0017524043290645128 2.854127067980344 -2.98833089054004e-13
$end


$rem
N_FROZEN_CORE FC
MEM_TOTAL 3750
MEM_STATIC 1500
AUX_BASIS_CORR rimp2-def2-QZVPPD
SCF_CONVERGENCE 7
SCF_ALGORITHM  GDM
method DSD-PBEPBE-D3
GEN_SCFMAN TRUE
UNRESTRICTED True
THRESH  14
SYMMETRY FALSE
SYM_IGNORE TRUE
max_scf_cycles 200

XC_GRID 000099000590
BASIS DEF2-QZVPPD


$end



$comment
step_size = 0.003
$end






