$molecule
0 1
F -0.007329555413785087 1.2994689150800658 0.0
H 0.04078315712407558 0.36709787965972346 0.0
O 0.05312969765073343 -1.3468377043714594 0.0
H -0.3729106534155872 -1.7439787504913746 0.7637192563153837
H -0.3729106534155872 -1.7439787504913746 -0.7637192563153837
$end


$rem
N_FROZEN_CORE FC
MEM_TOTAL 3750
MEM_STATIC 1500
AUX_BASIS_CORR rimp2-def2-QZVPPD
SCF_CONVERGENCE 7
SCF_ALGORITHM  GDM
method DSD-PBEPBE-D3
GEN_SCFMAN TRUE
UNRESTRICTED True
THRESH  14
SYMMETRY FALSE
SYM_IGNORE TRUE
max_scf_cycles 200

XC_GRID 000099000590
BASIS DEF2-QZVPPD


$end



$comment
step_size = 0.001
$end






