$molecule
0 1
F -0.00732754392502031 1.2994318552364494 0.0
H 0.040739971941550386 0.36778269750567877 0.0
O 0.05308653369482777 -1.3468784830891272 0.0
H -0.3725654983540342 -1.7436482598964629 0.7630210473416364
H -0.3725654983540342 -1.7436482598964629 -0.7630210473416364
$end


$rem
N_FROZEN_CORE FC
MEM_TOTAL 3750
MEM_STATIC 1500
AUX_BASIS_CORR rimp2-def2-QZVPPD
SCF_CONVERGENCE 7
SCF_ALGORITHM  GDM
method DSD-PBEPBE-D3
GEN_SCFMAN TRUE
UNRESTRICTED True
THRESH  14
SYMMETRY FALSE
SYM_IGNORE TRUE
max_scf_cycles 200

XC_GRID 000099000590
BASIS DEF2-QZVPPD


$end



$comment
step_size = 0.001
$end






