$molecule
0 1
O -0.7744665976851807 0.6531074176162251 0.0
H 0.1402585187333936 0.34937311384223957 0.0
C -1.6136346110314406 -0.48790713903025285 -0.0
H -2.6435316793606605 -0.13313782340883296 -0.0
H -1.4622918974507406 -1.1088644111442014 -0.8894993463404786
H -1.4622918974507406 -1.1088644111442014 0.8894993463404786
O 2.013320475743988 -0.18100962162856277 -0.0
H 2.4898088779985836 0.15919283167652462 -0.760367035277249
H 2.4898088779985836 0.15919283167652462 0.760367035277249
$end


$rem
N_FROZEN_CORE FC
MEM_TOTAL 3750
MEM_STATIC 1500
AUX_BASIS_CORR rimp2-def2-QZVPPD
SCF_CONVERGENCE 7
SCF_ALGORITHM  GDM
method DSD-PBEPBE-D3
GEN_SCFMAN TRUE
UNRESTRICTED True
THRESH  14
SYMMETRY FALSE
SYM_IGNORE TRUE
max_scf_cycles 200

XC_GRID 000099000590
BASIS DEF2-QZVPPD


$end



$comment
step_size = 0.001
$end






