$molecule
0 1
H -0.0003608524630949692 1.66770771 2.18526215
C -0.00032289170390156703 0.60359613 2.18269227
C -0.00032289170390156703 -0.60359613 2.18269227
H -0.0003608524630949692 -1.66770771 2.18526215
H 0.004402074694635251 0.0 -0.51318153
C 0.0019055741529503312 0.0 -1.57920508
C -0.0012365898047796311 0.0 -2.78676655
H -0.003957080264834965 0.0 -3.85035227
$end


$rem
N_FROZEN_CORE FC
MEM_TOTAL 3750
MEM_STATIC 1500
AUX_BASIS_CORR rimp2-def2-QZVPPD
SCF_CONVERGENCE 7
SCF_ALGORITHM  GDM
method DSD-PBEPBE-D3
GEN_SCFMAN TRUE
UNRESTRICTED True
THRESH  14
SYMMETRY FALSE
SYM_IGNORE TRUE
max_scf_cycles 200

XC_GRID 000099000590
BASIS DEF2-QZVPPD


$end



$comment
step_size = 0.01
$end






