$molecule
0 1
C -1.1547005383792516e-12 2.63062798 -0.0002980420662281708
H -0.512926005139016 2.2622948789318227 0.8860991738658538
H -0.51293093487991 2.272154461090092 -0.8907307661341463
H 5.620022910536828e-06 3.71888482 0.005737716036412634
H 1.0258513499910349 2.2672167499780853 -0.0023114939795952317
Ar 4.745648471020622e-13 -1.05525263 0.00011989528988018305
$end


$rem
N_FROZEN_CORE FC
MEM_TOTAL 3750
MEM_STATIC 1500
AUX_BASIS_CORR rimp2-def2-QZVPPD
SCF_CONVERGENCE 7
SCF_ALGORITHM  GDM
method DSD-PBEPBE-D3
GEN_SCFMAN TRUE
UNRESTRICTED True
THRESH  14
SYMMETRY FALSE
SYM_IGNORE TRUE
max_scf_cycles 200

XC_GRID 000099000590
BASIS DEF2-QZVPPD


$end



$comment
step_size = 0.01
$end






