$molecule
0 1
H 0.8159343859077822 1.8640865568093663 0.0
O -0.06712694590115374 1.4900345256958458 0.0
H 0.07128167453005389 0.5352119587469943 0.0
H -0.4126409655258779 -1.7608657331437902 0.760164260585949
O 0.06322453538875167 -1.4193110431471057 0.0
H -0.4126409655258779 -1.7608657331437902 -0.760164260585949
$end


$rem
N_FROZEN_CORE FC
MEM_TOTAL 3750
MEM_STATIC 1500
AUX_BASIS_CORR rimp2-def2-QZVPPD
SCF_CONVERGENCE 7
SCF_ALGORITHM  GDM
method DSD-PBEPBE-D3
GEN_SCFMAN TRUE
UNRESTRICTED True
THRESH  14
SYMMETRY FALSE
SYM_IGNORE TRUE
max_scf_cycles 200

XC_GRID 000099000590
BASIS DEF2-QZVPPD


$end



$comment
step_size = 0.001
$end






