$molecule
0 1
C 1.8242961514081157 -3.827555156598008e-08 -3.538627852885186e-08
H 1.4605525798511485 0.8867797525289682 0.5155217755616752
H 1.460507053936091 0.0030560289940440148 -1.0257183916024724
H 1.4605524971178598 -0.8898356231905217 0.5102290007550331
H 2.9126383491084846 2.974063982502e-07 -3.1999650316555844e-05
C -1.8244589285918842 -3.827555156598008e-08 4.461372147114814e-08
H -2.9127568308915155 7.740639825020002e-08 3.198034968344415e-05
H -1.4598215060639093 -0.0030548110059559854 1.0254325883975277
H -1.4598669201488514 -0.8865325874710317 -0.5153783444383249
H -1.4598670628821402 0.8895877768094783 -0.5100867192449668
$end


$rem
N_FROZEN_CORE FC
MEM_TOTAL 3750
MEM_STATIC 1500
AUX_BASIS_CORR rimp2-def2-QZVPPD
SCF_CONVERGENCE 7
SCF_ALGORITHM  GDM
method DSD-PBEPBE-D3
GEN_SCFMAN TRUE
UNRESTRICTED True
THRESH  14
SYMMETRY FALSE
SYM_IGNORE TRUE
max_scf_cycles 200

XC_GRID 000099000590
BASIS DEF2-QZVPPD


$end



$comment
step_size = 0.001
$end






