$molecule
0 1
F 6.101022044995965e-07 1.2729567299994264 2.2942537499391146e-14
H -3.406258894079846e-05 0.3236431199973105 -1.294943385900684e-12
N -6.249486683661929e-05 -1.3728612199646453 -2.2714711944961087e-12
H 0.9405050288552155 -1.7485911356510657 2.6695755955491022e-11
H -0.4698071068777664 -1.748205097421403 0.8150010369891726
H -0.46980710690525906 -1.7482050974051664 -0.8150010369833952
$end


$rem
N_FROZEN_CORE FC
MEM_TOTAL 3750
MEM_STATIC 1500
AUX_BASIS_CORR rimp2-def2-QZVPPD
SCF_CONVERGENCE 7
SCF_ALGORITHM  GDM
method DSD-PBEPBE-D3
GEN_SCFMAN TRUE
UNRESTRICTED True
THRESH  14
SYMMETRY FALSE
SYM_IGNORE TRUE
max_scf_cycles 200

XC_GRID 000099000590
BASIS DEF2-QZVPPD


$end



$comment
step_size = 0.001
$end






