$molecule
0 1
F -9.999839402237504e-09 1.7596151462259155 0.0
H 3.399945213933673e-07 0.8341623035931959 0.0
C 4.9988424127102747e-08 -1.3168693725369105 -0.6038101410435043
C 4.9988424127102747e-08 -1.3168693725369105 0.6038101410435043
H -6.298609430025602e-07 -1.3225027923900297 1.6685054974924776
H -6.298609430025602e-07 -1.3225027923900297 -1.6685054974924776
$end


$rem
N_FROZEN_CORE FC
MEM_TOTAL 3750
MEM_STATIC 1500
AUX_BASIS_CORR rimp2-def2-QZVPPD
SCF_CONVERGENCE 7
SCF_ALGORITHM  GDM
method DSD-PBEPBE-D3
GEN_SCFMAN TRUE
UNRESTRICTED True
THRESH  14
SYMMETRY FALSE
SYM_IGNORE TRUE
max_scf_cycles 200

XC_GRID 000099000590
BASIS DEF2-QZVPPD


$end



$comment
step_size = 0.001
$end






