$molecule
0 2
C          0.0000000000        1.2239479742       -0.1969438064
C          0.0000000000        0.0000000000        0.4520404645
H          0.0000000000        2.1531678176        0.3538846767
H          0.0000000000        1.2743509430       -1.2784246855
C          0.0000000000       -1.2239479742       -0.1969438064
H          0.0000000000        0.0000000000        1.5372067564
H          0.0000000000       -1.2743509430       -1.2784246855
H          0.0000000000       -2.1531678176        0.3538846767
$end


$rem
N_FROZEN_CORE FC
MEM_TOTAL 3750
MEM_STATIC 1500
AUX_BASIS_CORR rimp2-def2-QZVPPD
SCF_CONVERGENCE 7
SCF_ALGORITHM  GDM
method DSD-PBEPBE-D3
GEN_SCFMAN TRUE
UNRESTRICTED True
THRESH  14
SYMMETRY FALSE
SYM_IGNORE TRUE
max_scf_cycles 200

XC_GRID 000099000590
BASIS DEF2-QZVPPD


$end










