$molecule
0 1
C   0.00000000   0.67204593   0.81442837
C   0.00000000   -0.67204593   0.81442837
C   0.00000000   -0.78413683   -0.70025586
C   0.00000000   0.78413683   -0.70025586
H   0.00000000   1.41632609   1.60012700
H   0.00000000   -1.41632609   1.60012700
H   -0.88883129   -1.23873203   -1.14056225
H   -0.88883129   1.23873203   -1.14056225
H   0.88883129   -1.23873203   -1.14056225
H   0.88883129   1.23873203   -1.14056225
$end


$rem
N_FROZEN_CORE FC
MEM_TOTAL 3750
MEM_STATIC 1500
AUX_BASIS_CORR rimp2-def2-QZVPPD
SCF_CONVERGENCE 7
SCF_ALGORITHM  GDM
method DSD-PBEPBE-D3
GEN_SCFMAN TRUE
UNRESTRICTED True
THRESH  14
SYMMETRY FALSE
SYM_IGNORE TRUE
max_scf_cycles 200

XC_GRID 000099000590
BASIS DEF2-QZVPPD


$end










