$molecule
0 2
C 0.1114738300 -0.4907029000 0.0000000000
H -0.4132855900 -0.8876910700 0.8782148800
H 1.1324985800 -0.8672398200 0.0000000000
H -0.4132855900 -0.8876910700 -0.8782148800
N 0.1079310900 0.9533348700 0.0000000000
H -0.8753333200 1.2385847700 0.0000000000
$end


$rem
N_FROZEN_CORE FC
MEM_TOTAL 3750
MEM_STATIC 1500
AUX_BASIS_CORR rimp2-def2-QZVPPD
SCF_CONVERGENCE 7
SCF_ALGORITHM  GDM
method DSD-PBEPBE-D3
GEN_SCFMAN TRUE
UNRESTRICTED True
THRESH  14
SYMMETRY FALSE
SYM_IGNORE TRUE
max_scf_cycles 200

XC_GRID 000099000590
BASIS DEF2-QZVPPD


$end










