$molecule
0 1
H          0.0000000000        0.0000000000       -1.5570662966
C          0.0000000000        0.0000000000       -0.4749537461
Cl         1.6788276251        0.0000000000        0.0683919447
Cl        -0.8394138125        1.4539073719        0.0683919447
Cl        -0.8394138125       -1.4539073719        0.0683919447
$end


$rem
N_FROZEN_CORE FC
MEM_TOTAL 3750
MEM_STATIC 1500
AUX_BASIS_CORR rimp2-def2-QZVPPD
SCF_CONVERGENCE 7
SCF_ALGORITHM  GDM
method DSD-PBEPBE-D3
GEN_SCFMAN TRUE
UNRESTRICTED True
THRESH  14
SYMMETRY FALSE
SYM_IGNORE TRUE
max_scf_cycles 200

XC_GRID 000099000590
BASIS DEF2-QZVPPD


$end










