$molecule
0 1
C 0.0000000000 0.0000000000 0.0000000000
C 0.0000000000 0.0000000000 1.3105151610
C 0.0000000000 0.0000000000 -1.3105151610
H -0.9290204120 0.0000000000 -1.8660595789
H 0.9290204120 0.0000000000 -1.8660595789
H 0.0000000000 0.9290204120 1.8660595789
H 0.0000000000 -0.9290204120 1.8660595789
$end


$rem
N_FROZEN_CORE FC
MEM_TOTAL 3750
MEM_STATIC 1500
AUX_BASIS_CORR rimp2-def2-QZVPPD
SCF_CONVERGENCE 7
SCF_ALGORITHM  GDM
method DSD-PBEPBE-D3
GEN_SCFMAN TRUE
UNRESTRICTED True
THRESH  14
SYMMETRY FALSE
SYM_IGNORE TRUE
max_scf_cycles 200

XC_GRID 000099000590
BASIS DEF2-QZVPPD


$end










