$molecule
0 1
Cl         0.0000000000        0.1173587694       -0.9990127390
C          0.0000000000       -0.6629886515        0.6164513087
C          0.0000000000        0.3748920530        1.7196141690
H          0.0000000000       -0.1246381355        2.6907014993
H         -0.8854817939       -1.2929576776        0.6518731792
H          0.8854817939       -1.2929576776        0.6518731792
H         -0.8841881421        1.0078392946        1.6535470415
H          0.8841881421        1.0078392946        1.6535470415
$end


$rem
N_FROZEN_CORE FC
MEM_TOTAL 3750
MEM_STATIC 1500
AUX_BASIS_CORR rimp2-def2-QZVPPD
SCF_CONVERGENCE 7
SCF_ALGORITHM  GDM
method DSD-PBEPBE-D3
GEN_SCFMAN TRUE
UNRESTRICTED True
THRESH  14
SYMMETRY FALSE
SYM_IGNORE TRUE
max_scf_cycles 200

XC_GRID 000099000590
BASIS DEF2-QZVPPD


$end










