$molecule
0 1
C          0.0000000000        1.0917242733        0.3469581571
C          0.0000000000        0.7185543022       -0.9590531485
C          0.0000000000       -0.7185543022       -0.9590531485
C          0.0000000000       -1.0917242733        0.3469581571
O          0.0000000000        0.0000000000        1.1611096900
H          0.0000000000        2.0459683285        0.8425805241
H          0.0000000000        1.3764275890       -1.8111398776
H          0.0000000000       -1.3764275890       -1.8111398776
H          0.0000000000       -2.0459683285        0.8425805241
$end


$rem
N_FROZEN_CORE FC
MEM_TOTAL 3750
MEM_STATIC 1500
AUX_BASIS_CORR rimp2-def2-QZVPPD
SCF_CONVERGENCE 7
SCF_ALGORITHM  GDM
method DSD-PBEPBE-D3
GEN_SCFMAN TRUE
UNRESTRICTED True
THRESH  14
SYMMETRY FALSE
SYM_IGNORE TRUE
max_scf_cycles 200

XC_GRID 000099000590
BASIS DEF2-QZVPPD


$end










