$molecule
0 1
O 0.0000000000 0.0000000000 0.0000000000
C 0.0000000000 0.0000000000 1.4293376522
C 1.2577709619 0.0000000000 0.6789833071
H -0.3449389784 -0.9194282207 1.8871692458
H -0.3449389784 0.9194282207 1.8871692458
H 1.8245055547 -0.9194282207 0.5929335057
H 1.8245055547 0.9194282207 0.5929335057
$end


$rem
N_FROZEN_CORE FC
MEM_TOTAL 3750
INTERNAL_STABILITY TRUE
MEM_STATIC 1500
AUX_BASIS_CORR rimp2-def2-QZVPPD
SCF_CONVERGENCE 7
SCF_ALGORITHM  GDM
method DSD-PBEPBE-D3
GEN_SCFMAN TRUE
UNRESTRICTED True
THRESH  14
SYMMETRY FALSE
SYM_IGNORE TRUE
max_scf_cycles 200

XC_GRID 000099000590
BASIS DEF2-QZVPPD


$end










