$molecule
0 1
C 0.0000000000 0.0000000000 0.0000000000
O 0.0000000000 0.0000000000 1.2088022408
H 0.9568435855 0.0000000000 -0.5561624232
C -1.2407878238 -0.0000000000 -0.8473271186
H -2.1294463658 -0.0000000000 -0.2206973452
H -1.2371617502 0.8784403229 -1.4965488231
H -1.2371617502 -0.8784403229 -1.4965488231
$end


$rem
N_FROZEN_CORE FC
MEM_TOTAL 3750
MEM_STATIC 1500
AUX_BASIS_CORR rimp2-def2-QZVPPD
SCF_CONVERGENCE 7
SCF_ALGORITHM  GDM
method DSD-PBEPBE-D3
GEN_SCFMAN TRUE
UNRESTRICTED True
THRESH  14
SYMMETRY FALSE
SYM_IGNORE TRUE
max_scf_cycles 200

XC_GRID 000099000590
BASIS DEF2-QZVPPD


$end










