$molecule
0 1
H 0.0000000000 0.0000000000 0.0000000000
Si 0.0000000000 0.0000000000 1.4786283600
H 1.3940641869 0.0000000000 1.9715044800
H -0.6970320935 1.2072950004 1.9715044800
H -0.6970320935 -1.2072950004 1.9715044800
$end


$rem
N_FROZEN_CORE FC
MEM_TOTAL 3750
MEM_STATIC 1500
AUX_BASIS_CORR rimp2-def2-QZVPPD
SCF_CONVERGENCE 7
SCF_ALGORITHM  GDM
method DSD-PBEPBE-D3
GEN_SCFMAN TRUE
UNRESTRICTED True
THRESH  14
SYMMETRY FALSE
SYM_IGNORE TRUE
max_scf_cycles 200

XC_GRID 000099000590
BASIS DEF2-QZVPPD


$end










