$molecule
0 1
N         -0.0166384895       -0.7062686807        0.0000000000
H          0.5492011427       -0.9482093904        0.8072922258
H          0.5492011427       -0.9482093904       -0.8072922258
O         -0.0070139783        0.7359568309        0.0000000000
H         -0.9434098175        0.9401926309        0.0000000000
$end


$rem
N_FROZEN_CORE FC
MEM_TOTAL 3750
MEM_STATIC 1500
AUX_BASIS_CORR rimp2-def2-QZVPPD
SCF_CONVERGENCE 7
SCF_ALGORITHM  GDM
method DSD-PBEPBE-D3
GEN_SCFMAN TRUE
UNRESTRICTED True
THRESH  14
SYMMETRY FALSE
SYM_IGNORE TRUE
max_scf_cycles 200

XC_GRID 000099000590
BASIS DEF2-QZVPPD


$end










