$molecule
0 1
O 0.0000000000 0.2393234198 -1.0589436369
N 0.0000000000 -0.4954208887 -0.1469686389
O 0.0000000000 0.2250790356 1.0786175951
H 0.0000000000 -0.4870814550 1.7300376077
$end


$rem
N_FROZEN_CORE FC
MEM_TOTAL 3750
MEM_STATIC 1500
AUX_BASIS_CORR rimp2-def2-QZVPPD
SCF_CONVERGENCE 7
SCF_ALGORITHM  GDM
method DSD-PBEPBE-D3
GEN_SCFMAN TRUE
UNRESTRICTED True
THRESH  14
SYMMETRY FALSE
SYM_IGNORE TRUE
max_scf_cycles 200

XC_GRID 000099000590
BASIS DEF2-QZVPPD


$end










