$molecule
0 1
C          0.0000000000        1.2516535069        0.3521274703
C          0.0000000000        0.7574196403       -0.9026274533
C          0.0000000000       -0.7574196403       -0.9026274533
C          0.0000000000       -1.2516535069        0.3521274703
B          0.0000000000        0.0000000000        1.3178598329
H          0.0000000000        0.0000000000        2.5086519931
H          0.0000000000        2.3098569292        0.5723006737
H          0.0000000000        1.3321032884       -1.8217146036
H          0.0000000000       -1.3321032884       -1.8217146036
H          0.0000000000       -2.3098569292        0.5723006737
$end


$rem
N_FROZEN_CORE FC
MEM_TOTAL 3750
MEM_STATIC 1500
AUX_BASIS_CORR rimp2-def2-QZVPPD
SCF_CONVERGENCE 7
SCF_ALGORITHM  GDM
method DSD-PBEPBE-D3
GEN_SCFMAN TRUE
UNRESTRICTED True
THRESH  14
SYMMETRY FALSE
SYM_IGNORE TRUE
max_scf_cycles 200

XC_GRID 000099000590
BASIS DEF2-QZVPPD


$end










