$molecule
0 2
C -0.0242578700 0.7281271000 0.0000000000
H -0.2935680200 1.2080528100 0.9288543400
H -0.2935680200 1.2080528100 -0.9288543400
N -0.0194271100 -0.6685563900 0.0000000000
H 0.3757935000 -1.0835881700 -0.8286859400
H 0.3757935000 -1.0835881700 0.8286859400
$end


$rem
N_FROZEN_CORE FC
MEM_TOTAL 3750
MEM_STATIC 1500
AUX_BASIS_CORR rimp2-def2-QZVPPD
SCF_CONVERGENCE 7
SCF_ALGORITHM  GDM
method DSD-PBEPBE-D3
GEN_SCFMAN TRUE
UNRESTRICTED True
THRESH  14
SYMMETRY FALSE
SYM_IGNORE TRUE
max_scf_cycles 200

XC_GRID 000099000590
BASIS DEF2-QZVPPD


$end










