$molecule
0 1
C    0.00000    0.86989    0.00000
C    0.75334   -0.43491    0.00000
C   -0.75334   -0.43491    0.00000
H    0.00000    1.45163    0.91057
H    1.25713   -0.72578    0.91057
H   -1.25713   -0.72578    0.91057
H    0.00000    1.45163   -0.91057
H    1.25713   -0.72578   -0.91057
H   -1.25713   -0.72578   -0.91057
$end


$rem
N_FROZEN_CORE FC
MEM_TOTAL 3750
MEM_STATIC 1500
AUX_BASIS_CORR rimp2-def2-QZVPPD
SCF_CONVERGENCE 7
SCF_ALGORITHM  GDM
method DSD-PBEPBE-D3
GEN_SCFMAN TRUE
UNRESTRICTED True
THRESH  14
SYMMETRY FALSE
SYM_IGNORE TRUE
max_scf_cycles 200

XC_GRID 000099000590
BASIS DEF2-QZVPPD


$end










