$molecule
0 1
F 0.0000000000 0.0000000000 0.0000000000
C 0.0000000000 0.0000000000 1.3907582826
C 1.4214454690 0.0000000000 1.8991361686
H 1.4241762080 0.0000000000 2.9904251339
H -0.5437296385 0.8879741093 1.7163186243
H -0.5437296385 -0.8879741093 1.7163186243
H 1.9515040744 0.8857451101 1.5505291637
H 1.9515040744 -0.8857451101 1.5505291637
$end


$rem
N_FROZEN_CORE FC
MEM_TOTAL 3750
MEM_STATIC 1500
AUX_BASIS_CORR rimp2-def2-QZVPPD
SCF_CONVERGENCE 7
SCF_ALGORITHM  GDM
method DSD-PBEPBE-D3
GEN_SCFMAN TRUE
UNRESTRICTED True
THRESH  14
SYMMETRY FALSE
SYM_IGNORE TRUE
max_scf_cycles 200

XC_GRID 000099000590
BASIS DEF2-QZVPPD


$end










