$molecule
0 1
F 0.0000000000 0.0000000000 0.0000000000
Si 0.0000000000 0.0000000000 1.5604300000
F 1.4711875128 0.0000000000 2.0805733333
F -0.7355937564 1.2740857598 2.0805733333
F -0.7355937564 -1.2740857598 2.0805733333
$end


$rem
N_FROZEN_CORE FC
MEM_TOTAL 3750
MEM_STATIC 1500
AUX_BASIS_CORR rimp2-def2-QZVPPD
SCF_CONVERGENCE 7
SCF_ALGORITHM  GDM
method DSD-PBEPBE-D3
GEN_SCFMAN TRUE
UNRESTRICTED True
THRESH  14
SYMMETRY FALSE
SYM_IGNORE TRUE
max_scf_cycles 200

XC_GRID 000099000590
BASIS DEF2-QZVPPD


$end










