$molecule
0 1
H 0.0000000000 -0.0000006103 2.4881441037
H 0.0000000000 1.0202507024 -1.6296323998
H -0.8835423136 -0.5101181316 -1.6296147778
H 0.8835423136 -0.5101181316 -1.6296147778
C 0.0000000000 -0.0000018248 1.4252330062
C 0.0000000000 -0.0000036147 0.2170932299
C 0.0000000000 -0.0000083894 -1.2465627073
$end


$rem
N_FROZEN_CORE FC
MEM_TOTAL 3750
MEM_STATIC 1500
AUX_BASIS_CORR rimp2-def2-QZVPPD
SCF_CONVERGENCE 7
SCF_ALGORITHM  GDM
method DSD-PBEPBE-D3
GEN_SCFMAN TRUE
UNRESTRICTED True
THRESH  14
SYMMETRY FALSE
SYM_IGNORE TRUE
max_scf_cycles 200

XC_GRID 000099000590
BASIS DEF2-QZVPPD


$end










