$molecule
0 1
C 0.0000000000 0.0000000000 0.0000000000
N 0.0000000000 0.0000000000 1.2741600000
H 0.9588876957 0.0000000000 1.6219162178
H 0.9004011103 0.0000000000 -0.6169330847
H -0.9539585315 -0.0000000000 -0.5216712745
$end


$rem
N_FROZEN_CORE FC
MEM_TOTAL 3750
MEM_STATIC 1500
AUX_BASIS_CORR rimp2-def2-QZVPPD
SCF_CONVERGENCE 7
SCF_ALGORITHM  GDM
method DSD-PBEPBE-D3
GEN_SCFMAN TRUE
UNRESTRICTED True
THRESH  14
SYMMETRY FALSE
SYM_IGNORE TRUE
max_scf_cycles 200

XC_GRID 000099000590
BASIS DEF2-QZVPPD


$end










