$molecule
0 2
C          0.0000000000        0.0000000000       -1.2011253943
H          0.0000000000        0.9360066134       -1.7364990774
H          0.0000000000       -0.9360066134       -1.7364990774
C          0.0000000000        0.0000000000        0.1906543519
N          0.0000000000        0.0000000000        1.3621051972
$end


$rem
N_FROZEN_CORE FC
MEM_TOTAL 3750
MEM_STATIC 1500
AUX_BASIS_CORR rimp2-def2-QZVPPD
SCF_CONVERGENCE 7
SCF_ALGORITHM  GDM
method DSD-PBEPBE-D3
GEN_SCFMAN TRUE
UNRESTRICTED True
THRESH  14
SYMMETRY FALSE
SYM_IGNORE TRUE
max_scf_cycles 200

XC_GRID 000099000590
BASIS DEF2-QZVPPD


$end










