$molecule
0 1
F 0.0000000000 0.0000000000 0.0000000000
O 0.0000000000 0.0000000000 1.5322974100
O 1.1705852438 0.0000000000 1.9230280762
F 1.6506598353 1.4521083819 2.0170758648
$end


$rem
N_FROZEN_CORE FC
MEM_TOTAL 3750
MEM_STATIC 1500
AUX_BASIS_CORR rimp2-def2-QZVPPD
SCF_CONVERGENCE 7
SCF_ALGORITHM  GDM
method DSD-PBEPBE-D3
GEN_SCFMAN TRUE
UNRESTRICTED True
THRESH  14
SYMMETRY FALSE
SYM_IGNORE TRUE
max_scf_cycles 200

XC_GRID 000099000590
BASIS DEF2-QZVPPD


$end










