$molecule
0 1
C          0.0000000000        1.2758596583       -0.5229675814
C          0.0000000000        0.0000000000        0.3154943521
C          0.0000000000       -1.2758596583       -0.5229675814
C          0.0000000000       -2.5450663093        0.3242547685
C          0.0000000000        2.5450663093        0.3242547685
H          0.0000000000       -3.4382954268       -0.3017258094
H         -0.8771884600        1.2742283997       -1.1783559671
H          0.8771884600        1.2742283997       -1.1783559671
H         -0.8819324611       -2.5877051429        0.9666903105
H          0.8819324611       -2.5877051429        0.9666903105
H          0.8776631440        0.0000000000        0.9725147596
H         -0.8776631440        0.0000000000        0.9725147596
H          0.8771884600       -1.2742283997       -1.1783559671
H         -0.8771884600       -1.2742283997       -1.1783559671
H          0.0000000000        3.4382954268       -0.3017258094
H         -0.8819324611        2.5877051429        0.9666903105
H          0.8819324611        2.5877051429        0.9666903105
$end


$rem
N_FROZEN_CORE FC
MEM_TOTAL 7500
MEM_STATIC 3000
AUX_BASIS_CORR rimp2-def2-QZVPPD
SCF_CONVERGENCE 7
SCF_ALGORITHM  GDM
method DSD-PBEPBE-D3
GEN_SCFMAN TRUE
UNRESTRICTED True
THRESH  14
SYMMETRY FALSE
SYM_IGNORE TRUE
max_scf_cycles 200

XC_GRID 000099000590
BASIS DEF2-QZVPPD


$end










