$molecule
0 1
C 0.0000000000 0.0000000000 0.0000000000
C 0.0000000000 0.0000000000 1.5265164900
H 1.0169282244 0.0000000000 -0.3945846211
H -0.5084641122 -0.8806856762 -0.3945846211
H -0.5084641122 0.8806856762 -0.3945846211
H -1.0169282244 0.0000000000 1.9211011111
H 0.5084641122 -0.8806856762 1.9211011111
H 0.5084641122 0.8806856762 1.9211011111
$end


$rem
N_FROZEN_CORE FC
MEM_TOTAL 3750
MEM_STATIC 1500
AUX_BASIS_CORR rimp2-def2-QZVPPD
SCF_CONVERGENCE 7
SCF_ALGORITHM  GDM
method DSD-PBEPBE-D3
GEN_SCFMAN TRUE
UNRESTRICTED True
THRESH  14
SYMMETRY FALSE
SYM_IGNORE TRUE
max_scf_cycles 200

XC_GRID 000099000590
BASIS DEF2-QZVPPD


$end










