$molecule
0 2
C         -0.0304716849       -0.3618675786        0.7669289745
C         -0.0304716849       -0.3618675786       -0.7669289745
C          0.1659149982        0.8775796948        0.0000000000
H         -0.9672714374       -0.5084146709        1.2918917791
H          0.8280575437       -0.8195019083        1.2437862765
H         -0.9672714374       -0.5084146709       -1.2918917791
H          0.8280575437       -0.8195019083       -1.2437862765
H         -0.3940297909        1.7987966406        0.0000000000
$end


$rem
N_FROZEN_CORE FC
MEM_TOTAL 3750
MEM_STATIC 1500
AUX_BASIS_CORR rimp2-def2-QZVPPD
SCF_CONVERGENCE 7
SCF_ALGORITHM  GDM
method DSD-PBEPBE-D3
GEN_SCFMAN TRUE
UNRESTRICTED True
THRESH  14
SYMMETRY FALSE
SYM_IGNORE TRUE
max_scf_cycles 200

XC_GRID 000099000590
BASIS DEF2-QZVPPD


$end










