$molecule
0 1
C                  0.60616009    0.40548687    0.00000000
C                 -0.60616009   -0.40548687    0.00000000
C                  1.84396650   -0.11095336    0.00000000
C                 -1.84396650    0.11095336    0.00000000
H                  0.47202554    1.48310766    0.00000000
H                 -0.47202554   -1.48310766    0.00000000
H                  2.72071008    0.52201495    0.00000000
H                  2.00089802   -1.18321375    0.00000000
H                 -2.72071008   -0.52201495    0.00000000
H                 -2.00089802    1.18321375    0.00000000
$end


$rem
N_FROZEN_CORE FC
MEM_TOTAL 3750
MEM_STATIC 1500
AUX_BASIS_CORR rimp2-def2-QZVPPD
SCF_CONVERGENCE 7
SCF_ALGORITHM  GDM
method DSD-PBEPBE-D3
GEN_SCFMAN TRUE
UNRESTRICTED True
THRESH  14
SYMMETRY FALSE
SYM_IGNORE TRUE
max_scf_cycles 200

XC_GRID 000099000590
BASIS DEF2-QZVPPD


$end










