$molecule
0 1
C   0.0000000000000   0.0000000000000  -0.7720868331272
C   0.0000000000000   0.0000000000000   0.7720868331272
F   1.2474977913453   0.0000000000000  -1.2198012859703
F  -1.2474977913453   0.0000000000000   1.2198012859703
F  -0.6237488959372  -1.0803647784594  -1.2198012859703
F  -0.6237488959372   1.0803647784594  -1.2198012859703
F   0.6237488959372  -1.0803647784594   1.2198012859703
F   0.6237488959372   1.0803647784594   1.2198012859703
$end


$rem
N_FROZEN_CORE FC
MEM_TOTAL 3750
MEM_STATIC 1500
AUX_BASIS_CORR rimp2-def2-QZVPPD
SCF_CONVERGENCE 7
SCF_ALGORITHM  GDM
method DSD-PBEPBE-D3
GEN_SCFMAN TRUE
UNRESTRICTED True
THRESH  14
SYMMETRY FALSE
SYM_IGNORE TRUE
max_scf_cycles 200

XC_GRID 000099000590
BASIS DEF2-QZVPPD


$end










