$molecule
0 1
C 0.0000000000 0.0000000000 0.0000000000
C 0.0000000000 0.0000000000 1.5014674667
O 0.9728868134 0.0000000000 -0.7098609628
O -1.2604478998 -0.0000000000 -0.4944223789
H -1.1673844130 -0.0000000000 -1.4556020533
H 1.0230418531 0.0000000000 1.8630682069
H -0.5297869952 0.8795852301 1.8657207176
H -0.5297869952 -0.8795852301 1.8657207176
$end


$rem
N_FROZEN_CORE FC
MEM_TOTAL 3750
MEM_STATIC 1500
AUX_BASIS_CORR rimp2-def2-QZVPPD
SCF_CONVERGENCE 7
SCF_ALGORITHM  GDM
method DSD-PBEPBE-D3
GEN_SCFMAN TRUE
UNRESTRICTED True
THRESH  14
SYMMETRY FALSE
SYM_IGNORE TRUE
max_scf_cycles 200

XC_GRID 000099000590
BASIS DEF2-QZVPPD


$end










