$molecule
0 1
C          0.0000000000        1.3510077077       -0.0853488029
H          0.0000000000        2.4279167079        0.0120570842
C          0.0000000000        0.7431506855       -1.2932029040
H          0.0000000000        1.2808042545       -2.2356946537
C          0.0000000000       -1.3510077077       -0.0853488029
H          0.0000000000       -2.4279167079        0.0120570842
C          0.0000000000       -0.7431506855       -1.2932029040
H          0.0000000000       -1.2808042545       -2.2356946537
Si         0.0000000000        0.0000000000        1.2063244461
H          1.2024327291        0.0000000000        2.0729430532
H         -1.2024327291        0.0000000000        2.0729430532
$end


$rem
N_FROZEN_CORE FC
MEM_TOTAL 3750
MEM_STATIC 1500
AUX_BASIS_CORR rimp2-def2-QZVPPD
SCF_CONVERGENCE 7
SCF_ALGORITHM  GDM
method DSD-PBEPBE-D3
GEN_SCFMAN TRUE
UNRESTRICTED True
THRESH  14
SYMMETRY FALSE
SYM_IGNORE TRUE
max_scf_cycles 200

XC_GRID 000099000590
BASIS DEF2-QZVPPD


$end










