$molecule
0 1
C         -0.0622341205        0.6640253773        0.0000000000
C          0.0622341205       -0.6640253773        0.0000000000
Cl         1.2556210027        1.7389732924        0.0000000000
F         -1.2561173421        1.2387047987        0.0000000000
F          1.2561173421       -1.2387047987        0.0000000000
Cl        -1.2556210027       -1.7389732924        0.0000000000
$end


$rem
N_FROZEN_CORE FC
MEM_TOTAL 3750
MEM_STATIC 1500
AUX_BASIS_CORR rimp2-def2-QZVPPD
SCF_CONVERGENCE 7
SCF_ALGORITHM  GDM
method DSD-PBEPBE-D3
GEN_SCFMAN TRUE
UNRESTRICTED True
THRESH  14
SYMMETRY FALSE
SYM_IGNORE TRUE
max_scf_cycles 200

XC_GRID 000099000590
BASIS DEF2-QZVPPD


$end










