$molecule
0 1
C          0.6991898018        1.8213888862        0.0000000000
C          0.7035097406        0.2955905259        0.0000000000
C         -0.7035097406       -0.2955905259        0.0000000000
C         -0.6991898018       -1.8213888862        0.0000000000
H          1.7121780223        2.2264196232        0.0000000000
H         -1.7121780223       -2.2264196232        0.0000000000
H          0.1831112848        2.2080826508        0.8815761058
H          0.1831112848        2.2080826508       -0.8815761058
H         -0.1831112848       -2.2080826508        0.8815761058
H         -0.1831112848       -2.2080826508       -0.8815761058
H          1.2467474553       -0.0728437222       -0.8761798942
H          1.2467474553       -0.0728437222        0.8761798942
H         -1.2467474553        0.0728437222       -0.8761798942
H         -1.2467474553        0.0728437222        0.8761798942
$end


$rem
N_FROZEN_CORE FC
MEM_TOTAL 3750
MEM_STATIC 1500
AUX_BASIS_CORR rimp2-def2-QZVPPD
SCF_CONVERGENCE 7
SCF_ALGORITHM  GDM
method DSD-PBEPBE-D3
GEN_SCFMAN TRUE
UNRESTRICTED True
THRESH  14
SYMMETRY FALSE
SYM_IGNORE TRUE
max_scf_cycles 200

XC_GRID 000099000590
BASIS DEF2-QZVPPD


$end










