$molecule
0 1
N          0.6683566134        0.2004327755        0.0000000000
H          0.9668193796       -0.3441960976        0.8071193402
H          0.9668193796       -0.3441960976       -0.8071193402
F         -0.7347916126       -0.0467759204        0.0000000000
$end


$rem
N_FROZEN_CORE FC
MEM_TOTAL 3750
MEM_STATIC 1500
AUX_BASIS_CORR rimp2-def2-QZVPPD
SCF_CONVERGENCE 7
SCF_ALGORITHM  GDM
method DSD-PBEPBE-D3
GEN_SCFMAN TRUE
UNRESTRICTED True
THRESH  14
SYMMETRY FALSE
SYM_IGNORE TRUE
max_scf_cycles 200

XC_GRID 000099000590
BASIS DEF2-QZVPPD


$end










