$molecule
0 1
Si -0.0003313210 0.0000000000 -1.1708843053
H -1.3904265497 0.0000000000 -1.6847319638
H 0.6949809430 1.2040454768 -1.6838904847
H 0.6949809430 -1.2040454768 -1.6838904847
Si 0.0003313210 0.0000000000 1.1708843053
H 1.3904265497 0.0000000000 1.6847319638
H -0.6949809430 1.2040454768 1.6838904847
H -0.6949809430 -1.2040454768 1.6838904847
$end


$rem
N_FROZEN_CORE FC
MEM_TOTAL 3750
MEM_STATIC 1500
AUX_BASIS_CORR rimp2-def2-QZVPPD
SCF_CONVERGENCE 7
SCF_ALGORITHM  GDM
method DSD-PBEPBE-D3
GEN_SCFMAN TRUE
UNRESTRICTED True
THRESH  14
SYMMETRY FALSE
SYM_IGNORE TRUE
max_scf_cycles 200

XC_GRID 000099000590
BASIS DEF2-QZVPPD


$end










