$molecule
0 1
P                 -0.00000000    0.00000000   -0.00000000
F                 -0.00000000    0.00000000    1.57637269
F                 -0.00000000    1.53680074    0.00000000
F                 -0.00000000    0.00000000   -1.57637269
F                 -1.33090848   -0.76840037    0.00000000
F                  1.33090848   -0.76840037    0.00000000
$end


$rem
N_FROZEN_CORE FC
MEM_TOTAL 3750
MEM_STATIC 1500
AUX_BASIS_CORR rimp2-def2-QZVPPD
SCF_CONVERGENCE 7
SCF_ALGORITHM  GDM
method DSD-PBEPBE-D3
GEN_SCFMAN TRUE
UNRESTRICTED True
THRESH  14
SYMMETRY FALSE
SYM_IGNORE TRUE
max_scf_cycles 200

XC_GRID 000099000590
BASIS DEF2-QZVPPD


$end










