$molecule
0 1
C          0.0000000000        0.0000000000        0.8631379557
C          0.0000000000        0.6485924272       -0.5009727593
C          0.0000000000       -0.6485924272       -0.5009727593
H          0.0000000000        1.5783581573       -1.0393870564
H          0.0000000000       -1.5783581573       -1.0393870564
H         -0.9129297226        0.0000000000        1.4527178379
H          0.9129297226        0.0000000000        1.4527178379
$end


$rem
N_FROZEN_CORE FC
MEM_TOTAL 3750
MEM_STATIC 1500
AUX_BASIS_CORR rimp2-def2-QZVPPD
SCF_CONVERGENCE 7
SCF_ALGORITHM  GDM
method DSD-PBEPBE-D3
GEN_SCFMAN TRUE
UNRESTRICTED True
THRESH  14
SYMMETRY FALSE
SYM_IGNORE TRUE
max_scf_cycles 200

XC_GRID 000099000590
BASIS DEF2-QZVPPD


$end










