$molecule
0 1
C         -0.8641293641       -0.0286978681        0.0000000000
P          0.9570923474       -0.3844416983        0.0000000000
H         -1.0969618842        1.0338727729        0.0000000000
H         -1.3104974220       -0.4917818943       -0.8800513645
H         -1.3104974220       -0.4917818943        0.8800513645
H          1.3262229875        0.5135110411        1.0299976821
H          1.3262229875        0.5135110411       -1.0299976821
$end


$rem
N_FROZEN_CORE FC
MEM_TOTAL 3750
MEM_STATIC 1500
AUX_BASIS_CORR rimp2-def2-QZVPPD
SCF_CONVERGENCE 7
SCF_ALGORITHM  GDM
method DSD-PBEPBE-D3
GEN_SCFMAN TRUE
UNRESTRICTED True
THRESH  14
SYMMETRY FALSE
SYM_IGNORE TRUE
max_scf_cycles 200

XC_GRID 000099000590
BASIS DEF2-QZVPPD


$end










