$molecule
0 1
C          0.0000000000        0.6676340625        0.4150034844
C          0.0000000000       -0.6676340625        0.4150034844
Cl         0.0000000000        1.6438288217       -0.9750685547
Cl         0.0000000000       -1.6438288217       -0.9750685547
F          0.0000000000        1.3316042279        1.5639760704
F          0.0000000000       -1.3316042279        1.5639760704
$end


$rem
N_FROZEN_CORE FC
MEM_TOTAL 3750
MEM_STATIC 1500
AUX_BASIS_CORR rimp2-def2-QZVPPD
SCF_CONVERGENCE 7
SCF_ALGORITHM  GDM
method DSD-PBEPBE-D3
GEN_SCFMAN TRUE
UNRESTRICTED True
THRESH  14
SYMMETRY FALSE
SYM_IGNORE TRUE
max_scf_cycles 200

XC_GRID 000099000590
BASIS DEF2-QZVPPD


$end










