$molecule
0 1
O          0.0000000000        0.0000000000        0.3962289795
C          0.0000000000        1.1710886968       -0.3211771907
H          0.0000000000        1.0178114188       -1.4084096962
C          0.0000000000       -1.1710886968       -0.3211771907
H          0.0000000000       -1.0178114188       -1.4084096962
O          0.0000000000       -2.2307564184        0.2161903971
O          0.0000000000        2.2307564184        0.2161903971
$end


$rem
N_FROZEN_CORE FC
MEM_TOTAL 3750
MEM_STATIC 1500
AUX_BASIS_CORR rimp2-def2-QZVPPD
SCF_CONVERGENCE 7
SCF_ALGORITHM  GDM
method DSD-PBEPBE-D3
GEN_SCFMAN TRUE
UNRESTRICTED True
THRESH  14
SYMMETRY FALSE
SYM_IGNORE TRUE
max_scf_cycles 200

XC_GRID 000099000590
BASIS DEF2-QZVPPD


$end










