$molecule
0 1
N -0.0490903210 1.1320590331 0.0000000000
H 0.5161376145 1.3748413341 0.8086244271
H 0.5161376145 1.3748413341 -0.8086244271
Cl -0.0393009080 -0.6184227013 0.0000000000
$end


$rem
N_FROZEN_CORE FC
MEM_TOTAL 3750
MEM_STATIC 1500
AUX_BASIS_CORR rimp2-def2-QZVPPD
SCF_CONVERGENCE 7
SCF_ALGORITHM  GDM
method DSD-PBEPBE-D3
GEN_SCFMAN TRUE
UNRESTRICTED True
THRESH  14
SYMMETRY FALSE
SYM_IGNORE TRUE
max_scf_cycles 200

XC_GRID 000099000590
BASIS DEF2-QZVPPD


$end










