$molecule
0 1
H                  0.57936894    1.88533548    0.00000000
O                 -0.29294492    1.46132835    0.00000000
Cl                 0.00978707   -0.13844467    0.00000000
O                 -1.29369527   -0.65767109    0.00000000
O                  0.74671078   -0.37256464    1.18182479
O                  0.74671078   -0.37256464   -1.18182479
$end


$rem
N_FROZEN_CORE FC
MEM_TOTAL 3750
MEM_STATIC 1500
AUX_BASIS_CORR rimp2-def2-QZVPPD
SCF_CONVERGENCE 7
SCF_ALGORITHM  GDM
method DSD-PBEPBE-D3
GEN_SCFMAN TRUE
UNRESTRICTED True
THRESH  14
SYMMETRY FALSE
SYM_IGNORE TRUE
max_scf_cycles 200

XC_GRID 000099000590
BASIS DEF2-QZVPPD


$end










