$molecule
0 1
C -1.1356377500 -0.5032389500 0.0000000000
C -0.0050833500 0.4818051700 0.0000000000
C 1.2877981100 0.1477150000 0.0000000000
H 1.5983695600 -0.8908269700 0.0000000000
H 2.0652431400 0.9001158400 0.0000000000
H -0.2749735100 1.5338071700 0.0000000000
H -0.7614088200 -1.5274247800 0.0000000000
H -1.7710671900 -0.3687287400 0.8782028400
H -1.7710671900 -0.3687287400 -0.8782028400
$end


$rem
N_FROZEN_CORE FC
MEM_TOTAL 3750
MEM_STATIC 1500
AUX_BASIS_CORR rimp2-def2-QZVPPD
SCF_CONVERGENCE 7
SCF_ALGORITHM  GDM
method DSD-PBEPBE-D3
GEN_SCFMAN TRUE
UNRESTRICTED True
THRESH  14
SYMMETRY FALSE
SYM_IGNORE TRUE
max_scf_cycles 200

XC_GRID 000099000590
BASIS DEF2-QZVPPD


$end










