$molecule
0 1
C          0.0030519039        0.5051306554        0.0000000000
O         -0.7959430261        1.3672029009        0.0000000000
F          1.3116501168        0.7061565175        0.0000000000
Cl        -0.3206169946       -1.1912890738        0.0000000000
$end


$rem
N_FROZEN_CORE FC
MEM_TOTAL 3750
MEM_STATIC 1500
AUX_BASIS_CORR rimp2-def2-QZVPPD
SCF_CONVERGENCE 7
SCF_ALGORITHM  GDM
method DSD-PBEPBE-D3
GEN_SCFMAN TRUE
UNRESTRICTED True
THRESH  14
SYMMETRY FALSE
SYM_IGNORE TRUE
max_scf_cycles 200

XC_GRID 000099000590
BASIS DEF2-QZVPPD


$end










