$molecule
0 1
C -0.1205802276 0.0000000000 -0.7378139374
H 0.9182637607 0.0000000000 -1.1360527973
O 0.0806746086 0.0000000000 0.5610401090
H -0.7829374977 0.0000000000 0.9907223375
$end


$rem
N_FROZEN_CORE FC
MEM_TOTAL 3750
MEM_STATIC 1500
AUX_BASIS_CORR rimp2-def2-QZVPPD
SCF_CONVERGENCE 7
SCF_ALGORITHM  GDM
method DSD-PBEPBE-D3
GEN_SCFMAN TRUE
UNRESTRICTED True
THRESH  14
SYMMETRY FALSE
SYM_IGNORE TRUE
max_scf_cycles 200

XC_GRID 000099000590
BASIS DEF2-QZVPPD


$end










