$molecule
0 2
O         -0.0028254588       -0.7318919999        0.0000000000
N         -0.0449006547        0.5427187816        0.0000000000
H          0.1017220568        1.0348341092        0.8712108022
H          0.1017220568        1.0348341092       -0.8712108022
$end


$rem
N_FROZEN_CORE FC
MEM_TOTAL 3750
MEM_STATIC 1500
AUX_BASIS_CORR rimp2-def2-QZVPPD
SCF_CONVERGENCE 7
SCF_ALGORITHM  GDM
method DSD-PBEPBE-D3
GEN_SCFMAN TRUE
UNRESTRICTED True
THRESH  14
SYMMETRY FALSE
SYM_IGNORE TRUE
max_scf_cycles 200

XC_GRID 000099000590
BASIS DEF2-QZVPPD


$end










