$molecule
0 2
F 0.0000000000 0.0000000000 0.0000000000
O 0.0000000000 0.0000000000 1.6324013000
O 1.1134951237 0.0000000000 2.0577174953
$end


$rem
N_FROZEN_CORE FC
MEM_TOTAL 3750
INTERNAL_STABILITY TRUE
MEM_STATIC 1500
AUX_BASIS_CORR rimp2-def2-QZVPPD
SCF_CONVERGENCE 7
SCF_ALGORITHM  GDM
method DSD-PBEPBE-D3
GEN_SCFMAN TRUE
UNRESTRICTED True
THRESH  14
SYMMETRY FALSE
SYM_IGNORE TRUE
max_scf_cycles 200
SCF_ALGORITHM  GDM

XC_GRID 000200000974
BASIS DEF2-QZVPPD


$end




