$molecule
0 1
C         -0.0270819703       -0.0647864060        1.0351336484
C         -0.0273055567        1.0740454020        0.0000000000
C         -0.0270819703       -0.0647864060       -1.0351336484
H          0.8161580949       -0.0921424531        1.7266442384
H         -0.9593192522       -0.1810974741        1.5926149889
H          0.8760278614        1.6793374789        0.0000000000
H         -0.9021103303        1.7194977245        0.0000000000
H          0.8161580949       -0.0921424531       -1.7266442384
H         -0.9593192522       -0.1810974741       -1.5926149889
O          0.0983412808       -1.0655419392        0.0000000000
$end


$rem
N_FROZEN_CORE FC
MEM_TOTAL 3750
MEM_STATIC 1500
AUX_BASIS_CORR rimp2-def2-QZVPPD
SCF_CONVERGENCE 7
SCF_ALGORITHM  GDM
method DSD-PBEPBE-D3
GEN_SCFMAN TRUE
UNRESTRICTED True
THRESH  14
SYMMETRY FALSE
SYM_IGNORE TRUE
max_scf_cycles 200

XC_GRID 000099000590
BASIS DEF2-QZVPPD


$end










