$molecule
0 1
Al 0.0000000000 0.0000000000 0.0000000000
Cl 0.0000000000 0.0000000000 2.0709708900
Cl 1.7935134012 0.0000000000 -1.0354854450
Cl -1.7935134012 -0.0000000000 -1.0354854450
$end


$rem
N_FROZEN_CORE FC
MEM_TOTAL 3750
MEM_STATIC 1500
AUX_BASIS_CORR rimp2-def2-QZVPPD
SCF_CONVERGENCE 7
SCF_ALGORITHM  GDM
method DSD-PBEPBE-D3
GEN_SCFMAN TRUE
UNRESTRICTED True
THRESH  14
SYMMETRY FALSE
SYM_IGNORE TRUE
max_scf_cycles 200

XC_GRID 000099000590
BASIS DEF2-QZVPPD


$end










