$molecule
0 1
C          0.0000000000        1.1228164427        0.3313183627
C          0.0000000000        0.7128283812       -0.9829382319
C          0.0000000000       -0.7128283812       -0.9829382319
C          0.0000000000       -1.1228164427        0.3313183627
N          0.0000000000        0.0000000000        1.1195745704
H          0.0000000000        0.0000000000        2.1217259170
H          0.0000000000        2.1077004779        0.7653903187
H          0.0000000000        1.3606340256       -1.8434861931
H          0.0000000000       -1.3606340256       -1.8434861931
H          0.0000000000       -2.1077004779        0.7653903187
$end


$rem
N_FROZEN_CORE FC
MEM_TOTAL 3750
MEM_STATIC 1500
AUX_BASIS_CORR rimp2-def2-QZVPPD
SCF_CONVERGENCE 7
SCF_ALGORITHM  GDM
method DSD-PBEPBE-D3
GEN_SCFMAN TRUE
UNRESTRICTED True
THRESH  14
SYMMETRY FALSE
SYM_IGNORE TRUE
max_scf_cycles 200

XC_GRID 000099000590
BASIS DEF2-QZVPPD


$end










