$molecule
0 1
C          0.0000000000        1.2346859350       -0.0037741108
C          0.0000000000        0.7131155627       -1.2702426061
C          0.0000000000       -0.7131155627       -1.2702426061
C          0.0000000000       -1.2346859350       -0.0037741108
S          0.0000000000        0.0000000000        1.1887112084
H          0.0000000000        2.2721332446        0.2886650924
H          0.0000000000        1.3205649375       -2.1634904797
H          0.0000000000       -1.3205649375       -2.1634904797
H          0.0000000000       -2.2721332446        0.2886650924
$end


$rem
N_FROZEN_CORE FC
MEM_TOTAL 3750
MEM_STATIC 1500
AUX_BASIS_CORR rimp2-def2-QZVPPD
SCF_CONVERGENCE 7
SCF_ALGORITHM  GDM
method DSD-PBEPBE-D3
GEN_SCFMAN TRUE
UNRESTRICTED True
THRESH  14
SYMMETRY FALSE
SYM_IGNORE TRUE
max_scf_cycles 200

XC_GRID 000099000590
BASIS DEF2-QZVPPD


$end










