$molecule
0 1
C          0.0000000000        0.7103702220       -0.8808039513
C          0.0000000000       -0.7103702220       -0.8808039513
O          0.0000000000        0.0000000000        1.1264898798
H          0.0000000000        1.4065824287       -1.7012730332
H          0.0000000000       -1.4065824287       -1.7012730332
N          0.0000000000        1.1306536532        0.3553585445
N          0.0000000000       -1.1306536532        0.3553585445
$end


$rem
N_FROZEN_CORE FC
MEM_TOTAL 3750
MEM_STATIC 1500
AUX_BASIS_CORR rimp2-def2-QZVPPD
SCF_CONVERGENCE 7
SCF_ALGORITHM  GDM
method DSD-PBEPBE-D3
GEN_SCFMAN TRUE
UNRESTRICTED True
THRESH  14
SYMMETRY FALSE
SYM_IGNORE TRUE
max_scf_cycles 200

XC_GRID 000099000590
BASIS DEF2-QZVPPD


$end










