$molecule
0 1
C 0.0000000000 1.2657900300 -0.2597840600
H -0.8814813600 1.2987741700 -0.9040806300
H 0.8814813600 1.2987741700 -0.9040806300
H 0.0000000000 2.1664994600 0.3558059700
C 0.0000000000 0.0000000000 0.5929156700
H 0.8754922900 0.0000000000 1.2477400200
H -0.8754922900 0.0000000000 1.2477400200
C 0.0000000000 -1.2657900300 -0.2597840600
H 0.8814813600 -1.2987741700 -0.9040806300
H 0.0000000000 -2.1664994600 0.3558059700
H -0.8814813600 -1.2987741700 -0.9040806300
$end


$rem
N_FROZEN_CORE FC
MEM_TOTAL 3750
MEM_STATIC 1500
AUX_BASIS_CORR rimp2-def2-QZVPPD
SCF_CONVERGENCE 7
SCF_ALGORITHM  GDM
method DSD-PBEPBE-D3
GEN_SCFMAN TRUE
UNRESTRICTED True
THRESH  14
SYMMETRY FALSE
SYM_IGNORE TRUE
max_scf_cycles 200

XC_GRID 000099000590
BASIS DEF2-QZVPPD


$end










