$molecule
0 1
F 0.0000000000 0.0000000000 -0.6417885103
C 0.0000000000 0.0000000000 0.7379607823
H 1.0269085275 0.0000000000 1.1010277740
H -0.5134542638 0.8893288722 1.1010277740
H -0.5134542638 -0.8893288722 1.1010277740
$end


$rem
N_FROZEN_CORE FC
MEM_TOTAL 3750
MEM_STATIC 1500
AUX_BASIS_CORR rimp2-def2-QZVPPD
SCF_CONVERGENCE 7
SCF_ALGORITHM  GDM
method DSD-PBEPBE-D3
GEN_SCFMAN TRUE
UNRESTRICTED True
THRESH  14
SYMMETRY FALSE
SYM_IGNORE TRUE
max_scf_cycles 200

XC_GRID 000099000590
BASIS DEF2-QZVPPD


$end










