$molecule
0 1
C 0.0000000000 0.0000000000 0.0000000000
N 0.0000000000 0.0000000000 1.4652103900
H 0.9935275143 0.0000000000 -0.4620147204
H -0.5388777182 -0.8776399102 -0.3563730018
H -0.5388777182 0.8776399102 -0.3563730018
H 0.5050043387 0.8076065689 1.8068796954
H 0.5050043387 -0.8076065689 1.8068796954
$end


$rem
N_FROZEN_CORE FC
MEM_TOTAL 3750
MEM_STATIC 1500
AUX_BASIS_CORR rimp2-def2-QZVPPD
SCF_CONVERGENCE 7
SCF_ALGORITHM  GDM
method DSD-PBEPBE-D3
GEN_SCFMAN TRUE
UNRESTRICTED True
THRESH  14
SYMMETRY FALSE
SYM_IGNORE TRUE
max_scf_cycles 200

XC_GRID 000099000590
BASIS DEF2-QZVPPD


$end










