$molecule
0 1
C          0.0000000000        0.0000000000        1.2189015636
H          0.8785435837        0.0000000000        1.8731378695
H         -0.8785435837        0.0000000000        1.8731378695
C          0.0000000000        1.1775867249        0.2833207934
H          0.0000000000        2.2077775446        0.6075122945
C          0.0000000000        0.7351898659       -0.9918071177
H          0.0000000000        1.3507984914       -1.8800206214
C          0.0000000000       -1.1775867249        0.2833207934
H          0.0000000000       -2.2077775446        0.6075122945
C          0.0000000000       -0.7351898659       -0.9918071177
H          0.0000000000       -1.3507984914       -1.8800206214
$end


$rem
N_FROZEN_CORE FC
MEM_TOTAL 3750
MEM_STATIC 1500
AUX_BASIS_CORR rimp2-def2-QZVPPD
SCF_CONVERGENCE 7
SCF_ALGORITHM  GDM
method DSD-PBEPBE-D3
GEN_SCFMAN TRUE
UNRESTRICTED True
THRESH  14
SYMMETRY FALSE
SYM_IGNORE TRUE
max_scf_cycles 200

XC_GRID 000099000590
BASIS DEF2-QZVPPD


$end










