$molecule
0 1
H 0.0000000000 0.0000000000 0.0000000000
O 0.0000000000 0.0000000000 0.9626872700
O 1.4308050583 0.0000000000 1.2126851264
H 1.5316919221 0.8764384826 1.5979697053
$end


$rem
N_FROZEN_CORE FC
MEM_TOTAL 3750
MEM_STATIC 1500
AUX_BASIS_CORR rimp2-def2-QZVPPD
SCF_CONVERGENCE 7
SCF_ALGORITHM  GDM
method DSD-PBEPBE-D3
GEN_SCFMAN TRUE
UNRESTRICTED True
THRESH  14
SYMMETRY FALSE
SYM_IGNORE TRUE
max_scf_cycles 200

XC_GRID 000099000590
BASIS DEF2-QZVPPD


$end










