$molecule
0 1
C          0.0000000000        0.2966291979       -1.7286190751
C          0.0000000000       -0.5085018039       -0.6704308551
H          0.0000000000        1.3725122974       -1.6261979893
H          0.0000000000       -0.1339663586       -2.7204009721
H          0.0000000000       -1.5865144839       -0.7345935828
Cl         0.0000000000        0.0816724476        0.9572257898
$end


$rem
N_FROZEN_CORE FC
MEM_TOTAL 3750
MEM_STATIC 1500
AUX_BASIS_CORR rimp2-def2-QZVPPD
SCF_CONVERGENCE 7
SCF_ALGORITHM  GDM
method DSD-PBEPBE-D3
GEN_SCFMAN TRUE
UNRESTRICTED True
THRESH  14
SYMMETRY FALSE
SYM_IGNORE TRUE
max_scf_cycles 200

XC_GRID 000099000590
BASIS DEF2-QZVPPD


$end










