$molecule
0 1
O  -1.33050656139  0.999074203675  0.0
H  -1.06354555637  1.92108727851  0.0
H  -0.505132621028  0.491942164318  0.0
O  1.00521443812  -0.751268257962  0.0
H  0.946985150333  -1.33041769427  -0.765575241334
H  0.946985150333  -1.33041769427  0.765575241334
$end


$rem
N_FROZEN_CORE FC
MEM_TOTAL 3750
MEM_STATIC 1500
AUX_BASIS_CORR rimp2-def2-QZVPPD
SCF_CONVERGENCE 7
SCF_ALGORITHM  GDM
method DSD-PBEPBE-D3
GEN_SCFMAN TRUE
UNRESTRICTED True
THRESH  14
SYMMETRY FALSE
SYM_IGNORE TRUE
max_scf_cycles 200

XC_GRID 000099000590
BASIS DEF2-QZVPPD


$end










