$molecule
1 1
O  -1.19972819477  0.0290201030995  0.115747054033
H  -1.6314242393  -0.733319976182  0.528406494785
H  -1.69400186703  0.295623657151  -0.672422532307
O  1.19972819477  -0.0290201030995  0.115747054033
H  0.0  0.0  0.0565379669786
H  1.69400186703  -0.295623657151  -0.672422532307
H  1.6314242393  0.733319976182  0.528406494785
$end


$rem
N_FROZEN_CORE FC
MEM_TOTAL 3750
MEM_STATIC 1500
AUX_BASIS_CORR rimp2-def2-QZVPPD
SCF_CONVERGENCE 7
SCF_ALGORITHM  GDM
method DSD-PBEPBE-D3
GEN_SCFMAN TRUE
UNRESTRICTED True
THRESH  14
SYMMETRY FALSE
SYM_IGNORE TRUE
max_scf_cycles 200

XC_GRID 000099000590
BASIS DEF2-QZVPPD


$end










