$molecule
-1 1
H  -0.0913882666196  -0.244812845018  0.013082606375
H  1.52727337978  0.338312131698  0.652554394705
O  -1.220837939  -0.235618234754  0.0613146877576
O  1.24621332172  -0.220611024324  -0.0771380962111
H  -1.46126049589  0.362729972398  -0.649813592627
$end


$rem
N_FROZEN_CORE FC
MEM_TOTAL 3750
MEM_STATIC 1500
AUX_BASIS_CORR rimp2-def2-QZVPPD
SCF_CONVERGENCE 7
SCF_ALGORITHM  GDM
method DSD-PBEPBE-D3
GEN_SCFMAN TRUE
UNRESTRICTED True
THRESH  14
SYMMETRY FALSE
SYM_IGNORE TRUE
max_scf_cycles 200

XC_GRID 000099000590
BASIS DEF2-QZVPPD


$end










