$molecule
1 1
O  0.42771169031  0.167194625742  2.09948921573
H  0.910222565042  -0.513736428874  2.58098715409
H  0.202663124621  0.868802882525  2.72113761704
O  0.42771169031  0.167194625742  -2.09948921573
H  0.910222565042  -0.513736428874  -2.58098715409
H  0.202663124621  0.868802882525  -2.72113761704
O  -0.892666653829  -0.107071982648  0.0
H  -0.340915241637  -0.0421313275934  0.880690778859
H  -0.340915241637  -0.0421313275934  -0.880690778859
H  -1.50669762284  -0.853187520951  0.0
$end


$rem
N_FROZEN_CORE FC
MEM_TOTAL 3750
MEM_STATIC 1500
AUX_BASIS_CORR rimp2-def2-QZVPPD
SCF_CONVERGENCE 7
SCF_ALGORITHM  GDM
method DSD-PBEPBE-D3
GEN_SCFMAN TRUE
UNRESTRICTED True
THRESH  14
SYMMETRY FALSE
SYM_IGNORE TRUE
max_scf_cycles 200

XC_GRID 000099000590
BASIS DEF2-QZVPPD


$end










