$molecule
0 1
O  -1.46455532743  -1.46455532743  1.34970679428
O  -1.46455532743  1.46455532743  -1.34970679428
O  1.46455532743  -1.46455532743  -1.34970679428
O  1.46455532743  1.46455532743  1.34970679428
H  -1.53466554309  -1.53466554309  0.362255378756
H  -1.53466554309  1.53466554309  -0.362255378756
H  1.53466554309  -1.53466554309  -0.362255378756
H  1.53466554309  1.53466554309  0.362255378756
H  -2.08966373005  -2.08966373005  1.72511130369
H  -2.08966373005  2.08966373005  -1.72511130369
H  2.08966373005  -2.08966373005  -1.72511130369
H  2.08966373005  2.08966373005  1.72511130369
O  -1.40528868223  -1.40528868223  -1.33900834724
O  -1.40528868223  1.40528868223  1.33900834724
O  1.40528868223  -1.40528868223  1.33900834724
O  1.40528868223  1.40528868223  -1.33900834724
H  -1.55261589629  -0.462064580852  -1.52689905545
H  -1.55261589629  0.462064580852  1.52689905545
H  1.55261589629  -0.462064580852  1.52689905545
H  -0.462064580852  -1.55261589629  -1.52689905545
H  0.462064580852  1.55261589629  -1.52689905545
H  0.462064580852  -1.55261589629  1.52689905545
H  -0.462064580852  1.55261589629  1.52689905545
H  1.55261589629  0.462064580852  -1.52689905545
$end


$rem
N_FROZEN_CORE FC
MEM_TOTAL 15000
MEM_STATIC 6000
AUX_BASIS_CORR rimp2-def2-QZVPPD
SCF_CONVERGENCE 7
SCF_ALGORITHM  GDM
method DSD-PBEPBE-D3
GEN_SCFMAN TRUE
UNRESTRICTED True
THRESH  14
SYMMETRY FALSE
SYM_IGNORE TRUE
max_scf_cycles 200

XC_GRID 000099000590
BASIS DEF2-QZVPPD


$end










