$molecule
-1 1
H  -0.0267917608605  1.58182523711  0.283424937755
H  1.58182523711  0.0267917608605  0.283424937755
H  0.0267917608605  -1.58182523711  0.283424937755
H  -1.58182523711  -0.0267917608605  0.283424937755
O  0.0  0.0  0.95789994987
H  0.0  0.0  1.91770364412
O  0.0314199338083  2.41856661106  -0.252990508809
O  2.41856661106  -0.0314199338083  -0.252990508809
O  -0.0314199338083  -2.41856661106  -0.252990508809
O  -2.41856661106  0.0314199338083  -0.252990508809
H  0.843048033924  2.27852263871  -0.749335327444
H  2.27852263871  -0.843048033924  -0.749335327444
H  -0.843048033924  -2.27852263871  -0.749335327444
H  -2.27852263871  0.843048033924  -0.749335327444
$end


$rem
N_FROZEN_CORE FC
MEM_TOTAL 3750
MEM_STATIC 1500
AUX_BASIS_CORR rimp2-def2-QZVPPD
SCF_CONVERGENCE 7
SCF_ALGORITHM  GDM
method DSD-PBEPBE-D3
GEN_SCFMAN TRUE
UNRESTRICTED True
THRESH  14
SYMMETRY FALSE
SYM_IGNORE TRUE
max_scf_cycles 200

XC_GRID 000099000590
BASIS DEF2-QZVPPD


$end










