$molecule
-1 1
H  -1.45795878933  0.00408432375351  0.0244593695608
O  -2.42912059299  0.0733054636617  -0.326315104132
H  0.0  0.0  1.48136838158
H  -2.45649881872  0.956743710887  -0.699417040816
O  0.0  0.0  0.521177169198
H  1.45795878933  -0.00408432375351  0.0244593695608
O  2.42912059299  -0.0733054636617  -0.326315104132
H  2.45649881872  -0.956743710887  -0.699417040816
$end


$rem
N_FROZEN_CORE FC
MEM_TOTAL 3750
MEM_STATIC 1500
AUX_BASIS_CORR rimp2-def2-QZVPPD
SCF_CONVERGENCE 7
SCF_ALGORITHM  GDM
method DSD-PBEPBE-D3
GEN_SCFMAN TRUE
UNRESTRICTED True
THRESH  14
SYMMETRY FALSE
SYM_IGNORE TRUE
max_scf_cycles 200

XC_GRID 000099000590
BASIS DEF2-QZVPPD


$end










