$molecule
0 1
  F    1.078568522   0.000002047  -2.216931115
  C   -0.231925965  -0.000003605  -2.680770701
  H   -0.214217213  -0.000003961  -3.766332982
  H   -0.733386698  -0.888582223  -2.310091922
  H   -0.733393751   0.888571186  -2.310092347
$end


$rem
N_FROZEN_CORE FC
MEM_TOTAL 3750
MEM_STATIC 1500
AUX_BASIS_CORR rimp2-def2-QZVPPD
SCF_CONVERGENCE 7
SCF_ALGORITHM  GDM
method DSD-PBEPBE-D3
GEN_SCFMAN TRUE
UNRESTRICTED True
THRESH  14
SYMMETRY FALSE
SYM_IGNORE TRUE
max_scf_cycles 200

XC_GRID 000099000590
BASIS DEF2-QZVPPD


$end










