$molecule
0 1
  S   -2.731388666   5.545894629   1.071115439
  H   -3.947495160   5.054438046   0.817504089
  C   -2.307840495   5.959830625  -0.644931886
  H   -1.303138492   6.372124167  -0.616134708
  H   -2.302572669   5.073197297  -1.271052775
  H   -2.984036076   6.707868207  -1.045967894
$end


$rem
N_FROZEN_CORE FC
MEM_TOTAL 3750
MEM_STATIC 1500
AUX_BASIS_CORR rimp2-def2-QZVPPD
SCF_CONVERGENCE 7
SCF_ALGORITHM  GDM
method DSD-PBEPBE-D3
GEN_SCFMAN TRUE
UNRESTRICTED True
THRESH  14
SYMMETRY FALSE
SYM_IGNORE TRUE
max_scf_cycles 200

XC_GRID 000099000590
BASIS DEF2-QZVPPD


$end










