$molecule
0 1
  I    0.494360760   0.000136728  -0.299186147
  H   -0.026818451   0.000009824   1.227779722
  O   -0.299845151  -0.000206592   3.210183180
  H   -1.057490585   0.000037443   3.799838164
  C    0.881786291  -0.000026326   4.003139037
  H    1.719796684  -0.000127739   3.312925038
  H    0.951022235   0.888896743   4.629904896
  H    0.951069216  -0.888720081   4.630225109
$end


$rem
N_FROZEN_CORE FC
MEM_TOTAL 3750
MEM_STATIC 1500
AUX_BASIS_CORR rimp2-def2-QZVPPD
SCF_CONVERGENCE 7
SCF_ALGORITHM  GDM
method DSD-PBEPBE-D3
GEN_SCFMAN TRUE
UNRESTRICTED True
THRESH  14
SYMMETRY FALSE
SYM_IGNORE TRUE
max_scf_cycles 200

XC_GRID 000099000590
BASIS DEF2-QZVPPD


$end










