$molecule
0 1
 C    -0.032603    -0.245329    -0.035933
 I    -2.470315    -2.687736    -1.235348
 I    -4.245194    -4.464741    -2.108170
 H    -0.980553     0.254481    -0.212468
 H    -0.160128    -1.020226     0.714308
 H     0.692193     0.480189     0.320357
 H     0.328323    -0.685520    -0.960895
$end


$rem
N_FROZEN_CORE FC
MEM_TOTAL 3750
MEM_STATIC 1500
AUX_BASIS_CORR rimp2-def2-QZVPPD
SCF_CONVERGENCE 7
SCF_ALGORITHM  GDM
method DSD-PBEPBE-D3
GEN_SCFMAN TRUE
UNRESTRICTED True
THRESH  14
SYMMETRY FALSE
SYM_IGNORE TRUE
max_scf_cycles 200

XC_GRID 000099000590
BASIS DEF2-QZVPPD


$end










