$molecule
0 1
  C   -0.099779142  -0.049213106  -0.049809806
  H   -0.812383509   0.769437899  -0.053814782
  H   -0.386626161  -0.773928179   0.705768112
  H    0.890551861   0.333663823   0.175221084
  H   -0.089826477  -0.524172039  -1.025860985
  F   -1.010857678  -2.932765272  -0.576306887
  F   -1.427409893  -4.247450791  -0.809979784
$end


$rem
N_FROZEN_CORE FC
MEM_TOTAL 3750
MEM_STATIC 1500
AUX_BASIS_CORR rimp2-def2-QZVPPD
SCF_CONVERGENCE 7
SCF_ALGORITHM  GDM
method DSD-PBEPBE-D3
GEN_SCFMAN TRUE
UNRESTRICTED True
THRESH  14
SYMMETRY FALSE
SYM_IGNORE TRUE
max_scf_cycles 200

XC_GRID 000099000590
BASIS DEF2-QZVPPD


$end










