$molecule
0 1
  I   -0.327519989  -2.599622461   1.921273017
  C   -0.052998730  -4.703033161   1.910253498
  H   -0.048594510  -5.036740469   0.877330162
  H    0.895853079  -4.920964836   2.390421446
  H   -0.875069984  -5.153128793   2.457917185
$end


$rem
N_FROZEN_CORE FC
MEM_TOTAL 3750
MEM_STATIC 1500
AUX_BASIS_CORR rimp2-def2-QZVPPD
SCF_CONVERGENCE 7
SCF_ALGORITHM  GDM
method DSD-PBEPBE-D3
GEN_SCFMAN TRUE
UNRESTRICTED True
THRESH  14
SYMMETRY FALSE
SYM_IGNORE TRUE
max_scf_cycles 200

XC_GRID 000099000590
BASIS DEF2-QZVPPD


$end










