$molecule
0 1
  O   -0.778073626   0.205937567  -0.003744167
  H    0.204621770   0.306150037  -0.005250247
  C   -1.064673043  -1.099865265  -0.000037626
 Cl   -2.818149715  -1.288073131   0.002340120
 Cl   -0.388554792  -1.946140752  -1.447422763
 Cl   -0.385461107  -1.938612521   1.450299192
  O    1.676197276   0.366513090  -0.006920281
  H    2.046443904  -0.093538912  -0.765165887
  H    2.047450591  -0.090358721   0.752797045
$end


$rem
N_FROZEN_CORE FC
MEM_TOTAL 3750
MEM_STATIC 1500
AUX_BASIS_CORR rimp2-def2-QZVPPD
SCF_CONVERGENCE 7
SCF_ALGORITHM  GDM
method DSD-PBEPBE-D3
GEN_SCFMAN TRUE
UNRESTRICTED True
THRESH  14
SYMMETRY FALSE
SYM_IGNORE TRUE
max_scf_cycles 200

XC_GRID 000099000590
BASIS DEF2-QZVPPD


$end










