$molecule
0 1
  F    0.324738231  -0.000096172   0.367513243
  H    0.106356599  -0.000015606   1.274535595
  O   -0.158862168   0.000140624   2.891998192
  H   -1.002595728  -0.000044817   3.347967017
  C    0.890368753   0.000013888   3.855725401
  H    1.821758746   0.000054905   3.300000127
  H    0.857899127   0.889163877   4.483550352
  H    0.857868537  -0.889265977   4.483364672
$end


$rem
N_FROZEN_CORE FC
MEM_TOTAL 3750
MEM_STATIC 1500
AUX_BASIS_CORR rimp2-def2-QZVPPD
SCF_CONVERGENCE 7
SCF_ALGORITHM  GDM
method DSD-PBEPBE-D3
GEN_SCFMAN TRUE
UNRESTRICTED True
THRESH  14
SYMMETRY FALSE
SYM_IGNORE TRUE
max_scf_cycles 200

XC_GRID 000099000590
BASIS DEF2-QZVPPD


$end










