$molecule
0 1
  C    0.050957671   0.055164191  -0.032925885
  H   -1.024445640   0.072269161   0.117546172
  H    0.508348983  -0.636912672   0.667869998
  H    0.450713107   1.050360674   0.135265329
  H    0.274236028  -0.252091989  -1.050343280
 Br   -1.061552131  -2.625940192  -0.516359021
 Br   -1.922222951  -4.710089895  -0.889016472
$end


$rem
N_FROZEN_CORE FC
MEM_TOTAL 3750
INTERNAL_STABILITY TRUE
MEM_STATIC 1500
AUX_BASIS_CORR rimp2-def2-QZVPPD
SCF_CONVERGENCE 7
SCF_ALGORITHM  GDM
method DSD-PBEPBE-D3
GEN_SCFMAN TRUE
UNRESTRICTED True
THRESH  14
SYMMETRY FALSE
SYM_IGNORE TRUE
max_scf_cycles 200

XC_GRID 000099000590
BASIS DEF2-QZVPPD


$end










