$molecule
0 1
 Cl    1.454695861  -0.000021977  -2.566592577
  C   -0.330403023  -0.000009975  -2.577675512
  H   -0.660203223  -0.000003567  -3.609304531
  H   -0.672427116  -0.887077755  -2.059733506
  H   -0.672417321   0.887055644  -2.059723966
$end


$rem
N_FROZEN_CORE FC
MEM_TOTAL 3750
MEM_STATIC 1500
AUX_BASIS_CORR rimp2-def2-QZVPPD
SCF_CONVERGENCE 7
SCF_ALGORITHM  GDM
method DSD-PBEPBE-D3
GEN_SCFMAN TRUE
UNRESTRICTED True
THRESH  14
SYMMETRY FALSE
SYM_IGNORE TRUE
max_scf_cycles 200

XC_GRID 000099000590
BASIS DEF2-QZVPPD


$end










