$molecule
0 1
  I    0.494360760   0.000136728  -0.299186147
  H   -0.026818451   0.000009824   1.227779722
  O   -0.272556125  -0.000184961   3.012041899
  H   -1.030201559   0.000059074   3.601696883
  C    0.909075317  -0.000004695   3.804997756
  H    1.747085710  -0.000106108   3.114783757
  H    0.978311261   0.888918374   4.431763615
  H    0.978358242  -0.888698450   4.432083828
$end


$rem
N_FROZEN_CORE FC
MEM_TOTAL 3750
MEM_STATIC 1500
AUX_BASIS_CORR rimp2-def2-QZVPPD
SCF_CONVERGENCE 7
SCF_ALGORITHM  GDM
method DSD-PBEPBE-D3
GEN_SCFMAN TRUE
UNRESTRICTED True
THRESH  14
SYMMETRY FALSE
SYM_IGNORE TRUE
max_scf_cycles 200

XC_GRID 000099000590
BASIS DEF2-QZVPPD


$end










