$molecule
0 1
  F   -0.071729041  -0.108855435   0.260652232
  H   -0.003218488  -0.010570213   1.202783243
  N    0.053387290   0.049010236   2.915062160
  H    1.008201758   0.081611278   3.247542602
  C   -0.622440711  -1.144789251   3.439397970
  H   -1.645308003  -1.158692763   3.073884010
  H   -0.123430739  -2.029191483   3.053577508
  H   -0.640440774  -1.201652603   4.528221966
  H   -0.395713292   0.884606234   3.266205308
$end


$rem
N_FROZEN_CORE FC
MEM_TOTAL 3750
MEM_STATIC 1500
AUX_BASIS_CORR rimp2-def2-QZVPPD
SCF_CONVERGENCE 7
SCF_ALGORITHM  GDM
method DSD-PBEPBE-D3
GEN_SCFMAN TRUE
UNRESTRICTED True
THRESH  14
SYMMETRY FALSE
SYM_IGNORE TRUE
max_scf_cycles 200

XC_GRID 000099000590
BASIS DEF2-QZVPPD


$end










