$molecule
0 1
  O    4.297993395   0.760057811   1.057422541
  C    5.045279904   0.158157026   0.315940457
  H    6.136823603   0.219384226   0.424653931
  H    4.665800847  -0.475957386  -0.498556864
$end


$rem
N_FROZEN_CORE FC
MEM_TOTAL 3750
MEM_STATIC 1500
AUX_BASIS_CORR rimp2-def2-QZVPPD
SCF_CONVERGENCE 7
SCF_ALGORITHM  GDM
method DSD-PBEPBE-D3
GEN_SCFMAN TRUE
UNRESTRICTED True
THRESH  14
SYMMETRY FALSE
SYM_IGNORE TRUE
max_scf_cycles 200

XC_GRID 000099000590
BASIS DEF2-QZVPPD


$end










