$molecule
0 1
  I    0.494360760   0.000136728  -0.299186147
  H   -0.026818451   0.000009824   1.227779722
  O   -0.258900789  -0.000174137   2.912892677
  H   -1.016546223   0.000069898   3.502547661
  C    0.922730653   0.000006129   3.705848534
  H    1.760741046  -0.000095284   3.015634535
  H    0.991966597   0.888929198   4.332614393
  H    0.992013578  -0.888687626   4.332934606
$end


$rem
N_FROZEN_CORE FC
MEM_TOTAL 3750
MEM_STATIC 1500
AUX_BASIS_CORR rimp2-def2-QZVPPD
SCF_CONVERGENCE 7
SCF_ALGORITHM  GDM
method DSD-PBEPBE-D3
GEN_SCFMAN TRUE
UNRESTRICTED True
THRESH  14
SYMMETRY FALSE
SYM_IGNORE TRUE
max_scf_cycles 200

XC_GRID 000099000590
BASIS DEF2-QZVPPD


$end










