$molecule
0 1
  O    4.194707306   1.096639935   0.703328986
  C    4.742537589   0.066055250   0.379044361
  H    5.833489722  -0.056116745   0.444331375
  H    4.175174289  -0.798719906   0.003100903
$end


$rem
N_FROZEN_CORE FC
MEM_TOTAL 3750
MEM_STATIC 1500
AUX_BASIS_CORR rimp2-def2-QZVPPD
SCF_CONVERGENCE 7
SCF_ALGORITHM  GDM
method DSD-PBEPBE-D3
GEN_SCFMAN TRUE
UNRESTRICTED True
THRESH  14
SYMMETRY FALSE
SYM_IGNORE TRUE
max_scf_cycles 200

XC_GRID 000099000590
BASIS DEF2-QZVPPD


$end










