$molecule
0 1
 Br   -0.027650793  -2.585230811   1.737629694
  C    0.100930819  -4.512779758   1.833361489
  H    0.032236616  -4.908858092   0.827604994
  H    1.054397314  -4.767514510   2.279656285
  H   -0.715829994  -4.877758865   2.443967823
$end


$rem
N_FROZEN_CORE FC
MEM_TOTAL 3750
MEM_STATIC 1500
AUX_BASIS_CORR rimp2-def2-QZVPPD
SCF_CONVERGENCE 7
SCF_ALGORITHM  GDM
method DSD-PBEPBE-D3
GEN_SCFMAN TRUE
UNRESTRICTED True
THRESH  14
SYMMETRY FALSE
SYM_IGNORE TRUE
max_scf_cycles 200

XC_GRID 000099000590
BASIS DEF2-QZVPPD


$end










