$molecule
0 1
  C    0.081577546  -0.079576968  -0.122248507
 Br    1.796548323   0.397128500   0.629679005
  H    0.013255521  -1.160016154  -0.156779811
  H   -0.692267287   0.331402893   0.514488442
  H    0.018180933   0.339827727  -1.118895585
  O    4.246379573   0.758209390   1.205881919
  C    4.715781158   0.152292772   0.268050319
  H    5.802901706   0.056817777   0.125596820
  H    4.077438010  -0.331442481  -0.485984909
$end


$rem
N_FROZEN_CORE FC
MEM_TOTAL 3750
MEM_STATIC 1500
AUX_BASIS_CORR rimp2-def2-QZVPPD
SCF_CONVERGENCE 7
SCF_ALGORITHM  GDM
method DSD-PBEPBE-D3
GEN_SCFMAN TRUE
UNRESTRICTED True
THRESH  14
SYMMETRY FALSE
SYM_IGNORE TRUE
max_scf_cycles 200

XC_GRID 000099000590
BASIS DEF2-QZVPPD


$end










