$molecule
0 1
 Cl    0.377733920  -0.000000483   0.006430557
  H    0.049409273  -0.000001882   1.255616511
  O   -0.195101485   0.000006211   2.900424891
  H   -1.007314932  -0.000006257   3.411642875
  C    0.909679371   0.000000220   3.799176100
  H    1.806310519  -0.000001298   3.188010972
  H    0.918038911   0.888980545   4.428815432
  H    0.918034567  -0.888982449   4.428812165
$end


$rem
N_FROZEN_CORE FC
MEM_TOTAL 3750
MEM_STATIC 1500
AUX_BASIS_CORR rimp2-def2-QZVPPD
SCF_CONVERGENCE 7
SCF_ALGORITHM  GDM
method DSD-PBEPBE-D3
GEN_SCFMAN TRUE
UNRESTRICTED True
THRESH  14
SYMMETRY FALSE
SYM_IGNORE TRUE
max_scf_cycles 200

XC_GRID 000099000590
BASIS DEF2-QZVPPD


$end










