$molecule
0 1
 Br   -0.369945183  -2.527102069   2.003433904
  C   -0.051619343  -4.422090519   1.938366125
  F   -0.022669675  -4.845334380   0.680826517
  F    1.110364661  -4.716889345   2.507639435
  F   -1.011606681  -5.076640373   2.579696692
$end


$rem
N_FROZEN_CORE FC
MEM_TOTAL 3750
INTERNAL_STABILITY TRUE
MEM_STATIC 1500
AUX_BASIS_CORR rimp2-def2-QZVPPD
SCF_CONVERGENCE 7
SCF_ALGORITHM  GDM
method DSD-PBEPBE-D3
GEN_SCFMAN TRUE
UNRESTRICTED True
THRESH  14
SYMMETRY FALSE
SYM_IGNORE TRUE
max_scf_cycles 200

XC_GRID 000099000590
BASIS DEF2-QZVPPD


$end










