$molecule
0 1
 Cl    0.377733920  -0.000000483   0.006430557
  H    0.049409273  -0.000001882   1.255616511
  O   -0.181518371   0.000005762   2.809052143
  H   -0.993731818  -0.000006706   3.320270127
  C    0.923262485  -0.000000229   3.707803352
  H    1.819893633  -0.000001747   3.096638224
  H    0.931622025   0.888980096   4.337442684
  H    0.931617681  -0.888982898   4.337439417
$end


$rem
N_FROZEN_CORE FC
MEM_TOTAL 3750
MEM_STATIC 1500
AUX_BASIS_CORR rimp2-def2-QZVPPD
SCF_CONVERGENCE 7
SCF_ALGORITHM  GDM
method DSD-PBEPBE-D3
GEN_SCFMAN TRUE
UNRESTRICTED True
THRESH  14
SYMMETRY FALSE
SYM_IGNORE TRUE
max_scf_cycles 200

XC_GRID 000099000590
BASIS DEF2-QZVPPD


$end










