$molecule
0 1
  C    0.250211388  -0.141261283   2.278305952
  F    0.055015573  -0.060688554   0.911538424
  H    1.189310250   0.342978795   2.531275149
  H    0.282891774  -1.187166859   2.570525524
  H   -0.571443596   0.358513497   2.783864006
  C   -0.203850859   0.112909924  -1.843742252
  F   -0.334707048   0.216092369  -3.217085484
  H   -1.055043867  -0.429687861  -1.442976456
  H    0.713233263  -0.420320350  -1.610862375
  H   -0.168050728   1.108643283  -1.411665167
$end


$rem
N_FROZEN_CORE FC
MEM_TOTAL 3750
MEM_STATIC 1500
AUX_BASIS_CORR rimp2-def2-QZVPPD
SCF_CONVERGENCE 7
SCF_ALGORITHM  GDM
method DSD-PBEPBE-D3
GEN_SCFMAN TRUE
UNRESTRICTED True
THRESH  14
SYMMETRY FALSE
SYM_IGNORE TRUE
max_scf_cycles 200

XC_GRID 000099000590
BASIS DEF2-QZVPPD


$end










