$molecule
0 1
  I    0.494360760   0.000136728  -0.299186147
  H   -0.026818451   0.000009824   1.227779722
  O   -0.436372145  -0.000314811   4.201483974
  H   -1.194017579  -0.000070776   4.791138958
  C    0.745259297  -0.000134545   4.994439831
  H    1.583269690  -0.000235958   4.304225832
  H    0.814495241   0.888788524   5.621205690
  H    0.814542222  -0.888828300   5.621525903
$end


$rem
N_FROZEN_CORE FC
MEM_TOTAL 3750
MEM_STATIC 1500
AUX_BASIS_CORR rimp2-def2-QZVPPD
SCF_CONVERGENCE 7
SCF_ALGORITHM  GDM
method DSD-PBEPBE-D3
GEN_SCFMAN TRUE
UNRESTRICTED True
THRESH  14
SYMMETRY FALSE
SYM_IGNORE TRUE
max_scf_cycles 200

XC_GRID 000099000590
BASIS DEF2-QZVPPD


$end










