$molecule
0 1
 C    -0.029223    -0.304334    -0.044139
Cl    -2.261745    -2.713822    -1.012699
Cl    -3.564174    -4.120544    -1.577242
 H    -1.013963     0.140625    -0.150390
 H    -0.061190    -1.086463     0.708351
 H     0.678304     0.459656     0.262535
 H     0.286077    -0.724543    -0.994403
$end


$rem
N_FROZEN_CORE FC
MEM_TOTAL 3750
MEM_STATIC 1500
AUX_BASIS_CORR rimp2-def2-QZVPPD
SCF_CONVERGENCE 7
SCF_ALGORITHM  GDM
method DSD-PBEPBE-D3
GEN_SCFMAN TRUE
UNRESTRICTED True
THRESH  14
SYMMETRY FALSE
SYM_IGNORE TRUE
max_scf_cycles 200

XC_GRID 000099000590
BASIS DEF2-QZVPPD


$end










