$molecule
0 1
  C   -0.140609484   0.081366018  -1.110009988
  H   -0.212640517   0.113019114  -2.192634413
  H   -1.007000985  -0.431324663  -0.704041365
  H    0.764295177  -0.447467205  -0.825915295
  H   -0.110811094   1.093665494  -0.719271304
$end


$rem
N_FROZEN_CORE FC
MEM_TOTAL 3750
INTERNAL_STABILITY TRUE
MEM_STATIC 1500
AUX_BASIS_CORR rimp2-def2-QZVPPD
SCF_CONVERGENCE 7
SCF_ALGORITHM  GDM
method DSD-PBEPBE-D3
GEN_SCFMAN TRUE
UNRESTRICTED True
THRESH  14
SYMMETRY FALSE
SYM_IGNORE TRUE
max_scf_cycles 200

XC_GRID 000099000590
BASIS DEF2-QZVPPD


$end










