$molecule
0 1
  F    0.324738231  -0.000096172   0.367513243
  H    0.106356599  -0.000015606   1.274535595
  O   -0.144904137   0.000132402   2.806873775
  H   -0.988637697  -0.000053039   3.262842600
  C    0.904326784   0.000005666   3.770600984
  H    1.835716777   0.000046683   3.214875710
  H    0.871857158   0.889155655   4.398425935
  H    0.871826568  -0.889274199   4.398240255
$end


$rem
N_FROZEN_CORE FC
MEM_TOTAL 3750
MEM_STATIC 1500
AUX_BASIS_CORR rimp2-def2-QZVPPD
SCF_CONVERGENCE 7
SCF_ALGORITHM  GDM
method DSD-PBEPBE-D3
GEN_SCFMAN TRUE
UNRESTRICTED True
THRESH  14
SYMMETRY FALSE
SYM_IGNORE TRUE
max_scf_cycles 200

XC_GRID 000099000590
BASIS DEF2-QZVPPD


$end










