$molecule
0 1
  C   -0.000028509  -0.000461929   2.158149022
 Cl   -1.454063734   0.838777303   1.616235012
 Cl    1.454144531   0.838659727   1.616208515
 Cl   -0.000087400  -1.679795034   1.617802938
  H    0.000005696   0.000267325   3.239305949
$end


$rem
N_FROZEN_CORE FC
MEM_TOTAL 3750
MEM_STATIC 1500
AUX_BASIS_CORR rimp2-def2-QZVPPD
SCF_CONVERGENCE 7
SCF_ALGORITHM  GDM
method DSD-PBEPBE-D3
GEN_SCFMAN TRUE
UNRESTRICTED True
THRESH  14
SYMMETRY FALSE
SYM_IGNORE TRUE
max_scf_cycles 200

XC_GRID 000099000590
BASIS DEF2-QZVPPD


$end










