$molecule
0 1
 Cl    0.377733920  -0.000000483   0.006430557
  H    0.049409273  -0.000001882   1.255616511
  O   -0.222253009   0.000007110   3.083071474
  H   -1.034466456  -0.000005358   3.594289458
  C    0.882527847   0.000001119   3.981822683
  H    1.779158995  -0.000000399   3.370657555
  H    0.890887387   0.888981444   4.611462015
  H    0.890883043  -0.888981550   4.611458748
$end


$rem
N_FROZEN_CORE FC
MEM_TOTAL 3750
MEM_STATIC 1500
AUX_BASIS_CORR rimp2-def2-QZVPPD
SCF_CONVERGENCE 7
SCF_ALGORITHM  GDM
method DSD-PBEPBE-D3
GEN_SCFMAN TRUE
UNRESTRICTED True
THRESH  14
SYMMETRY FALSE
SYM_IGNORE TRUE
max_scf_cycles 200

XC_GRID 000099000590
BASIS DEF2-QZVPPD


$end










