$molecule
0 1
  O    4.364755714   0.760013411   1.187769400
  C    4.940637192   0.169489943   0.300151261
  H    6.038750626   0.129651512   0.249522602
  H    4.392121584  -0.354426595  -0.496711389
$end


$rem
N_FROZEN_CORE FC
MEM_TOTAL 3750
MEM_STATIC 1500
AUX_BASIS_CORR rimp2-def2-QZVPPD
SCF_CONVERGENCE 7
SCF_ALGORITHM  GDM
method DSD-PBEPBE-D3
GEN_SCFMAN TRUE
UNRESTRICTED True
THRESH  14
SYMMETRY FALSE
SYM_IGNORE TRUE
max_scf_cycles 200

XC_GRID 000099000590
BASIS DEF2-QZVPPD


$end










