$molecule
0 1
  C   -0.032603000  -0.245329000  -0.035933000
  I   -2.349443697  -2.566655447  -1.175884734
  I   -4.124322697  -4.343660447  -2.048706734
  H   -0.980553000   0.254481000  -0.212468000
  H   -0.160128000  -1.020226000   0.714308000
  H    0.692193000   0.480189000   0.320357000
  H    0.328323000  -0.685520000  -0.960895000
$end


$rem
N_FROZEN_CORE FC
MEM_TOTAL 3750
MEM_STATIC 1500
AUX_BASIS_CORR rimp2-def2-QZVPPD
SCF_CONVERGENCE 7
SCF_ALGORITHM  GDM
method DSD-PBEPBE-D3
GEN_SCFMAN TRUE
UNRESTRICTED True
THRESH  14
SYMMETRY FALSE
SYM_IGNORE TRUE
max_scf_cycles 200

XC_GRID 000099000590
BASIS DEF2-QZVPPD


$end










