$molecule
0 1
  F    0.324738231  -0.000096172   0.367513243
  H    0.106356599  -0.000015606   1.274535595
  O   -0.172804018   0.000148837   2.977023926
  H   -1.016537578  -0.000036604   3.432992751
  C    0.876426903   0.000022101   3.940751135
  H    1.807816896   0.000063118   3.385025861
  H    0.843957277   0.889172090   4.568576086
  H    0.843926687  -0.889257764   4.568390406
$end


$rem
N_FROZEN_CORE FC
MEM_TOTAL 3750
MEM_STATIC 1500
AUX_BASIS_CORR rimp2-def2-QZVPPD
SCF_CONVERGENCE 7
SCF_ALGORITHM  GDM
method DSD-PBEPBE-D3
GEN_SCFMAN TRUE
UNRESTRICTED True
THRESH  14
SYMMETRY FALSE
SYM_IGNORE TRUE
max_scf_cycles 200

XC_GRID 000099000590
BASIS DEF2-QZVPPD


$end










