$molecule
0 1
  C    0.000023411   0.000105759   2.053285735
  F   -1.082526715   0.625339904   1.589816968
  F    1.082627682   0.625237764   1.589922249
  F   -0.000023860  -1.249820225   1.589264753
  H   -0.000041960  -0.000280062   3.138092074
  C   -0.000030228  -0.000263279  -3.771712327
  H   -0.000023776  -0.000074707  -4.857240257
  H   -0.885678699  -0.511781289  -3.408432206
  H    0.885707349  -0.511626262  -3.408421833
  H   -0.000121604   1.022370171  -3.408146296
$end


$rem
N_FROZEN_CORE FC
MEM_TOTAL 3750
MEM_STATIC 1500
AUX_BASIS_CORR rimp2-def2-QZVPPD
SCF_CONVERGENCE 7
SCF_ALGORITHM  GDM
method DSD-PBEPBE-D3
GEN_SCFMAN TRUE
UNRESTRICTED True
THRESH  14
SYMMETRY FALSE
SYM_IGNORE TRUE
max_scf_cycles 200

XC_GRID 000099000590
BASIS DEF2-QZVPPD


$end










