$molecule
0 1
  C    0.228087368  -0.006027308  -0.103512024
 Cl    1.808884452   0.632806687   0.291464994
  F    0.331959317  -1.250132504  -0.555496397
  F   -0.551167778  -0.013339450   0.969446208
  F   -0.350921815   0.733335757  -1.039651530
  O    4.642030944   1.183605142   0.780550352
  C    5.189861227   0.153020457   0.456265727
  H    6.280813360   0.030848462   0.521552741
  H    4.622497927  -0.711754699   0.080322269
$end


$rem
N_FROZEN_CORE FC
MEM_TOTAL 3750
MEM_STATIC 1500
AUX_BASIS_CORR rimp2-def2-QZVPPD
SCF_CONVERGENCE 7
SCF_ALGORITHM  GDM
method DSD-PBEPBE-D3
GEN_SCFMAN TRUE
UNRESTRICTED True
THRESH  14
SYMMETRY FALSE
SYM_IGNORE TRUE
max_scf_cycles 200

XC_GRID 000099000590
BASIS DEF2-QZVPPD


$end










