$molecule
0 1
  F    0.324738231  -0.000096172   0.367513243
  H    0.106356599  -0.000015606   1.274535595
  O   -0.116988076   0.000115958   2.636624942
  H   -0.960721636  -0.000069483   3.092593767
  C    0.932242845  -0.000010778   3.600352151
  H    1.863632838   0.000030239   3.044626877
  H    0.899773219   0.889139211   4.228177102
  H    0.899742629  -0.889290643   4.227991422
$end


$rem
N_FROZEN_CORE FC
MEM_TOTAL 3750
MEM_STATIC 1500
AUX_BASIS_CORR rimp2-def2-QZVPPD
SCF_CONVERGENCE 7
SCF_ALGORITHM  GDM
method DSD-PBEPBE-D3
GEN_SCFMAN TRUE
UNRESTRICTED True
THRESH  14
SYMMETRY FALSE
SYM_IGNORE TRUE
max_scf_cycles 200

XC_GRID 000099000590
BASIS DEF2-QZVPPD


$end










