$molecule
0 1
  H    1.101371146  -0.000117739  -0.587770996
  O    0.397090227  -0.000027546   0.067866526
  C    1.005829292   0.000013334   1.347930653
  H    0.205003605  -0.000000430   2.081297025
  H    1.620180682  -0.886685805   1.514496095
  H    1.620127834   0.886756142   1.514470494
$end


$rem
N_FROZEN_CORE FC
MEM_TOTAL 3750
MEM_STATIC 1500
AUX_BASIS_CORR rimp2-def2-QZVPPD
SCF_CONVERGENCE 7
SCF_ALGORITHM  GDM
method DSD-PBEPBE-D3
GEN_SCFMAN TRUE
UNRESTRICTED True
THRESH  14
SYMMETRY FALSE
SYM_IGNORE TRUE
max_scf_cycles 200

XC_GRID 000099000590
BASIS DEF2-QZVPPD


$end










