$molecule
0 1
  O   -0.245253455  -0.000163320   2.813801553
  H   -1.002898889   0.000080715   3.403456537
  C    0.936377987   0.000016946   3.606757410
  H    1.774388380  -0.000084467   2.916543411
  H    1.005613931   0.888940015   4.233523269
  H    1.005660912  -0.888676809   4.233843482
$end


$rem
N_FROZEN_CORE FC
MEM_TOTAL 3750
MEM_STATIC 1500
AUX_BASIS_CORR rimp2-def2-QZVPPD
SCF_CONVERGENCE 7
SCF_ALGORITHM  GDM
method DSD-PBEPBE-D3
GEN_SCFMAN TRUE
UNRESTRICTED True
THRESH  14
SYMMETRY FALSE
SYM_IGNORE TRUE
max_scf_cycles 200

XC_GRID 000099000590
BASIS DEF2-QZVPPD


$end










