$molecule
0 1
  C   -0.189833176  -0.645396435   0.069807761
  C    1.121636324  -0.354065576   0.439096514
  C    1.486520953   0.962572632   0.712107225
  C    0.549329390   1.989209324   0.617868956
  C   -0.757627135   1.681862630   0.246856908
  C   -1.138190460   0.370551816  -0.028582325
 Br   -2.038462778   3.070459841   0.115165429
  H    1.852935245  -1.146434699   0.514119204
  H    0.825048723   3.012176989   0.829385472
  H    2.502259769   1.196433556   1.000317333
  H   -2.157140187   0.151608161  -0.313181471
  H   -0.480820487  -1.664983631  -0.142918416
$end


$rem
N_FROZEN_CORE FC
MEM_TOTAL 7500
MEM_STATIC 3000
AUX_BASIS_CORR rimp2-def2-QZVPPD
SCF_CONVERGENCE 7
SCF_ALGORITHM  GDM
method DSD-PBEPBE-D3
GEN_SCFMAN TRUE
UNRESTRICTED True
THRESH  14
SYMMETRY FALSE
SYM_IGNORE TRUE
max_scf_cycles 200

XC_GRID 000099000590
BASIS DEF2-QZVPPD


$end










