$molecule
0 1
  O   -3.368017089   0.000391090  -3.271214595
  C   -4.525484119   0.029996852  -2.892121234
  C   -4.851258002   0.030287289  -1.414455369
  C   -5.657793269   0.067094509  -3.895697151
  H   -5.532405189   0.943639332  -4.528927030
  H   -5.580983574  -0.807777185  -4.538920784
  H   -6.639280613   0.091652561  -3.433106964
  H   -5.917353135   0.058404397  -1.212650995
  H   -4.417272353  -0.859432185  -0.961208114
  H   -4.369110878   0.889405947  -0.950970021
$end


$rem
N_FROZEN_CORE FC
MEM_TOTAL 3750
MEM_STATIC 1500
AUX_BASIS_CORR rimp2-def2-QZVPPD
SCF_CONVERGENCE 7
SCF_ALGORITHM  GDM
method DSD-PBEPBE-D3
GEN_SCFMAN TRUE
UNRESTRICTED True
THRESH  14
SYMMETRY FALSE
SYM_IGNORE TRUE
max_scf_cycles 200

XC_GRID 000099000590
BASIS DEF2-QZVPPD


$end










