$molecule
0 1
  C   -0.171682962   0.092497084  -1.527470165
  F   -0.302539151   0.195679529  -2.900813397
  H   -1.022875970  -0.450100701  -1.126704369
  H    0.745401160  -0.440733190  -1.294590288
  H   -0.135882831   1.088230443  -1.095393080
$end


$rem
N_FROZEN_CORE FC
MEM_TOTAL 3750
MEM_STATIC 1500
AUX_BASIS_CORR rimp2-def2-QZVPPD
SCF_CONVERGENCE 7
SCF_ALGORITHM  GDM
method DSD-PBEPBE-D3
GEN_SCFMAN TRUE
UNRESTRICTED True
THRESH  14
SYMMETRY FALSE
SYM_IGNORE TRUE
max_scf_cycles 200

XC_GRID 000099000590
BASIS DEF2-QZVPPD


$end










