$molecule
0 1
  O    4.195658095   0.767175231   1.077469199
  C    4.885238448   0.148354541   0.296134053
  H    5.982822381   0.166240561   0.354044871
  H    4.445901507  -0.460570468  -0.507996443
$end


$rem
N_FROZEN_CORE FC
MEM_TOTAL 3750
MEM_STATIC 1500
AUX_BASIS_CORR rimp2-def2-QZVPPD
SCF_CONVERGENCE 7
SCF_ALGORITHM  GDM
method DSD-PBEPBE-D3
GEN_SCFMAN TRUE
UNRESTRICTED True
THRESH  14
SYMMETRY FALSE
SYM_IGNORE TRUE
max_scf_cycles 200

XC_GRID 000099000590
BASIS DEF2-QZVPPD


$end










