$molecule
0 1
  C   -0.197707281   0.109748582  -1.778991069
 Cl   -0.380363847   0.229162348  -3.545504004
  H   -1.046707637  -0.431939998  -1.379411227
  H    0.722086494  -0.419365852  -1.560733498
  H   -0.162280611   1.110724235  -1.366102409
$end


$rem
N_FROZEN_CORE FC
MEM_TOTAL 3750
MEM_STATIC 1500
AUX_BASIS_CORR rimp2-def2-QZVPPD
SCF_CONVERGENCE 7
SCF_ALGORITHM  GDM
method DSD-PBEPBE-D3
GEN_SCFMAN TRUE
UNRESTRICTED True
THRESH  14
SYMMETRY FALSE
SYM_IGNORE TRUE
max_scf_cycles 200

XC_GRID 000099000590
BASIS DEF2-QZVPPD


$end










