$molecule
0 1
  F   -0.071729041  -0.108855435   0.260652232
  H   -0.003218488  -0.010570213   1.202783243
  N    0.050560303   0.046034689   2.829548099
  H    1.005374771   0.078635731   3.162028541
  C   -0.625267698  -1.147764798   3.353883909
  H   -1.648134990  -1.161668310   2.988369949
  H   -0.126257726  -2.032167030   2.968063447
  H   -0.643267761  -1.204628150   4.442707905
  H   -0.398540279   0.881630687   3.180691247
$end


$rem
N_FROZEN_CORE FC
MEM_TOTAL 3750
MEM_STATIC 1500
AUX_BASIS_CORR rimp2-def2-QZVPPD
SCF_CONVERGENCE 7
SCF_ALGORITHM  GDM
method DSD-PBEPBE-D3
GEN_SCFMAN TRUE
UNRESTRICTED True
THRESH  14
SYMMETRY FALSE
SYM_IGNORE TRUE
max_scf_cycles 200

XC_GRID 000099000590
BASIS DEF2-QZVPPD


$end










