$molecule
0 1
  C   -0.082218020  -0.061558741  -0.106808480
  I    1.901225752   0.399212623   0.532188762
  F   -0.250022308  -1.377895721  -0.214057562
  F   -0.977880861   0.400686285   0.761715653
  F   -0.335197352   0.485382328  -1.293788995
  O    6.395080521   1.075784620   1.516983567
  C    7.142367030   0.473883835   0.775501483
  H    8.233910729   0.535111035   0.884214957
  H    6.762887973  -0.160230577  -0.038995838
$end


$rem
N_FROZEN_CORE FC
MEM_TOTAL 3750
MEM_STATIC 1500
AUX_BASIS_CORR rimp2-def2-QZVPPD
SCF_CONVERGENCE 7
SCF_ALGORITHM  GDM
method DSD-PBEPBE-D3
GEN_SCFMAN TRUE
UNRESTRICTED True
THRESH  14
SYMMETRY FALSE
SYM_IGNORE TRUE
max_scf_cycles 200

XC_GRID 000099000590
BASIS DEF2-QZVPPD


$end










