$molecule
0 1
  I    0.494360760   0.000136728  -0.299186147
  H   -0.026818451   0.000009824   1.227779722
  O   -0.286207460  -0.000195782   3.111162072
  H   -1.043852894   0.000048253   3.700817056
  C    0.895423982  -0.000015516   3.904117929
  H    1.733434375  -0.000116929   3.213903930
  H    0.964659926   0.888907553   4.530883788
  H    0.964706907  -0.888709271   4.531204001
$end


$rem
N_FROZEN_CORE FC
MEM_TOTAL 3750
MEM_STATIC 1500
AUX_BASIS_CORR rimp2-def2-QZVPPD
SCF_CONVERGENCE 7
SCF_ALGORITHM  GDM
method DSD-PBEPBE-D3
GEN_SCFMAN TRUE
UNRESTRICTED True
THRESH  14
SYMMETRY FALSE
SYM_IGNORE TRUE
max_scf_cycles 200

XC_GRID 000099000590
BASIS DEF2-QZVPPD


$end










