$molecule
0 1
 Br    0.430759046  -0.000115215  -0.107945607
  H    0.017750410  -0.000013811   1.259967353
  O   -0.228110435   0.000162143   2.943224823
  H   -1.019771070  -0.000061002   3.486092524
  C    0.909436883   0.000004914   3.799559823
  H    1.782748857   0.000077840   3.155093837
  H    0.942459204   0.888894707   4.428780198
  H    0.942418981  -0.889066811   4.428524070
$end


$rem
N_FROZEN_CORE FC
MEM_TOTAL 3750
MEM_STATIC 1500
AUX_BASIS_CORR rimp2-def2-QZVPPD
SCF_CONVERGENCE 7
SCF_ALGORITHM  GDM
method DSD-PBEPBE-D3
GEN_SCFMAN TRUE
UNRESTRICTED True
THRESH  14
SYMMETRY FALSE
SYM_IGNORE TRUE
max_scf_cycles 200

XC_GRID 000099000590
BASIS DEF2-QZVPPD


$end










