$molecule
0 1
  N    0.042069436   0.037097622   2.572706262
  H    0.996883904   0.069698664   2.905186704
  C   -0.633758565  -1.156701865   3.097042072
  H   -1.656625857  -1.170605377   2.731528112
  H   -0.134748593  -2.041104097   2.711221610
  H   -0.651758628  -1.213565217   4.185866068
  H   -0.407031146   0.872693620   2.923849410
$end


$rem
N_FROZEN_CORE FC
MEM_TOTAL 3750
MEM_STATIC 1500
AUX_BASIS_CORR rimp2-def2-QZVPPD
SCF_CONVERGENCE 7
SCF_ALGORITHM  GDM
method DSD-PBEPBE-D3
GEN_SCFMAN TRUE
UNRESTRICTED True
THRESH  14
SYMMETRY FALSE
SYM_IGNORE TRUE
max_scf_cycles 200

XC_GRID 000099000590
BASIS DEF2-QZVPPD


$end










