$molecule
0 1
  O   -0.822589646   0.130751992  -0.004670180
  H    0.151322978   0.236946671  -0.005208468
  C   -1.094495060  -1.171586630  -0.000235811
  F   -2.408360005  -1.348046797   0.002362133
  F   -0.590968467  -1.812045684  -1.074390844
  F   -0.587525050  -1.805322781   1.076316471
  O    2.805323283   0.364787091  -0.006239467
  H    3.260001471  -0.006355080  -0.766169664
  H    3.260008568  -0.007324902   0.753216408
$end


$rem
N_FROZEN_CORE FC
MEM_TOTAL 3750
MEM_STATIC 1500
AUX_BASIS_CORR rimp2-def2-QZVPPD
SCF_CONVERGENCE 7
SCF_ALGORITHM  GDM
method DSD-PBEPBE-D3
GEN_SCFMAN TRUE
UNRESTRICTED True
THRESH  14
SYMMETRY FALSE
SYM_IGNORE TRUE
max_scf_cycles 200

XC_GRID 000099000590
BASIS DEF2-QZVPPD


$end










