$molecule
0 1
  C    0.052125307  -0.031919514   1.840660293
 Cl   -1.491715802   0.847207403   1.755184684
  H    0.811909110   0.554725768   1.338264649
  H   -0.067811208  -0.989274688   1.347792712
  H    0.311197296  -0.173143788   2.883203118
  C    0.549336098  -0.308708582  -3.394878996
  H    0.477305065  -0.277055486  -4.477503421
  H   -0.317055403  -0.821399263  -2.988910373
  H    1.454240759  -0.837541805  -3.110784303
  H    0.579134488   0.703590894  -3.004140312
$end


$rem
N_FROZEN_CORE FC
MEM_TOTAL 3750
MEM_STATIC 1500
AUX_BASIS_CORR rimp2-def2-QZVPPD
SCF_CONVERGENCE 7
SCF_ALGORITHM  GDM
method DSD-PBEPBE-D3
GEN_SCFMAN TRUE
UNRESTRICTED True
THRESH  14
SYMMETRY FALSE
SYM_IGNORE TRUE
max_scf_cycles 200

XC_GRID 000099000590
BASIS DEF2-QZVPPD


$end










