$molecule
0 1
  C    1.217119800   0.000086352  -0.737292531
  C    2.232687859   0.000174717   0.216499979
  C    1.925210087   0.000130109   1.575499453
  C    0.592512132   0.000178132   1.981957864
  C   -0.433049194   0.000070250   1.038766795
  H    1.448302007  -0.000020318  -1.792785360
  H    3.264633432   0.000102432  -0.107052277
  H    2.717093974  -0.000023151   2.311239059
  H    0.345707498   0.000109507   3.034933333
  H   -1.468501456  -0.000093207   1.347574970
  C   -0.111081725  -0.000108736  -0.316810844
 Br   -1.493755973  -0.001747763  -1.606462802
$end


$rem
N_FROZEN_CORE FC
MEM_TOTAL 7500
MEM_STATIC 3000
AUX_BASIS_CORR rimp2-def2-QZVPPD
SCF_CONVERGENCE 7
SCF_ALGORITHM  GDM
method DSD-PBEPBE-D3
GEN_SCFMAN TRUE
UNRESTRICTED True
THRESH  14
SYMMETRY FALSE
SYM_IGNORE TRUE
max_scf_cycles 200

XC_GRID 000099000590
BASIS DEF2-QZVPPD


$end










