$molecule
0 1
  F   -0.071729041  -0.108855435   0.260652232
  H   -0.003218488  -0.010570213   1.202783243
  N    0.047730014   0.043055667   2.743934153
  H    1.002544482   0.075656709   3.076414595
  C   -0.628097987  -1.150743820   3.268269963
  H   -1.650965279  -1.164647332   2.902756003
  H   -0.129088015  -2.035146052   2.882449501
  H   -0.646098050  -1.207607172   4.357093959
  H   -0.401370568   0.878651665   3.095077301
$end


$rem
N_FROZEN_CORE FC
MEM_TOTAL 3750
MEM_STATIC 1500
AUX_BASIS_CORR rimp2-def2-QZVPPD
SCF_CONVERGENCE 7
SCF_ALGORITHM  GDM
method DSD-PBEPBE-D3
GEN_SCFMAN TRUE
UNRESTRICTED True
THRESH  14
SYMMETRY FALSE
SYM_IGNORE TRUE
max_scf_cycles 200

XC_GRID 000099000590
BASIS DEF2-QZVPPD


$end










