$molecule
0 1
 Br    0.430759046  -0.000115215  -0.107945607
  H    0.017750410  -0.000013811   1.259967353
  O   -0.214452302   0.000152368   2.849716016
  H   -1.006112937  -0.000070777   3.392583717
  C    0.923095016  -0.000004861   3.706051016
  H    1.796406990   0.000068065   3.061585030
  H    0.956117337   0.888884932   4.335271391
  H    0.956077114  -0.889076586   4.335015263
$end


$rem
N_FROZEN_CORE FC
MEM_TOTAL 3750
MEM_STATIC 1500
AUX_BASIS_CORR rimp2-def2-QZVPPD
SCF_CONVERGENCE 7
SCF_ALGORITHM  GDM
method DSD-PBEPBE-D3
GEN_SCFMAN TRUE
UNRESTRICTED True
THRESH  14
SYMMETRY FALSE
SYM_IGNORE TRUE
max_scf_cycles 200

XC_GRID 000099000590
BASIS DEF2-QZVPPD


$end










