$molecule
0 1
  C   -0.000005209  -0.000039061  -1.254630614
  H    0.000001243   0.000149511  -2.340158544
  H   -0.885653680  -0.511557071  -0.891350493
  H    0.885732368  -0.511402044  -0.891340120
  H   -0.000096585   1.022594389  -0.891064583
$end


$rem
N_FROZEN_CORE FC
MEM_TOTAL 3750
MEM_STATIC 1500
AUX_BASIS_CORR rimp2-def2-QZVPPD
SCF_CONVERGENCE 7
SCF_ALGORITHM  GDM
method DSD-PBEPBE-D3
GEN_SCFMAN TRUE
UNRESTRICTED True
THRESH  14
SYMMETRY FALSE
SYM_IGNORE TRUE
max_scf_cycles 200

XC_GRID 000099000590
BASIS DEF2-QZVPPD


$end










