$molecule
0 1
  I    0.000675271  -2.484404992   1.702620764
  C    0.103428147  -4.602146127   1.824881243
  F    0.132538478  -5.145850143   0.610232498
  F    1.199479772  -4.985746023   2.475735216
  F   -0.952835649  -5.090673491   2.471050085
$end


$rem
N_FROZEN_CORE FC
MEM_TOTAL 3750
INTERNAL_STABILITY TRUE
MEM_STATIC 1500
AUX_BASIS_CORR rimp2-def2-QZVPPD
SCF_CONVERGENCE 7
SCF_ALGORITHM  GDM
method DSD-PBEPBE-D3
GEN_SCFMAN TRUE
UNRESTRICTED True
THRESH  14
SYMMETRY FALSE
SYM_IGNORE TRUE
max_scf_cycles 200

XC_GRID 000099000590
BASIS DEF2-QZVPPD


$end










