$molecule
0 1
  C    0.005918650  -0.003496527   1.853878993
  F   -1.172542855   0.674817567   1.614587488
  H    0.830709843   0.546048289   1.407962789
  H   -0.056058041  -0.993747823   1.410355380
  H    0.156078035  -0.088328739   2.927069055
$end


$rem
N_FROZEN_CORE FC
MEM_TOTAL 3750
MEM_STATIC 1500
AUX_BASIS_CORR rimp2-def2-QZVPPD
SCF_CONVERGENCE 7
SCF_ALGORITHM  GDM
method DSD-PBEPBE-D3
GEN_SCFMAN TRUE
UNRESTRICTED True
THRESH  14
SYMMETRY FALSE
SYM_IGNORE TRUE
max_scf_cycles 200

XC_GRID 000099000590
BASIS DEF2-QZVPPD


$end










