$molecule
0 1
  O    4.252018674   0.779701772   1.235262403
  C    4.548973347   0.141160049   0.250202955
  H    5.598709584  -0.042650929  -0.026590308
  H    3.784598882  -0.285827354  -0.415137481
$end


$rem
N_FROZEN_CORE FC
MEM_TOTAL 3750
MEM_STATIC 1500
AUX_BASIS_CORR rimp2-def2-QZVPPD
SCF_CONVERGENCE 7
SCF_ALGORITHM  GDM
method DSD-PBEPBE-D3
GEN_SCFMAN TRUE
UNRESTRICTED True
THRESH  14
SYMMETRY FALSE
SYM_IGNORE TRUE
max_scf_cycles 200

XC_GRID 000099000590
BASIS DEF2-QZVPPD


$end










