$molecule
0 1
 Cl   -0.107209379  -0.167310542  -0.020023104
  H    0.009530218   0.008128887   1.304817825
  N    0.059955691   0.063156036   2.814377221
  H    1.011625177   0.084604391   3.157133137
  C   -0.627216115  -1.149160431   3.274905992
  H   -1.640948876  -1.146558142   2.883878098
  H   -0.118709809  -2.017016553   2.864035696
  H   -0.669231274  -1.247347418   4.359708184
  H   -0.397681495   0.890209198   3.175169029
$end


$rem
N_FROZEN_CORE FC
MEM_TOTAL 3750
MEM_STATIC 1500
AUX_BASIS_CORR rimp2-def2-QZVPPD
SCF_CONVERGENCE 7
SCF_ALGORITHM  GDM
method DSD-PBEPBE-D3
GEN_SCFMAN TRUE
UNRESTRICTED True
THRESH  14
SYMMETRY FALSE
SYM_IGNORE TRUE
max_scf_cycles 200

XC_GRID 000099000590
BASIS DEF2-QZVPPD


$end










