$molecule
0 1
  C   -0.083381747   0.048057171  -1.146937128
  H   -0.163752045   0.093493099  -2.228437040
  H   -0.942197356  -0.476911523  -0.740900857
  H    0.827359497  -0.477553112  -0.876064594
  H   -0.057780195   1.054821402  -0.742273811
$end


$rem
N_FROZEN_CORE FC
MEM_TOTAL 3750
MEM_STATIC 1500
AUX_BASIS_CORR rimp2-def2-QZVPPD
SCF_CONVERGENCE 7
SCF_ALGORITHM  GDM
method DSD-PBEPBE-D3
GEN_SCFMAN TRUE
UNRESTRICTED True
THRESH  14
SYMMETRY FALSE
SYM_IGNORE TRUE
max_scf_cycles 200

XC_GRID 000099000590
BASIS DEF2-QZVPPD


$end










