$molecule
0 1
 Br    0.430759046  -0.000115215  -0.107945607
  H    0.017750410  -0.000013811   1.259967353
  O   -0.241768568   0.000171918   3.036733629
  H   -1.033429203  -0.000051227   3.579601330
  C    0.895778750   0.000014689   3.893068629
  H    1.769090724   0.000087615   3.248602643
  H    0.928801071   0.888904482   4.522289004
  H    0.928760848  -0.889057036   4.522032876
$end


$rem
N_FROZEN_CORE FC
MEM_TOTAL 3750
MEM_STATIC 1500
AUX_BASIS_CORR rimp2-def2-QZVPPD
SCF_CONVERGENCE 7
SCF_ALGORITHM  GDM
method DSD-PBEPBE-D3
GEN_SCFMAN TRUE
UNRESTRICTED True
THRESH  14
SYMMETRY FALSE
SYM_IGNORE TRUE
max_scf_cycles 200

XC_GRID 000099000590
BASIS DEF2-QZVPPD


$end










