$molecule
0 1
  F    0.324738231  -0.000096172   0.367513243
  H    0.106356599  -0.000015606   1.274535595
  O   -0.312400508   0.000231068   3.828366774
  H   -1.156134068   0.000045627   4.284335599
  C    0.736830413   0.000104332   4.792093983
  H    1.668220406   0.000145349   4.236368709
  H    0.704360787   0.889254321   5.419918934
  H    0.704330197  -0.889175533   5.419733254
$end


$rem
N_FROZEN_CORE FC
MEM_TOTAL 3750
MEM_STATIC 1500
AUX_BASIS_CORR rimp2-def2-QZVPPD
SCF_CONVERGENCE 7
SCF_ALGORITHM  GDM
method DSD-PBEPBE-D3
GEN_SCFMAN TRUE
UNRESTRICTED True
THRESH  14
SYMMETRY FALSE
SYM_IGNORE TRUE
max_scf_cycles 200

XC_GRID 000099000590
BASIS DEF2-QZVPPD


$end










