$molecule
0 1
  F   -1.914074031  -1.171208027  -0.110672709
  H   -2.180664731   1.398938308  -0.409375369
  C    0.373446598  -0.776856318   0.213048434
  C   -0.901105553  -0.295713511  -0.038342168
  C   -1.178590841   1.051075840  -0.215317349
  C   -0.111215305   1.930588158  -0.127725254
  C    1.187438475   1.517317904   0.123482484
  C    1.394209663   0.156584712   0.290367081
  F   -0.346665186   3.242328465  -0.288420034
  H    2.000411788   2.222856141   0.189254724
  H    0.559538929  -1.828333656   0.360285918
  F    2.639006191  -0.274021355   0.541291643
$end


$rem
N_FROZEN_CORE FC
MEM_TOTAL 7500
MEM_STATIC 3000
AUX_BASIS_CORR rimp2-def2-QZVPPD
SCF_CONVERGENCE 7
SCF_ALGORITHM  GDM
method DSD-PBEPBE-D3
GEN_SCFMAN TRUE
UNRESTRICTED True
THRESH  14
SYMMETRY FALSE
SYM_IGNORE TRUE
max_scf_cycles 200

XC_GRID 000099000590
BASIS DEF2-QZVPPD


$end










