$molecule
0 1
 Br    0.430759046  -0.000115215  -0.107945607
  H    0.017750410  -0.000013811   1.259967353
  O   -0.200794169   0.000142594   2.756207209
  H   -0.992454804  -0.000080551   3.299074910
  C    0.936753149  -0.000014635   3.612542209
  H    1.810065123   0.000058291   2.968076223
  H    0.969775470   0.888875158   4.241762584
  H    0.969735247  -0.889086360   4.241506456
$end


$rem
N_FROZEN_CORE FC
MEM_TOTAL 3750
MEM_STATIC 1500
AUX_BASIS_CORR rimp2-def2-QZVPPD
SCF_CONVERGENCE 7
SCF_ALGORITHM  GDM
method DSD-PBEPBE-D3
GEN_SCFMAN TRUE
UNRESTRICTED True
THRESH  14
SYMMETRY FALSE
SYM_IGNORE TRUE
max_scf_cycles 200

XC_GRID 000099000590
BASIS DEF2-QZVPPD


$end










