$molecule
0 1
 Cl   -0.107209379  -0.167310542  -0.020023104
  H    0.009530218   0.008128887   1.304817825
  N    0.065554814   0.069266118   2.981995067
  H    1.017224300   0.090714473   3.324750983
  C   -0.621616992  -1.143050349   3.442523838
  H   -1.635349753  -1.140448060   3.051495944
  H   -0.113110686  -2.010906471   3.031653542
  H   -0.663632151  -1.241237336   4.527326030
  H   -0.392082372   0.896319280   3.342786875
$end


$rem
N_FROZEN_CORE FC
MEM_TOTAL 3750
MEM_STATIC 1500
AUX_BASIS_CORR rimp2-def2-QZVPPD
SCF_CONVERGENCE 7
SCF_ALGORITHM  GDM
method DSD-PBEPBE-D3
GEN_SCFMAN TRUE
UNRESTRICTED True
THRESH  14
SYMMETRY FALSE
SYM_IGNORE TRUE
max_scf_cycles 200

XC_GRID 000099000590
BASIS DEF2-QZVPPD


$end










