$molecule
0 1
  S   -3.653741445   5.097484980  -0.642495257
  H   -4.320089399   4.163990069  -1.327167466
  C   -2.324636493   5.338493656  -1.854923643
  H   -1.663875266   6.090257242  -1.432355943
  H   -1.761252787   4.422736502  -2.003932627
  H   -2.714822877   5.705348317  -2.798821186
$end


$rem
N_FROZEN_CORE FC
MEM_TOTAL 3750
MEM_STATIC 1500
AUX_BASIS_CORR rimp2-def2-QZVPPD
SCF_CONVERGENCE 7
SCF_ALGORITHM  GDM
method DSD-PBEPBE-D3
GEN_SCFMAN TRUE
UNRESTRICTED True
THRESH  14
SYMMETRY FALSE
SYM_IGNORE TRUE
max_scf_cycles 200

XC_GRID 000099000590
BASIS DEF2-QZVPPD


$end










