$molecule
0 1
  C    0.179810349  -0.077197552  -0.118024640
 Cl    1.722679479   0.399031247   0.628076100
  H    0.130360699  -1.159076002  -0.155096513
  H   -0.630477191   0.314338739   0.485507040
  H    0.134959164   0.335748179  -1.118887999
  O    4.652810673   0.840021756   1.331475443
  C    4.949765346   0.201480033   0.346415995
  H    5.999501583   0.017669055   0.069622732
  H    4.185390881  -0.225507370  -0.318924441
$end


$rem
N_FROZEN_CORE FC
MEM_TOTAL 3750
MEM_STATIC 1500
AUX_BASIS_CORR rimp2-def2-QZVPPD
SCF_CONVERGENCE 7
SCF_ALGORITHM  GDM
method DSD-PBEPBE-D3
GEN_SCFMAN TRUE
UNRESTRICTED True
THRESH  14
SYMMETRY FALSE
SYM_IGNORE TRUE
max_scf_cycles 200

XC_GRID 000099000590
BASIS DEF2-QZVPPD


$end










