$molecule
0 1
  C    0.250211388  -0.141261283   2.278305952
  F    0.055015573  -0.060688554   0.911538424
  H    1.189310250   0.342978795   2.531275149
  H    0.282891774  -1.187166859   2.570525524
  H   -0.571443596   0.358513497   2.783864006
  C   -0.388243394   0.229920230  -3.656674352
  F   -0.519099583   0.333102675  -5.030017584
  H   -1.239436402  -0.312677555  -3.255908556
  H    0.528840728  -0.303310044  -3.423794475
  H   -0.352443263   1.225653589  -3.224597267
$end


$rem
N_FROZEN_CORE FC
MEM_TOTAL 3750
MEM_STATIC 1500
AUX_BASIS_CORR rimp2-def2-QZVPPD
SCF_CONVERGENCE 7
SCF_ALGORITHM  GDM
method DSD-PBEPBE-D3
GEN_SCFMAN TRUE
UNRESTRICTED True
THRESH  14
SYMMETRY FALSE
SYM_IGNORE TRUE
max_scf_cycles 200

XC_GRID 000099000590
BASIS DEF2-QZVPPD


$end










