$molecule
0 1
  C   -0.000021421   0.000239906  -1.240255582
  H    0.000026267  -0.001629105  -2.326011636
  H   -0.885498603  -0.510494099  -0.875124061
  H    0.885625017  -0.510343816  -0.875087633
  H   -0.000091564   1.023416302  -0.877743383
$end


$rem
N_FROZEN_CORE FC
MEM_TOTAL 3750
MEM_STATIC 1500
AUX_BASIS_CORR rimp2-def2-QZVPPD
SCF_CONVERGENCE 7
SCF_ALGORITHM  GDM
method DSD-PBEPBE-D3
GEN_SCFMAN TRUE
UNRESTRICTED True
THRESH  14
SYMMETRY FALSE
SYM_IGNORE TRUE
max_scf_cycles 200

XC_GRID 000099000590
BASIS DEF2-QZVPPD


$end










