$molecule
0 1
  O   -3.539794823  -0.000078189  -3.444022246
  C   -3.390473206   0.003836761  -4.653936930
  C   -2.003601768   0.013993923  -5.256966187
  C   -4.593946873  -0.001450392  -5.570340457
  H   -1.470892994   0.891395709  -4.893597562
  H   -1.459933149  -0.858418063  -4.897837640
  H   -2.010532621   0.016585795  -6.342248478
  H   -5.206124755   0.870193534  -5.345536806
  H   -5.195226298  -0.881702694  -5.349708503
  H   -4.329902127   0.002704450  -6.623007863
$end


$rem
N_FROZEN_CORE FC
MEM_TOTAL 3750
MEM_STATIC 1500
AUX_BASIS_CORR rimp2-def2-QZVPPD
SCF_CONVERGENCE 7
SCF_ALGORITHM  GDM
method DSD-PBEPBE-D3
GEN_SCFMAN TRUE
UNRESTRICTED True
THRESH  14
SYMMETRY FALSE
SYM_IGNORE TRUE
max_scf_cycles 200

XC_GRID 000099000590
BASIS DEF2-QZVPPD


$end










