$molecule
0 1
  F    0.324738231  -0.000096172   0.367513243
  H    0.106356599  -0.000015606   1.274535595
  O   -0.130946107   0.000124180   2.721749359
  H   -0.974679667  -0.000061261   3.177718184
  C    0.918284814  -0.000002556   3.685476568
  H    1.849674807   0.000038461   3.129751294
  H    0.885815188   0.889147433   4.313301519
  H    0.885784598  -0.889282421   4.313115839
$end


$rem
N_FROZEN_CORE FC
MEM_TOTAL 3750
MEM_STATIC 1500
AUX_BASIS_CORR rimp2-def2-QZVPPD
SCF_CONVERGENCE 7
SCF_ALGORITHM  GDM
method DSD-PBEPBE-D3
GEN_SCFMAN TRUE
UNRESTRICTED True
THRESH  14
SYMMETRY FALSE
SYM_IGNORE TRUE
max_scf_cycles 200

XC_GRID 000099000590
BASIS DEF2-QZVPPD


$end










