$molecule
0 1
 Br   -0.994989432  -2.465309424  -0.487463977
 Br   -1.855660252  -4.549459127  -0.860121428
$end


$rem
N_FROZEN_CORE FC
MEM_TOTAL 3750
INTERNAL_STABILITY TRUE
MEM_STATIC 1500
AUX_BASIS_CORR rimp2-def2-QZVPPD
SCF_CONVERGENCE 7
SCF_ALGORITHM  GDM
method DSD-PBEPBE-D3
GEN_SCFMAN TRUE
UNRESTRICTED True
THRESH  14
SYMMETRY FALSE
SYM_IGNORE TRUE
max_scf_cycles 200

XC_GRID 000099000590
BASIS DEF2-QZVPPD


$end










