$molecule
0 1
  C    0.081577546  -0.079576968  -0.122248507
 Br    1.796548323   0.397128500   0.629679005
  H    0.013255521  -1.160016154  -0.156779811
  H   -0.692267287   0.331402893   0.514488442
  H    0.018180933   0.339827727  -1.118895585
  O    4.552596434   0.803342726   1.277904451
  C    5.021998019   0.197426108   0.340072851
  H    6.109118567   0.101951113   0.197619352
  H    4.383654871  -0.286309145  -0.413962377
$end


$rem
N_FROZEN_CORE FC
MEM_TOTAL 3750
MEM_STATIC 1500
AUX_BASIS_CORR rimp2-def2-QZVPPD
SCF_CONVERGENCE 7
SCF_ALGORITHM  GDM
method DSD-PBEPBE-D3
GEN_SCFMAN TRUE
UNRESTRICTED True
THRESH  14
SYMMETRY FALSE
SYM_IGNORE TRUE
max_scf_cycles 200

XC_GRID 000099000590
BASIS DEF2-QZVPPD


$end










