$molecule
0 1 
 C                  0.27001900    1.52702100    0.00000000
 H                 -0.42720900    2.35036600    0.00000000
 H                  1.34008800    1.65898400    0.00000000
 S                 -0.46208300    0.11744600    0.00000000
 F                  0.27001900   -0.83614500    1.12149700
 F                  0.27001900   -0.83614500   -1.12149700
$end


$rem
N_FROZEN_CORE FC
MEM_TOTAL 3750
MEM_STATIC 1500
AUX_BASIS_CORR rimp2-def2-QZVPPD
SCF_CONVERGENCE 7
SCF_ALGORITHM  GDM
method DSD-PBEPBE-D3
GEN_SCFMAN TRUE
UNRESTRICTED True
THRESH  14
SYMMETRY FALSE
SYM_IGNORE TRUE
max_scf_cycles 200

XC_GRID 000099000590
BASIS DEF2-QZVPPD


$end










