$molecule
0 1 
 C                 -0.14993000   -1.03666700    0.00000000
 S                  0.56895500    0.42435500    0.00000000
 F                 -0.14993000    1.30951800    1.14454800
 F                 -0.14993000    1.30951800   -1.14454800
 B                 -1.67880000   -1.20106800    0.00000000
 H                 -2.12504000   -2.30210900    0.00000000
 H                 -2.39600600   -0.25260200    0.00000000
 B                  0.93943400   -2.10606300    0.00000000
 H                  0.61945200   -3.25030400    0.00000000
 H                  2.09346100   -1.80033100    0.00000000
$end


$rem
N_FROZEN_CORE FC
MEM_TOTAL 3750
MEM_STATIC 1500
AUX_BASIS_CORR rimp2-def2-QZVPPD
SCF_CONVERGENCE 7
SCF_ALGORITHM  GDM
method DSD-PBEPBE-D3
GEN_SCFMAN TRUE
UNRESTRICTED True
THRESH  14
SYMMETRY FALSE
SYM_IGNORE TRUE
max_scf_cycles 200

XC_GRID 000099000590
BASIS DEF2-QZVPPD


$end










