$molecule
0 1 
 H                  1.17882100    1.84701100    0.00000000
 P                 -0.03256200    1.13307900    0.00000000
 C                  0.03461100   -0.58771900    0.00000000
 H                 -0.67857400    1.70684500    1.10127300
 H                 -0.67857400    1.70684500   -1.10127300
 B                  0.03461100   -1.25901200    1.34884400
 B                  0.03461100   -1.25901200   -1.34884400
 H                 -0.04574400   -0.62236700    2.36581600
 H                 -0.04574400   -0.62236700   -2.36581600
 H                  0.10222800   -2.44785600    1.41494300
 H                  0.10222800   -2.44785600   -1.41494300
$end


$rem
N_FROZEN_CORE FC
MEM_TOTAL 3750
MEM_STATIC 1500
AUX_BASIS_CORR rimp2-def2-QZVPPD
SCF_CONVERGENCE 7
SCF_ALGORITHM  GDM
method DSD-PBEPBE-D3
GEN_SCFMAN TRUE
UNRESTRICTED True
THRESH  14
SYMMETRY FALSE
SYM_IGNORE TRUE
max_scf_cycles 200

XC_GRID 000099000590
BASIS DEF2-QZVPPD


$end










