$molecule
0 1 
 C                  0.47920200    1.40982000    0.00000000
 N                  0.14499800    0.14732800    0.00000000
 H                  0.44233900    1.89494300    0.95814800
 H                  0.44233900    1.89494300   -0.95814800
 F                  0.47920200   -0.56755000   -1.10365500
 F                 -1.48894700   -0.34046800    0.00000000
 F                  0.47920200   -0.56755000    1.10365500
$end


$rem
N_FROZEN_CORE FC
MEM_TOTAL 3750
MEM_STATIC 1500
AUX_BASIS_CORR rimp2-def2-QZVPPD
SCF_CONVERGENCE 7
SCF_ALGORITHM  GDM
method DSD-PBEPBE-D3
GEN_SCFMAN TRUE
UNRESTRICTED True
THRESH  14
SYMMETRY FALSE
SYM_IGNORE TRUE
max_scf_cycles 200

XC_GRID 000099000590
BASIS DEF2-QZVPPD


$end










