$molecule
0 1 
 C                 -0.01532700    1.20051000    0.00000000
 P                 -0.01532700   -0.47795100    0.00000000
 H                  0.29462100    1.67164100    0.92294800
 H                  0.29462100    1.67164100   -0.92294800
 H                 -0.68590500   -1.00383000   -1.11082400
 H                 -0.68590500   -1.00383000    1.11082400
 H                  1.10443000   -1.36941900    0.00000000
$end


$rem
N_FROZEN_CORE FC
MEM_TOTAL 3750
MEM_STATIC 1500
AUX_BASIS_CORR rimp2-def2-QZVPPD
SCF_CONVERGENCE 7
SCF_ALGORITHM  GDM
method DSD-PBEPBE-D3
GEN_SCFMAN TRUE
UNRESTRICTED True
THRESH  14
SYMMETRY FALSE
SYM_IGNORE TRUE
max_scf_cycles 200

XC_GRID 000099000590
BASIS DEF2-QZVPPD


$end










