$molecule
0 1 
 C                 -0.05875000    0.89144300    0.00000000
 N                 -0.05875000   -0.65268200    0.00000000
 H                  0.54543800    1.14559100    0.87796200
 H                  0.54543800    1.14559100   -0.87796200
 H                 -0.58279700   -0.96168900   -0.81209700
 H                 -0.58279700   -0.96168900    0.81209700
 H                  0.83846200   -1.14768300    0.00000000
$end


$rem
N_FROZEN_CORE FC
MEM_TOTAL 3750
MEM_STATIC 1500
AUX_BASIS_CORR rimp2-def2-QZVPPD
SCF_CONVERGENCE 7
SCF_ALGORITHM  GDM
method DSD-PBEPBE-D3
GEN_SCFMAN TRUE
UNRESTRICTED True
THRESH  14
SYMMETRY FALSE
SYM_IGNORE TRUE
max_scf_cycles 200

XC_GRID 000099000590
BASIS DEF2-QZVPPD


$end










