$molecule
0 1 
 S                  0.00000000    0.00000000    0.66724600
 C                  0.00000000    1.36148200   -0.51767700
 C                  0.00000000   -1.36148200   -0.51767700
 H                 -0.89162700    1.32616700   -1.14153100
 H                  0.89162700    1.32616700   -1.14153100
 H                  0.00000000    2.28856200    0.05115000
 H                 -0.89162700   -1.32616700   -1.14153100
 H                  0.00000000   -2.28856200    0.05115000
 H                  0.89162700   -1.32616700   -1.14153100
$end


$rem
N_FROZEN_CORE FC
MEM_TOTAL 3750
MEM_STATIC 1500
AUX_BASIS_CORR rimp2-def2-QZVPPD
SCF_CONVERGENCE 7
SCF_ALGORITHM  GDM
method DSD-PBEPBE-D3
GEN_SCFMAN TRUE
UNRESTRICTED True
THRESH  14
SYMMETRY FALSE
SYM_IGNORE TRUE
max_scf_cycles 200

XC_GRID 000099000590
BASIS DEF2-QZVPPD


$end










