$molecule
0 1 
 C                 -1.15502600    0.06202200   -0.05622800
 H                 -1.63485900   -0.89498700    0.07056300
 H                 -1.60846400    0.94739400    0.35961900
 S                  0.49957600   -0.10529300   -0.02924500
 H                  1.16047100    0.33432700    1.10428400
 H                  1.01979100    0.92582800   -0.72916900
$end


$rem
N_FROZEN_CORE FC
MEM_TOTAL 3750
MEM_STATIC 1500
AUX_BASIS_CORR rimp2-def2-QZVPPD
SCF_CONVERGENCE 7
SCF_ALGORITHM  GDM
method DSD-PBEPBE-D3
GEN_SCFMAN TRUE
UNRESTRICTED True
THRESH  14
SYMMETRY FALSE
SYM_IGNORE TRUE
max_scf_cycles 200

XC_GRID 000099000590
BASIS DEF2-QZVPPD


$end










