$molecule
0 1 
 C                 -0.49038300    1.66352700    0.00000000
 P                 -0.02476400    0.11619100    0.00000000
 H                 -0.50233900    2.19375500    0.93735800
 H                 -0.50233900    2.19375500   -0.93735800
 F                 -0.49038300   -0.69879000   -1.23320300
 F                 -0.49038300   -0.69879000    1.23320300
 F                  1.46059300   -0.39259300    0.00000000
$end


$rem
N_FROZEN_CORE FC
MEM_TOTAL 3750
MEM_STATIC 1500
AUX_BASIS_CORR rimp2-def2-QZVPPD
SCF_CONVERGENCE 7
SCF_ALGORITHM  GDM
method DSD-PBEPBE-D3
GEN_SCFMAN TRUE
UNRESTRICTED True
THRESH  14
SYMMETRY FALSE
SYM_IGNORE TRUE
max_scf_cycles 200

XC_GRID 000099000590
BASIS DEF2-QZVPPD


$end










