28
charge=0, multiplicity=3, basis=def2-TZVPP
C -0.00333215 0.03953342 0.00821616
C -0.00028905 0.01954530 1.39847653
C 1.20521242 -0.01416341 2.07423750
C 2.41192642 -0.00711366 1.36764942
C 2.40525037 0.01777284 -0.01245394
C 1.19187818 0.03792558 -0.69305684
C 1.39338561 -0.00261216 3.58412916
C 3.63683192 -0.02701073 2.25376352
C 3.48450843 -1.19969253 3.21131442
C 2.28855272 -1.16938769 3.93532762
C 2.02080197 -2.14912557 4.87006804
H 1.09393996 -2.12747213 5.43124501
C 2.94862840 -3.16291371 5.08733711
C 4.13733408 -3.18717766 4.37558061
C 4.41245872 -2.19919181 3.43676081
H -0.94393538 0.05528243 -0.52773380
H -0.93384739 0.02293440 1.94885135
H 3.33961569 0.02228660 -0.56145920
H 1.18259043 0.05350036 -1.77551544
H 2.74050571 -3.93521000 5.81693100
H 4.85507370 -3.97887023 4.54962871
H 5.34244244 -2.21519460 2.88058512
H 0.44482678 -0.01422708 4.11894886
H 4.56994577 -0.06909825 1.69390725
C 3.55506523 1.14184973 3.22392956
C 2.18186017 1.28632043 3.76042534
H 1.62955925 2.20666489 3.58843605
H 4.40863361 1.26940023 3.88484105
