24
charge=0, multiplicity=3, basis=def2-TZVPP
C 1.69411209 -0.39475686 0.28983270
C 0.98426478 0.30333770 1.36679355
H 0.28652585 -0.36807777 1.87784950
H 1.67023789 0.70666274 2.12116402
H 0.39659096 1.13431100 0.96763245
C 0.54881806 0.47599835 -2.28484575
C 0.40565621 -0.70631732 -1.65649830
H 1.06709185 -1.53429122 -1.87509262
H -0.48554760 -0.91994393 -1.07776036
C -0.40573092 1.60924850 -2.07173234
H -1.25246352 1.31812450 -1.44971012
H 0.10144251 2.45381771 -1.59232752
H -0.79082270 1.98064101 -3.02594111
C 1.73662140 0.76117494 -3.14893505
H 1.42546592 1.05107915 -4.15713803
H 2.30970258 1.60117493 -2.74230233
H 2.39938630 -0.10042948 -3.21234322
C 2.97670178 -0.85880121 0.17201440
S 4.17345170 -0.64395968 1.46993475
C 4.78282624 -1.80971611 -0.68750545
C 5.33773850 -1.43625127 0.50689902
H 5.32443441 -2.33009809 -1.46606099
H 6.34996642 -1.59003985 0.84265519
N 3.49110472 -1.49917465 -0.88401529
