23
charge=0, multiplicity=3, basis=def2-TZVPP
C -1.38613237 1.75951951 0.29549747
C -1.75676530 0.31579761 0.24866703
C -3.15366967 -0.05766810 0.63444642
C -0.85054003 -0.67561045 -0.15888185
O 0.37337841 -0.20184692 -0.57079747
C 1.47352800 -0.99109809 -0.46351584
C 2.71866348 -0.37286750 -0.98054536
C 3.19714831 0.83601778 -0.16302524
H 1.48404193 -1.67725247 0.37930193
C -1.12216553 -2.01629960 -0.19607525
H -0.33520318 1.92496251 0.07372762
H -1.60709934 2.17753209 1.28326108
H -1.98251010 2.33378428 -0.42278158
H -3.17278619 -0.70393708 1.51788489
H -3.66780265 -0.59607367 -0.16682022
H -3.73820771 0.83266981 0.86569914
H 3.49759338 -1.13851609 -0.99190067
H 2.56172059 -0.06318345 -2.01836143
H 2.43741662 1.61862738 -0.15517749
H 3.39950169 0.55144970 0.87128867
H 4.11216603 1.25418275 -0.58663869
H -0.40498984 -2.72105090 -0.58961948
H -2.07718652 -2.38903910 0.13856632
