18
charge=0, multiplicity=3, basis=def2-TZVPP
C -1.09529372 1.72850328 -1.42337778
C 0.06469377 0.79251617 -1.63314805
O 0.58958806 0.62346563 -2.71224992
C 0.56373072 0.06089498 -0.42247729
O 0.03053063 0.28973040 0.68151135
C -1.50596715 -0.88170235 1.25131581
C -2.27119156 0.03213731 2.06943471
H -1.38324766 2.16629411 -2.37595839
H -1.94009758 1.19649165 -0.98059049
H -0.82038130 2.51243172 -0.71567239
H -0.91880819 -1.65995123 1.73073145
H -1.88567720 -1.15770758 0.26852122
H -3.13576134 -0.30827127 2.62816352
H -1.97330049 1.06954151 2.15449872
C 1.62217145 -0.97958192 -0.59538860
H 1.16189443 -1.92074373 -0.91659421
H 2.33027194 -0.69369215 -1.37143574
H 2.13234619 -1.14959553 0.35117407
