13
charge=0, multiplicity=3, basis=def2-TZVPP
C -2.40133947 -0.06392339 -0.02486394
C -1.05212737 0.57504921 -0.15357845
O -1.00236674 1.82284462 -0.44816813
C 0.17050286 -0.17883449 0.04516073
O 1.25967703 0.59333373 -0.11927401
O 0.19874157 -1.35798701 0.32456965
C 2.51078100 -0.06349443 0.05686706
H -2.98589557 0.41718360 0.76178420
H -2.95666852 0.00805897 -0.96210327
H -2.23100056 -1.11005522 0.22625738
H 3.26629621 0.69960041 -0.11015617
H 2.59702682 -0.46720377 1.06584786
H 2.62637274 -0.87457122 -0.66234290
