13
charge=0, multiplicity=3, basis=def2-TZVPP
C -0.39480867 0.40696936 0.87444117
C 0.87225064 0.11990128 0.42941691
C 1.17186085 -0.82407457 -0.70412372
C -1.66065539 0.15693146 0.13410637
S 1.37140336 2.18246485 -0.56745322
H -0.48202415 0.95410832 1.80678816
H 1.67369744 0.24091062 1.14986454
H 2.20993706 -0.73055450 -1.01639289
H 1.00345845 -1.85433142 -0.37773845
H 0.54085789 -0.64174511 -1.57350511
H -2.06362317 1.09770183 -0.25531196
H -1.53256699 -0.52775815 -0.70291063
H -2.41871817 -0.25725488 0.80281984
