14
charge=0, multiplicity=2, basis=def2-TZVPP
C 0.31994813 0.01158096 1.83774189
C 0.48762528 -1.34614876 1.60500976
C 0.33045735 -1.86539126 0.32773675
C 0.00683455 -1.02902108 -0.72787932
C -0.16682852 0.32333191 -0.47474838
C -0.00366680 0.86139588 0.79289676
S -0.53148922 1.41895201 -1.83944618
O -1.14735703 0.64112264 -2.89213699
O -1.15450115 2.61155574 -1.30832165
H 0.43876110 0.41135063 2.83622963
H 0.74163304 -2.00482807 2.42560173
H 0.45750633 -2.92548996 0.15180416
H -0.12907432 -1.41525373 -1.72884892
H -0.14761273 1.92092709 0.95491974
