25
charge=0, multiplicity=3, basis=def2-TZVPP
C -0.22737153 -1.08994413 2.27147612
C 0.58775240 -1.91724674 1.44138681
C 0.04305960 -2.51525942 0.26518531
C -1.18392903 -2.16166064 -0.17902944
C -1.79412011 -0.98174829 0.45580893
C -1.45926072 -0.71051006 1.86364633
S -2.00166529 0.44574193 -0.58587574
C -0.35691179 1.05181254 -0.79522139
O -2.47845744 -0.03159411 -1.85173801
O -2.75060658 1.40563459 0.17267272
C 0.16066934 1.94775185 0.13167327
C 1.48101231 2.34819452 0.01708712
C 2.27125563 1.85218790 -1.01046747
C 1.74353129 0.96140271 -1.93478864
C 0.42453009 0.55384890 -1.83016620
H 0.12392424 -0.83081589 3.26299544
H 1.56921575 -2.21374082 1.78429396
H 0.59397344 -3.30884874 -0.22508302
H -1.67382785 -2.64902910 -1.01030132
H -2.14576836 -0.16060606 2.49202171
H -0.47484020 2.32948415 0.91910691
H 1.89343695 3.05187103 0.72843850
H 3.30313688 2.16853707 -1.09643023
H 2.36008966 0.58658157 -2.74139591
H -0.00882868 -0.13204676 -2.54529478
