28
charge=0, multiplicity=3, basis=def2-TZVPP
O 1.19573906 -0.59747191 -2.34367866
C 1.43073471 -0.35916626 -1.15899352
C 0.42531436 -0.48663988 -0.13032693
N -0.79931873 -1.03491057 -0.42095628
C -0.91120694 -2.13594799 -1.38013751
C -2.01570223 -0.57015349 0.10702072
C -2.00882798 0.75501192 0.83430720
C -3.40884071 1.23977119 1.16750728
O -3.03064611 -1.19516573 -0.08516350
C 0.73855282 -0.04393119 1.24742096
C 1.79203682 0.98417427 1.40682902
C 3.05282499 0.45092843 0.69888340
C 2.78314027 0.23984025 -0.78531951
H -1.21264488 -1.77296583 -2.36077942
H 0.04929889 -2.63052747 -1.46814621
H -1.66394432 -2.82423421 -1.00368620
H -1.47474078 1.48135009 0.21542422
H -1.40587676 0.64993165 1.74145322
H -4.00400228 1.36862304 0.26385947
H -3.35737402 2.19637812 1.68836276
H -3.92937939 0.52508539 1.80344649
H 0.65719087 -0.81237125 2.01464814
H 1.99309786 1.18520351 2.45891520
H 1.49389233 1.92594862 0.93124832
H 3.88320530 1.14743028 0.83157085
H 3.34829809 -0.48968195 1.17100425
H 3.54779540 -0.39233537 -1.24001689
H 2.83128332 1.19592635 -1.31479687
