19
charge=0, multiplicity=3, basis=def2-TZVPP
C -2.75506985 0.58199262 0.43766084
C -2.05322427 -0.75596442 0.41881006
C -0.80421369 -0.91533791 -0.43278638
C 0.37475786 -0.03813480 -0.00139483
C 1.60713882 -0.25290905 -0.87215492
C 2.78148313 0.62443832 -0.45958631
O -1.95426478 -1.31816810 1.60097465
H -2.87243226 0.92461279 -0.59053023
H -3.74182683 0.49542161 0.89245404
H -2.18620482 1.33489391 0.99769170
H -0.50389678 -1.96588694 -0.42384783
H -1.09500911 -0.67563605 -1.45936969
H 0.61954035 -0.25218927 1.04266640
H 0.08209315 1.01561354 -0.04394299
H 1.34986944 -0.05390621 -1.91744456
H 1.90131006 -1.30597020 -0.82507731
H 3.65121264 0.45031900 -1.09494831
H 3.07571976 0.42340117 0.57295290
H 2.52291719 1.68351000 -0.52972725
