19
charge=0, multiplicity=3, basis=def2-TZVPP
C 1.19243599 2.64639512 -0.63660267
C 0.54026653 1.38728475 -0.15891293
C -0.31147520 0.59159575 -1.11189185
C -1.03452346 -0.52944185 -0.37004289
C -0.04406375 -1.37547278 0.39313170
C -0.54053514 -2.11104774 1.60853446
O 1.31057110 0.68084690 0.68671875
H 1.60693764 3.21118279 0.19924397
H 2.01434135 2.43723603 -1.33712987
H 0.46176325 3.27250558 -1.15051178
H -1.02025283 1.25725321 -1.60682289
H 0.31943044 0.15345066 -1.90471324
H -1.75996269 -0.09724854 0.32402107
H -1.59038653 -1.15123483 -1.08074781
H 0.57891365 -1.98821824 -0.26206376
H 0.75678739 -0.49779978 0.75144374
H 0.26820196 -2.62956293 2.12394574
H -1.01670128 -1.42680282 2.31289883
H -1.28542141 -2.86055126 1.32003543
