26
charge=0, multiplicity=3, basis=def2-TZVPP
O -0.58905617 -1.75611877 1.71788103
C -0.02613929 -0.66870939 1.31615746
Si -2.00649174 -0.62337455 0.95801865
C -2.45932144 -1.75384250 -0.44755430
C -2.09919517 1.15806985 0.33453143
C -3.11752484 -0.73707048 2.44651382
C 1.19563783 -0.37180112 0.67884488
C 2.15130467 -1.39330123 0.47636957
C 3.35872531 -1.10173722 -0.12405601
C 3.65158910 0.19152355 -0.54398509
C 2.71517330 1.20394977 -0.34909734
C 1.50628536 0.93735822 0.25607176
H -2.59049012 -2.78093116 -0.10642136
H -3.38737837 -1.42085220 -0.91817650
H -1.67739590 -1.74527887 -1.20976696
H -3.14128906 1.36464095 0.06991003
H -1.79312521 1.87363776 1.09849378
H -1.48235291 1.30505905 -0.55260873
H -3.23411726 -1.76820667 2.78005747
H -4.10374535 -0.32868049 2.21346103
H -2.70294714 -0.15813053 3.27437019
H 1.92268480 -2.40080184 0.79841971
H 4.08310354 -1.89343088 -0.27141528
H 4.60052129 0.40996648 -1.01570288
H 2.93853727 2.21372642 -0.67038655
H 0.78847448 1.73097484 0.41760118
