19
charge=0, multiplicity=3, basis=def2-TZVPP
C 2.96645731 0.25852886 0.75833536
C 1.98135534 -0.44326561 -0.09437592
O 0.99674085 0.14824916 -0.76277616
Si -0.62824177 -0.04476021 -0.35154143
C -1.10668932 -1.82441240 -0.61325022
C -0.84940084 0.44639014 1.43328304
C -1.54035698 1.09306204 -1.50441149
H 3.52103552 1.01321805 0.18523907
H 2.48325198 0.76799584 1.60379362
H 3.68501742 -0.45489130 1.16055705
H -2.15875602 -1.98591629 -0.36639347
H -0.95269568 -2.12253750 -1.65209098
H -0.50590295 -2.48126240 0.01916358
H -0.24063966 -0.18324912 2.08582484
H -0.55868387 1.48624084 1.59557075
H -1.89232024 0.33635885 1.73989161
H -2.61718717 1.03802304 -1.32831256
H -1.35519858 0.82294439 -2.54574565
H -1.22778537 2.12928362 -1.36276105
