19
charge=0, multiplicity=3, basis=def2-TZVPP
C 2.53139286 -0.06647958 -0.04699491
C 1.25294221 -0.20054160 -0.84460645
Si -0.47301132 -0.01976611 -0.06761239
C -0.30815702 -0.55323070 1.71750587
C -1.64616091 -1.12964952 -1.00385456
C -1.06561300 1.75314154 -0.17500577
O 1.25727294 0.02643333 -2.10041924
H 2.91545962 0.95947983 -0.08082330
H 2.35733041 -0.34392040 0.99019029
H 3.29704972 -0.72711166 -0.46185126
H 0.31267946 0.13532998 2.29327763
H 0.11640604 -1.55506303 1.80051651
H -1.29931777 -0.56958750 2.17827278
H -2.65702254 -1.04945448 -0.59606739
H -1.68254567 -0.84762854 -2.05766574
H -1.33438371 -2.17361556 -0.94519685
H -0.41103371 2.42599021 0.38215547
H -1.08716895 2.08678267 -1.21415731
H -2.07581868 1.84889112 0.23213660
