19
charge=0, multiplicity=3, basis=def2-TZVPP
C 2.17841290 0.26518104 -0.12278494
C 1.20129510 -0.37155350 -1.04836950
Si -0.66011140 0.23555147 -1.47361523
C -1.41735098 -0.06179133 0.23699566
C -1.68375891 -0.76696859 -2.66619552
C -0.68289615 2.06869329 -1.80980124
O 1.03724098 -0.18451861 -2.32565780
H 2.18698795 1.35753136 -0.22468727
H 1.93211131 0.01008924 0.90701471
H 3.18668848 -0.10473549 -0.33397181
H -0.90673274 0.51436500 1.01020756
H -1.38049520 -1.11684833 0.51201705
H -2.46693992 0.24809621 0.21383496
H -2.74687913 -0.56030111 -2.52165124
H -1.41969502 -0.54814757 -3.70097914
H -1.52433550 -1.83397266 -2.49626001
H -0.00666535 2.60077209 -1.13703909
H -0.38431188 2.28912829 -2.83495834
H -1.68756754 2.46692018 -1.64817881
