28
charge=0, multiplicity=3, basis=def2-TZVPP
O 0.47350463 1.76692139 0.41962767
C 0.04649413 1.07860347 -0.56254949
Si -1.70289442 0.37888628 -0.26633567
C -1.68321416 -0.83028411 1.16391130
C -2.83659566 1.80651767 0.12759644
C -2.19222958 -0.47597909 -1.85486248
C 1.01399084 0.35416241 -1.49600344
C 1.56034570 -0.97339463 -0.95830020
C 2.21658685 -0.89601926 0.41600808
C 3.35440782 0.09751485 0.53610469
Cl 4.70786164 -0.26594641 -0.59247701
H -1.30231186 -0.34779090 2.06622647
H -2.69107208 -1.19609059 1.37762435
H -1.04982539 -1.69291405 0.94819977
H -2.49585311 2.33111436 1.02196774
H -2.86714706 2.52433145 -0.69344457
H -3.85323455 1.44903590 0.30964494
H -3.21767691 -0.84385500 -1.76588648
H -2.15372865 0.20788606 -2.70430778
H -1.55035101 -1.33169447 -2.07137445
H 0.49868080 0.17316409 -2.43913968
H 1.83468744 1.04402675 -1.71024041
H 2.28117324 -1.35772376 -1.68538744
H 0.74706864 -1.70253380 -0.91029711
H 2.57519910 -1.88850970 0.69759633
H 1.47060680 -0.60167206 1.16077847
H 3.03356936 1.11275953 0.31438570
H 3.78205744 0.07978364 1.53543429
