28
charge=0, multiplicity=3, basis=def2-TZVPP
O -0.28733233 1.90952227 -0.17113196
C -0.61070165 0.92363143 -0.95836724
Si -1.67493506 0.91064243 0.74157523
C -0.64869692 0.21273479 2.13110287
C -2.66616143 2.41735063 1.21389615
C -2.93944744 -0.39673751 0.21529809
C 0.25772318 -0.15443788 -1.52009450
C 1.27757614 0.38211154 -2.53416239
C 0.67295995 1.19219407 -3.67644233
C -0.45548724 0.52258237 -4.43221683
Br 0.07316908 -1.16774985 -5.26490569
H -1.29922619 -0.16663919 2.92287631
H -0.03200275 -0.61985239 1.78571007
H 0.01011896 0.96923932 2.55822309
H -2.03699206 3.18363983 1.66711663
H -3.14123723 2.85006568 0.33076717
H -3.45572340 2.14649731 1.91889137
H -3.61794038 -0.58444460 1.05355738
H -3.53511764 -0.05744667 -0.63343861
H -2.45864534 -1.33799296 -0.05515297
H 0.79882868 -0.66271130 -0.71077208
H -0.38487011 -0.90318726 -1.98723743
H 1.83038805 -0.46958757 -2.93690063
H 1.99988431 1.01196090 -2.01089246
H 1.46432935 1.47206203 -4.37492440
H 0.25762153 2.12339777 -3.27628409
H -1.29402088 0.27924289 -3.78452326
H -0.80891760 1.14477645 -5.24941521
