23
charge=0, multiplicity=3, basis=def2-TZVPP
C -1.96276936 2.13099074 -1.67301573
Si -1.54072797 0.67889268 -0.59754830
O -0.13304347 1.17504886 0.22190367
C 0.54273004 0.40804853 1.04013290
C 1.75443102 -0.20753597 0.86728045
C 2.46977180 -1.00326726 1.77534483
C 3.67735156 -1.47954388 1.25004496
C 3.91438433 -1.07314758 -0.03523488
S 2.64862255 -0.08145159 -0.64267822
C -1.12091568 -0.84514389 -1.57552993
C -2.85037062 0.33358493 0.67647971
H -1.15381476 2.34721920 -2.37304835
H -2.14069049 3.02464335 -1.07215147
H -2.86626653 1.92857315 -2.25281742
H 2.10599691 -1.21109031 2.77039728
H 4.36344093 -2.10642123 1.80215392
H 4.76929661 -1.29767915 -0.65212984
H -0.76486495 -1.64174350 -0.91882981
H -1.99999786 -1.21487184 -2.10887537
H -0.33804951 -0.64123323 -2.30819066
H -2.53590418 -0.46962090 1.34610663
H -3.78351651 0.02688844 0.19809553
H -3.05489387 1.21906045 1.28111010
