23
charge=0, multiplicity=3, basis=def2-TZVPP
O 0.07333563 0.30125049 2.37732194
C 0.28227255 0.18219900 1.12586784
Si -1.32939966 -0.19152863 0.11578300
C -2.73653109 -0.25837870 1.33391494
C -1.08676430 -1.83324204 -0.73535165
C -1.55502831 1.19584447 -1.11004466
C 1.53469259 0.30006192 0.50502651
C 2.80116549 0.55493113 1.00008855
C 3.66811186 0.55281099 -0.12101810
C 2.90195620 0.30320400 -1.20931348
O 1.60077150 0.14596244 -0.85306742
H -2.84894220 0.68969288 1.86178030
H -3.67113285 -0.46835436 0.80801296
H -2.58069646 -1.04211854 2.07660373
H -1.96983226 -2.07230953 -1.33458364
H -0.21951711 -1.80513211 -1.39502883
H -0.94216606 -2.63362026 -0.00812872
H -0.69596000 1.26941218 -1.77685858
H -2.44775804 1.01226720 -1.71451483
H -1.68001202 2.15236709 -0.60034109
H 3.05087082 0.71842502 2.03405181
H 4.73288224 0.71673532 -0.12136819
H 3.11788148 0.20952004 -2.25893238
