22
charge=0, multiplicity=2, basis=def2-TZVPP
C 0.79767623 1.03249973 0.75000635
C 2.15006338 0.76649832 0.48536945
C 2.69140633 -0.17199728 -0.34161063
C -0.37223641 0.26076761 0.40148051
C -1.61744181 0.91617084 0.35268528
C -2.75935284 0.22326779 0.02138498
C -2.71954245 -1.14049774 -0.25513537
C -1.50087633 -1.80617655 -0.18189439
C -0.34182136 -1.11120916 0.14505606
H 0.59154262 1.96253630 1.26893360
H 2.84872439 1.43829490 0.97629348
H 3.76494054 -0.24374018 -0.45233975
H 2.08907496 -0.83175748 -0.94972253
H -1.66705675 1.97694095 0.56465560
H -3.70894406 0.74169889 -0.02439924
H -3.63125076 -1.66160774 -0.50822082
H 0.57390956 -1.67596155 0.24198230
O -1.34302793 -3.13369346 -0.40198791
C -2.48049945 -3.89785346 -0.72084250
H -2.94538580 -3.55759373 -1.65163908
H -2.13282478 -4.92039191 -0.84902388
H -3.22241226 -3.86885507 0.08352735
