23
charge=0, multiplicity=3, basis=def2-TZVPP
C 0.75513672 1.02742102 0.63603985
C 2.09084745 0.45357738 0.71779417
C 3.00184658 0.45206813 -0.43366847
Cl 3.85738917 2.07513256 -0.58200622
C -0.41499758 0.28861540 0.35481085
C -1.67081184 0.93959388 0.27585163
C -2.80548002 0.21902067 -0.00241327
C -2.75691262 -1.16002966 -0.21326905
C -1.52930225 -1.81631486 -0.13846264
C -0.37491059 -1.10160246 0.14191256
H 0.65492960 2.10048191 0.78520992
H 2.50527908 0.19670590 1.68856520
H 3.80244133 -0.27634784 -0.33833834
H 2.48071313 0.32670423 -1.37954295
H -1.72374401 2.00910678 0.43573605
H -3.76167483 0.72376760 -0.06191209
H -3.66805825 -1.69766294 -0.43074036
H 0.56521877 -1.63610394 0.19792589
O -1.36735640 -3.14814227 -0.32488005
C -2.50362458 -3.92778490 -0.61101667
H -2.98314454 -3.61264348 -1.54310985
H -2.14951972 -4.95026468 -0.72031261
H -3.23478258 -3.88637240 0.20244230
