21
charge=0, multiplicity=2, basis=def2-TZVPP
C 0.72356623 1.35466831 0.49061963
C 1.89287998 0.66283892 0.88506962
C 2.20851635 -0.64028642 0.69393321
H 0.77283882 2.43651658 0.54303170
H 2.64088518 1.28260845 1.37077139
H 3.15199257 -1.03036219 1.05092858
H 1.57445523 -1.31953709 0.14204861
C -0.50103716 0.81214709 0.03478510
C -0.99857163 -0.46975016 0.10298255
S -1.66712553 1.89479954 -0.70675996
H -0.47534487 -1.28239169 0.58283317
C -2.80959798 0.61628014 -0.92825382
C -4.07446539 0.70304739 -1.50108638
C -2.30688140 -0.60477155 -0.43984861
C -4.84036571 -0.44213049 -1.58088943
H -4.45117365 1.64669028 -1.87402236
C -3.10753657 -1.75220771 -0.53061854
C -4.35868842 -1.66461502 -1.09662576
H -5.82738242 -0.39356444 -2.02252988
H -2.73542077 -2.69819511 -0.15689501
H -4.97973565 -2.54806185 -1.16992320
