22
charge=0, multiplicity=3, basis=def2-TZVPP
C 0.74364084 1.24718936 0.37837801
C 1.69176767 0.39841054 1.09351088
C 2.75199159 -0.33212057 0.38795371
Cl 4.17896854 0.77670660 0.05038044
H 1.04570137 2.26580703 0.14626592
H 1.75679431 0.46758133 2.17522620
H 3.16471343 -1.14815325 0.97482911
H 2.43624947 -0.68514390 -0.59073376
C -0.50088096 0.80483883 -0.02473688
C -1.06560156 -0.45771542 0.17248351
S -1.61044973 1.85167573 -0.90297596
H -0.54470123 -1.24691010 0.69691773
C -2.80674183 0.59782263 -0.99605224
C -4.05745212 0.67881018 -1.59277470
C -2.36589672 -0.58866190 -0.37036017
C -4.87663667 -0.43473988 -1.56488975
H -4.38615522 1.59293014 -2.07005441
C -3.21870285 -1.70365524 -0.35680029
C -4.45803479 -1.61980051 -0.94934135
H -5.85484808 -0.38780999 -2.02570814
H -2.89498002 -2.62071641 0.11973020
H -5.11810034 -2.47749971 -0.94085901
