17
charge=0, multiplicity=3, basis=def2-TZVPP
O -2.42144708 -1.72878519 0.91306666
C -1.78279396 -0.77307869 0.54658640
N -2.25928922 0.50885963 0.52126815
N -0.49049840 -0.92363360 0.06370238
N 0.38790167 0.16467508 -0.03272000
C 1.60983233 -0.16940616 -0.75405770
C 2.40391354 -1.20819896 -0.05688094
C -0.16070682 1.40617067 -0.13960752
C -1.52353572 1.65659156 0.17361138
O -2.05991842 2.74888186 0.16299161
H -3.21900641 0.64218926 0.79650245
H -0.03499220 -1.75368521 0.41394392
H 2.17766838 0.76567517 -0.82780395
H 1.36163363 -0.48109019 -1.77550769
H 3.00521866 -1.90468843 -0.62212096
H 2.51280587 -1.17067566 1.01933780
H 0.49321416 2.22009888 -0.40221199
