15
charge=0, multiplicity=3, basis=def2-TZVPP
C -0.59397587 0.41136095 -1.07866237
C -0.13782148 -0.99926349 -0.65633691
N 1.34039998 -0.85960060 -0.81942556
N 1.76968218 -0.48486473 0.33976310
C 0.05890655 1.29630633 0.01665179
C 0.66288169 0.26227594 0.97980815
C -0.33250913 -0.92276186 0.86774602
H -1.68544839 0.46656228 -1.05038075
H -0.25627947 0.65772537 -2.08248709
H -0.56803409 -1.83002749 -1.20753033
H -0.67699601 1.90902859 0.53833851
H 0.82670263 1.95674860 -0.38236814
H 0.93584492 0.61015261 1.97040600
H 0.01055601 -1.80237941 1.40718052
H -1.35391050 -0.67126108 1.15729905
