15
charge=0, multiplicity=3, basis=def2-TZVPP
C -1.28838584 0.19527263 -0.58902701
C -0.11981083 1.06346242 -0.91104309
N 0.62938911 0.94013303 2.55049180
N 0.28238214 -0.07236276 2.18381987
C -0.64975616 -1.08728077 -0.02939833
C 0.67253602 -0.62785749 0.53014924
C 1.13656742 0.54867026 -0.29333666
H -1.93329934 0.00288074 -1.45046074
H -1.92826684 0.66418822 0.17197180
H -0.18929263 2.00458215 -1.43649686
H -0.46357904 -1.80039246 -0.83826563
H -1.26113842 -1.59229653 0.71907969
H 1.40049513 -1.39400332 0.77641362
H 1.86660973 0.21534095 -1.04579071
H 1.65804853 1.29530194 0.31809000
