22
charge=0, multiplicity=3, basis=def2-TZVPP
C 0.88572535 -0.22595980 0.85909666
C 1.68060830 0.34644140 1.99100160
C 0.11924514 0.61295338 -0.00905396
C -0.91053425 0.09684272 -0.85672907
C -1.66387669 -1.16163148 -0.56176364
C -1.43769486 0.89086533 -2.01093863
C 1.10895799 -1.68356866 0.60644990
C 0.38533829 1.98446652 -0.03032110
H 1.83788333 -0.40995223 2.76343243
H 2.67740649 0.67023525 1.66318999
H 1.19242247 1.20461190 2.45337694
H -1.44038653 -1.95889283 -1.28111430
H -1.47377124 -1.54619137 0.43794515
H -2.73890777 -0.96929693 -0.64654912
H -0.66626946 1.49250086 -2.49202500
H -1.86623349 0.22512735 -2.76378341
H -2.24231492 1.57096698 -1.70114064
H 0.60857864 -2.31607933 1.34980941
H 0.77937699 -1.99855376 -0.38126513
H 2.17822354 -1.90663646 0.68876553
H -0.18798650 2.66318000 -0.64455654
H 1.17421018 2.41856916 0.56617493
