16
charge=0, multiplicity=3, basis=def2-TZVPP
C 1.83377254 -0.59317180 -0.00002088
C 0.47411237 -0.29263228 -0.00000464
C -0.50969187 -1.31188624 -0.00004269
C 0.02496523 1.05394941 0.00005448
C -1.85093197 -0.99852252 -0.00002754
H -0.18873394 -2.34571926 -0.00008584
C -1.32231877 1.34810424 0.00006811
H 0.75394643 1.85491397 0.00009432
C -2.27030216 0.32987041 0.00002697
H -2.58512716 -1.79466126 -0.00005874
H -1.64242936 2.38290005 0.00011379
H -3.32586619 0.56826559 0.00003893
C 3.07730354 0.18096684 -0.00002170
H 3.14875969 0.82368516 -0.88635947
H 3.14933032 0.82281484 0.88689818
H 3.95070030 -0.47423914 -0.00062428
