18
charge=0, multiplicity=3, basis=def2-TZVPP
C 1.32926301 0.22897954 -0.00002628
N 2.08305087 -0.92816730 0.00001076
N 3.27627206 -0.98761312 0.00003305
C -0.09978854 0.07423760 0.00001564
C -0.69850975 -1.19912212 -0.00007733
C -0.94022144 1.20048579 0.00016447
C -2.07133322 -1.33111505 -0.00003349
H -0.06558207 -2.07564746 -0.00018772
C -2.31453829 1.05847007 0.00021373
H -0.51217022 2.19398619 0.00025968
C -2.88787913 -0.20568169 0.00011130
H -2.51316640 -2.31938119 -0.00011280
H -2.94401741 1.93914711 0.00033441
H -3.96480168 -0.31446979 0.00014609
C 2.00263140 1.56081614 -0.00004940
H 1.71733193 2.14231278 -0.88038057
H 1.71805158 2.14196378 0.88075434
H 3.08331631 1.43769571 -0.00049386
