18
charge=0, multiplicity=3, basis=def2-TZVPP
C 1.22914082 0.41140913 0.00000275
N 2.31243901 -1.10853518 0.00000740
N 3.42382296 -0.97540233 0.00000887
C -0.14545238 0.14208501 0.00000112
C -0.67010157 -1.17189388 0.00000279
C -1.06848129 1.21742513 -0.00000236
C -2.03108882 -1.38578974 0.00000107
H 0.01041308 -2.01100223 0.00000544
C -2.42761144 0.98468193 -0.00000403
H -0.69862064 2.23487981 -0.00000371
C -2.92086303 -0.31527225 -0.00000234
H -2.40969298 -2.40027086 0.00000239
H -3.11284705 1.82319795 -0.00000668
H -3.98827165 -0.49338874 -0.00000366
C 1.97211846 1.67814697 0.00000149
H 1.73598392 2.27992208 -0.88434872
H 1.73598146 2.27992530 0.88434884
H 3.04848516 1.49272190 0.00000333
