21
charge=0, multiplicity=3, basis=def2-TZVPP
C -0.24254459 -3.89725150 -0.05104770
C 0.57926804 -2.66185584 -0.15348951
C 0.21365598 -1.43932927 0.36237909
C 0.97509223 -0.29053009 0.27395279
C 0.55006280 0.99585061 0.83639225
N 0.84999204 1.20475355 2.15028730
N 0.56304134 2.25622310 2.74399318
N 0.39586336 3.10312939 3.45794969
C -0.12157562 2.02257854 0.05607831
O -0.46987040 3.09636560 0.49972730
O -0.30941588 1.64703793 -1.21732075
C -0.96366643 2.60058499 -2.04675233
H 0.30048617 -4.68990722 0.47301633
H -1.17665422 -3.71570322 0.48182452
H -0.48627600 -4.29185911 -1.04236989
H 1.53207025 -2.73795279 -0.66942931
H -0.74102147 -1.37082299 0.87911252
H 1.93012602 -0.32206121 -0.24324714
H -1.03402102 2.13823728 -3.02763999
H -1.95783209 2.82843719 -1.66162419
H -0.38678051 3.52407405 -2.10179048
