21
charge=0, multiplicity=3, basis=def2-TZVPP
C 0.10503039 -4.09023775 0.42153241
C 0.42366555 -2.75668151 -0.15212416
C 0.15855920 -1.55544049 0.47723592
C 0.44031316 -0.31927841 -0.05713996
C 0.20390816 0.93825713 0.65951118
N 0.37759089 0.92799931 1.95607444
N 0.32570210 2.00656484 2.67768509
N -0.15839611 2.55943510 3.55410080
C -0.15932176 2.17993136 -0.05375921
O -0.28598260 3.25305354 0.48212059
O -0.28897359 1.97966698 -1.36973801
C -0.61647956 3.13489417 -2.13777777
H 1.00764565 -4.70067333 0.52545060
H -0.36324897 -4.00501921 1.40262845
H -0.57173495 -4.64902708 -0.23275399
H 0.89792179 -2.73303993 -1.12886073
H -0.30102818 -1.58676048 1.46181917
H 0.86250668 -0.24313134 -1.05146943
H -0.69484189 2.79258597 -3.16585176
H -1.56274959 3.55990343 -1.80344297
H 0.16396863 3.88993072 -2.04475563
