19
charge=0, multiplicity=3, basis=def2-TZVPP
O -0.35932774 -1.24321563 2.06065640
C -0.68008339 -0.82949254 0.98199391
C 0.25717715 -0.73776248 -0.22872595
C 1.66995236 -0.23201815 0.20798092
C 2.58139079 -0.31086270 -0.93445827
N 3.27141794 -0.36569668 -1.84921340
C 1.63683047 1.14113537 0.78780350
C -0.48192426 0.12330073 -1.18316848
C -1.80449883 0.56985294 -0.65235490
C -2.04424132 -0.29661230 0.58998495
H 0.39691108 -1.75946240 -0.61270066
H 2.02001239 -0.94040095 0.96629626
H 1.26711433 1.27258515 1.79431312
H 1.89761244 2.00395743 0.19358368
H -0.07492350 0.44306549 -2.13154757
H -1.77353558 1.63332442 -0.37967413
H -2.60253121 0.47412326 -1.39271203
H -2.50848987 0.21689726 1.42999717
H -2.66886326 -1.16271824 0.35194548
