22
charge=0, multiplicity=3, basis=def2-TZVPP
O -1.32828591 -1.51915075 0.32325436
C -1.57813571 -0.56260284 -0.35173886
O -2.77136259 -0.05020733 -0.60037422
C -3.87674915 -0.71395434 0.03504211
C -5.13454145 0.01852473 -0.35748152
N -0.61168044 0.21925080 -1.02159750
N 0.59758426 -0.03352855 -1.06043808
C 1.57650404 0.58087228 -0.24909432
O 2.76457014 0.14014963 -0.62647424
C 3.88152923 0.64756889 0.12261992
C 5.13161058 0.02614473 -0.44637565
O 1.33963642 1.36133345 0.62714049
H -3.71664059 -0.70118229 1.11434901
H -3.89175670 -1.75539646 -0.29058036
H -5.99434734 -0.46204317 0.11074859
H -5.27498749 -0.00023677 -1.43831389
H -5.09833655 1.05723422 -0.02894668
H 3.74041994 0.39191706 1.17402613
H 3.89150187 1.73560637 0.03937346
H 5.25300889 0.28801189 -1.49754809
H 5.10031191 -1.05995613 -0.35938100
H 5.99994664 0.39174459 0.10299033
