14
charge=0, multiplicity=1, basis=def2-TZVPP
O 1.31592487 -0.23443043 -1.15262700
C 1.11802222 0.02748083 0.00772529
C 2.14630180 0.34745467 0.98242055
N 3.37941964 0.34946320 0.56113621
N 4.42865816 0.34565531 0.17959051
O -0.09125215 0.06457790 0.58391054
C -1.20175582 -0.23408067 -0.27160736
C -2.45763679 -0.13916991 0.55898215
H 1.97649213 0.58181599 2.01908157
H -1.06712183 -1.23284233 -0.69036871
H -1.20986311 0.47475537 -1.10137252
H -2.57792379 0.86344521 0.97041548
H -2.43425452 -0.85217575 1.38364468
H -3.32501081 -0.36184937 -0.06383141
