36
charge=0, multiplicity=3, basis=def2-TZVPP
N -1.00204748 0.78115299 0.20189302
N 0.04335630 0.26290868 0.75306503
C 1.05026842 1.09718495 1.23864163
C -1.98756899 -0.08224641 -0.23202850
O -2.03872655 -1.29220329 -0.10887970
O 2.07179728 0.63929298 1.69081643
O 0.76075191 2.38589303 1.15255609
C 1.76518238 3.28298554 1.64880987
H 2.69229207 3.11303029 1.09885126
H 1.95380101 3.05469928 2.69909796
C 1.24824140 4.68726731 1.46137136
H 1.98841715 5.39944051 1.82865246
H 1.06059512 4.89472474 0.40778491
H 0.32041292 4.83647085 2.01373977
C -4.05694756 -0.10643648 -1.33350430
H -4.52631660 -0.64921546 -0.51066757
H -3.69939136 -0.84377930 -2.05497650
O -2.94049555 0.63128560 -0.82832163
C -5.00676587 0.88041930 -1.96628459
H -4.52349676 1.41480793 -2.78452229
H -5.87337237 0.35027513 -2.36361777
H -5.35372098 1.60977425 -1.23403588
C 0.59656421 -1.66693132 0.90118225
C 1.84072826 -1.77823960 0.07307033
O 2.86970046 -2.25067263 0.46325363
O 1.60162674 -1.31092575 -1.14472933
C 2.69386166 -1.35549815 -2.08023604
H 2.46260887 -0.56921348 -2.79636578
H 3.61454638 -1.10511424 -1.55407238
N 0.77170458 -2.00119002 2.17490671
N 0.85607130 -2.04542619 3.29607816
H -0.35907395 -1.98712807 0.49092124
C 2.78985160 -2.70683812 -2.75173397
H 3.58020511 -2.68280290 -3.50362853
H 3.03181165 -3.48329262 -2.02672914
H 1.85186242 -2.95978759 -3.24701744
