28
charge=0, multiplicity=3, basis=def2-TZVPP
C 4.10577626 1.15619633 0.28007176
C 3.39009645 0.03229078 -0.43511567
C 1.96080222 -0.19474586 -0.15362999
C 1.22463977 0.59630439 0.76810025
C -0.09134907 0.38230841 0.98318644
C -0.88001915 -0.65620987 0.24608175
O -1.60954492 -1.46123722 1.17492272
C -2.99379869 -1.13228168 1.18055519
C -3.13664455 0.14621057 0.37129538
C -2.00284063 0.01549347 -0.64096651
C -1.59279685 1.25210323 -1.33412801
C -0.00726608 -1.52620326 -0.59568318
C 1.29957358 -1.27818246 -0.80112977
O 3.98415584 -0.66955306 -1.23075561
H 3.62947521 2.11648380 0.07202393
H 5.13846041 1.18355734 -0.05805126
H 4.08266733 1.00475332 1.36129905
H 1.72785861 1.37700280 1.32384473
H -0.63175963 0.97750721 1.70947011
H -3.55765939 -1.95279952 0.72371163
H -3.32311654 -1.02550254 2.21548702
H -2.98498237 1.02955825 0.99621949
H -4.11169227 0.23500098 -0.10640702
H -2.27820448 -0.74454738 -1.38102179
H -0.98888553 1.20222893 -2.22960801
H -1.75016938 2.21955013 -0.87595760
H -0.49462927 -2.37436868 -1.06236526
H 1.89205311 -1.91081839 -1.44864976
