15
charge=0, multiplicity=3, basis=def2-TZVPP
C -0.56484867 -1.28557715 1.26268629
C 0.19197282 -1.13726445 -0.01175461
C 0.08841066 -0.12468088 -0.89852853
C -0.95735435 0.95100277 -0.89075247
C 1.86322015 1.12618726 -0.00317042
Cl 3.04436942 1.71322507 -1.07451431
Cl 1.59950318 1.83918888 1.51545264
H -1.01859377 -2.27799657 1.32480655
H 0.11209456 -1.19501067 2.11790502
H -1.35315776 -0.54340760 1.37550934
H 0.94436039 -1.89443676 -0.20786912
H 0.67115900 -0.20781596 -1.80973086
H -0.60232587 1.83581060 -1.41820561
H -1.85983355 0.60205881 -1.40038010
H -1.23568622 1.25193865 0.11854620
