26
charge=0, multiplicity=3, basis=def2-TZVPP
C -1.05561613 -0.91842232 -0.19462792
C -1.00775236 0.29708669 -0.92621508
C -2.20523396 1.04633517 -0.98356311
C -3.33935869 0.60374477 -0.33697636
C -3.35040838 -0.61740656 0.33984219
C -2.18766684 -1.37949704 0.42583085
C 1.09189628 -0.53903862 0.15400098
C 0.65612495 0.86268320 0.29818138
H -4.24640127 1.19278495 -0.38599333
H -4.25502124 -0.96318137 0.82144673
O 0.16945809 -1.50272705 0.05069954
C 2.49422183 -0.67344284 -0.09032316
O 3.13173821 -1.69275482 -0.29718658
C 1.79572640 1.65489640 -0.30913430
H 1.89587940 2.64429543 0.13674865
H 1.63426295 1.79092678 -1.38375879
C 0.07626532 1.33008171 1.60038306
H 0.84925713 1.37077105 2.37692618
H -0.33707367 2.33437661 1.48928806
H -0.71798688 0.67023063 1.95158067
H -0.29042582 0.39303926 -1.73578631
H -2.14702479 -2.29228035 1.00529838
H -2.22956102 1.96139003 -1.56085079
C 3.03917825 0.75912750 -0.09380694
H 3.79824755 0.87202932 -0.86657242
H 3.51501167 0.96340647 0.86945844
