30
charge=0, multiplicity=1, basis=def2-TZVPPD
N -3.796373017 -4.013985966 -8.863005969
C -3.567844648 -4.116594957 -7.508951772
C -4.195336259 -5.074060108 -6.671946322
C -4.935195789 -6.073569744 -7.349442737
C -5.970199150 -6.617423230 -6.503092335
C -5.973385253 -5.948303075 -5.257182602
N -7.087993486 -5.869567013 -4.515596939
C -8.274390140 -6.321329345 -5.048638009
C -8.408090875 -6.819593436 -6.369701068
C -4.617264606 -4.897275517 -9.449431634
C -7.189857995 -7.023201428 -7.062369847
C -7.387036298 -6.953556269 -8.490127860
C -8.737988139 -6.649777818 -8.776211187
N -9.084442629 -6.040330775 -9.919340894
C -8.091187077 -5.573529203 -10.750723200
C -6.707817126 -5.646912443 -10.447180468
C -6.380959229 -6.427440062 -9.311715459
C -5.125933100 -6.007529689 -8.736308123
C -4.664472517 -5.090096140 -5.183146408
C -9.543716801 -6.799930541 -7.440571846
C -5.465969985 -4.753848306 -10.758794561
H -5.735922660 -3.699853157 -10.955235893
H -4.901005270 -5.115367164 -11.645194920
H -8.450642530 -5.001348660 -11.621393040
H -2.962449793 -3.301035034 -7.081034161
H -9.161032779 -6.138292298 -4.420065425
H -10.143003420 -7.736088586 -7.435847199
H -3.913640998 -5.557608970 -4.509959454
H -10.251557890 -5.962488167 -7.298762334
H -4.867239766 -4.077518575 -4.788477992
