63
charge=0, multiplicity=1, basis=def2-TZVPPD
C -4.90006100 2.45629600 0.26716200
C -5.14118500 1.02660300 0.23515900
N -4.07194100 0.28283900 -0.25637700
C -2.87588200 0.76414100 -0.71827300
N -2.72886100 2.13717500 -0.68317600
C -3.73036100 2.93689500 -0.19061600
O -6.16411300 0.46925900 0.58891600
O -1.99322100 0.03126600 -1.13320600
C -1.48400200 2.70890200 -1.21570100
C -0.25156700 2.33432500 -0.39906000
C 0.84843500 3.37088500 -0.60373400
N 2.10374800 2.83272200 -0.60735200
C 3.33217000 3.50702900 -0.62692400
O 0.59118500 4.55254900 -0.70297500
N 4.38565300 2.70597700 -0.42307600
C 5.61318500 3.24418700 -0.41003600
C 5.83767700 4.60942700 -0.62012900
C 4.72831500 5.40835300 -0.83227200
C 3.44526500 4.87897600 -0.83753900
N 6.63314800 2.33389900 -0.15142200
C 7.99640000 2.55913800 -0.16359200
O 8.50624200 3.62235000 -0.43396200
C 8.80145000 1.32170600 0.19323800
C 10.29822900 1.59398100 0.22210200
C 11.10421900 0.34717100 0.57639100
C 12.60854400 0.60530600 0.61191000
C 13.42144800 -0.63698500 0.96838600
C 14.92595300 -0.37929100 1.00398800
C 15.73674800 -1.62240000 1.36149800
C 17.24655100 -1.35946900 1.38870700
C 18.02910600 -2.57863800 1.77827300
C 18.91488600 -3.19175500 1.00374600
H -5.67521000 3.10267900 0.64722300
H -4.18623200 -0.74515200 -0.29853700
H -3.50760600 3.99649100 -0.19785200
H -1.59874100 3.79193000 -1.20944300
H -1.36854300 2.37358500 -2.24752600
H 0.08861100 1.32839400 -0.63940200
H -0.50092200 2.36541300 0.66727600
H 2.15823300 1.81795900 -0.65271700
H 6.84148700 4.99915900 -0.60973300
H 4.86438000 6.47090100 -0.99641600
H 2.56649100 5.48064400 -0.99761900
H 6.34469400 1.39562100 0.12026200
H 8.55755900 0.53500700 -0.52936400
H 8.44741700 0.94311700 1.15809100
H 10.50565900 2.39043500 0.94280800
H 10.61337300 1.98045700 -0.75133300
H 10.89026500 -0.44599900 -0.15031600
H 10.77910100 -0.03419800 1.55193200
H 12.82194400 1.39953000 1.33710200
H 12.93359300 0.98464000 -0.36412700
H 13.20739500 -1.43120800 0.24312300
H 13.09555900 -1.01548800 1.94475500
H 15.14106200 0.41512000 1.72875200
H 15.25226600 -0.00196600 0.02745000
H 15.52770600 -2.42046500 0.64084300
H 15.41627100 -1.99699500 2.34082600
H 17.44966000 -0.55167700 2.10214900
H 17.57811400 -1.00888200 0.40614500
H 17.82095800 -2.98215400 2.76807000
H 19.44072600 -4.08018300 1.33235800
H 19.14553200 -2.81931400 0.01037200
