87
charge=0, multiplicity=1, basis=def2-TZVPPD
H 1.06105100 -3.12013100 1.94306000
H 2.17279500 2.47797100 1.94277900
H -3.23165600 0.64207900 1.94508400
N 0.35969800 -3.57927000 2.52969200
N 2.92115300 2.10056500 2.52957200
N -3.27845700 1.47916200 2.53153900
C -0.56276800 -2.83615000 3.19381500
C 0.07517900 -4.96580800 2.25823900
C 2.73917200 0.93016800 3.19381400
C 4.26402200 2.54828600 2.25844500
C -2.17329800 1.90669400 3.19485700
C -4.33731600 2.41853000 2.26033100
C -0.23995500 -1.37435400 3.29855600
O -1.59674400 -3.31352700 3.62572300
C -1.31021900 -0.47724100 3.30869000
C 1.07014800 -0.89680100 3.30791400
H -2.32440900 -0.88252800 3.30147000
C -1.06875400 0.89617400 3.29909200
H 1.92820600 -1.57249400 3.30004400
C 1.31191000 0.47865700 3.29851700
C 0.24325900 1.37446200 3.30840900
H 0.39942900 2.45541200 3.30101300
O -2.06923900 3.04103300 3.62608700
O 3.66964600 0.27361600 3.62591700
H 0.04103600 -5.53912700 3.19761500
C 1.12136400 -5.53600400 1.29852200
C -1.29755500 -5.09575100 1.60726000
H 0.86514100 -6.57938300 1.06431800
H 1.07305100 -4.97382200 0.35306700
C 2.53853000 -5.45536700 1.85159300
O -1.68672200 -4.39092900 0.70879700
O -1.98010500 -6.11904500 2.09902500
H 2.75953200 -4.47115700 2.28253300
H 2.70479100 -6.19511000 2.65221600
C 3.55727900 -5.71597300 0.77466500
C -3.29574900 -6.30110600 1.59528800
O 3.32915300 -6.24254300 -0.28401800
O 4.78301100 -5.31540500 1.13035300
H -3.74448600 -7.09819600 2.19606200
H -3.27501900 -6.58926200 0.53569200
H -3.86840900 -5.37032300 1.71006100
C 5.82390500 -5.61401900 0.21037600
H 6.73430200 -5.16570600 0.62085800
H 5.59492600 -5.20407600 -0.78311700
H 5.94860000 -6.70184900 0.11354600
H 4.77725100 2.80554900 3.19796400
C 4.23408600 3.73952400 1.29896100
C 5.06377500 1.42504800 1.60750500
H 5.26558700 4.03954700 1.06420900
H 3.77082300 3.41657300 0.35378300
C 3.45595000 4.92632300 1.85277100
O 4.64865800 0.73549600 0.70880300
O 6.29094300 1.34587800 2.10003700
H 2.49289400 4.62564000 2.28322900
H 4.01350100 5.43931000 2.65392900
C 3.17287200 5.93984300 0.77656300
C 7.10697600 0.29767600 1.59686600
O 3.74334400 6.00625700 -0.28187000
O 2.21275900 6.80060600 1.13238600
H 8.02156900 0.30829100 2.19774100
H 7.34617400 0.45933700 0.53722300
H 6.58761600 -0.66382000 1.71205200
C 1.95076700 7.85161900 0.21273600
H 1.10780700 8.41612700 0.62388800
H 1.70937300 7.44855400 -0.78062700
H 2.83068000 8.50320800 0.11542600
H -4.81624300 2.73508900 3.19985400
C -5.35459800 1.79672600 1.30153700
C -3.76446700 3.67224600 1.60827000
H -6.13058500 2.53973700 1.06724900
H -4.84375600 1.55720300 0.35604000
C -5.99254300 0.52914800 1.85566200
O -2.95979700 3.65688500 0.70952500
O -4.31003900 4.77494800 2.09948600
H -5.25017300 -0.15424500 2.28579100
H -6.71536400 0.75533700 2.65707000
C -6.72891400 -0.22290100 0.77971600
C -3.81154500 6.00541000 1.59423100
O -7.07403500 0.23855300 -0.27767400
O -6.99134400 -1.48574300 1.13430600
H -4.27879200 6.79271300 2.19379900
H -4.07136200 6.12966900 0.53439100
H -2.71921900 6.03776800 1.70925000
C -7.77140000 -2.23805200 0.21529000
H -7.83714200 -3.25077000 0.62563200
H -7.30320700 -2.24420900 -0.77884700
H -8.77617900 -1.80264000 0.11995800
