36
charge=0, multiplicity=1, basis=def2-TZVPPD
C -2.557814256 1.517912292 -2.928581546
C -2.302190494 1.760081831 -4.316910712
C -2.171995916 0.637638558 -5.202378414
C -2.314977758 -0.698283328 -4.693741230
C -2.591288897 -0.908254561 -3.301164285
C -2.696955277 0.230145007 -2.438466144
C -1.974616271 0.853738109 -6.608670451
C -2.274517693 -1.816759800 -5.592955331
C -2.081179952 -1.600839717 -6.999426517
C -1.922367739 -0.265483416 -7.506903885
C -2.135271408 -2.709685410 -7.909542122
C -2.363599049 -4.022501262 -7.385138512
C -2.547809990 -4.231344705 -6.028252216
C -2.518493430 -3.142399486 -5.098905748
C -2.761868140 -3.324181607 -3.698915204
C -2.794879363 -2.245795440 -2.830790843
H -3.001051067 -2.401631440 -1.761733077
H -2.941692700 -4.342508418 -3.324165048
H -2.658003572 2.380940772 -2.254182493
H -2.908845676 0.063435638 -1.372130022
H -2.406517016 -4.868545754 -8.086560958
H -2.737404458 -5.244674161 -5.645011151
C -2.209745143 3.082110046 -4.858389875
C -2.022805662 3.290627462 -6.214622221
C -1.910789009 2.191091770 -7.125577663
H -2.309608910 3.938084030 -4.175003110
H -1.973131208 4.313211622 -6.616350515
C -1.775818423 2.379379681 -8.539040375
C -1.722678352 1.299873973 -9.405145434
C -1.807092512 -0.044817483 -8.920721884
H -1.730386532 3.406167414 -8.930412138
H -1.636629335 1.463564651 -10.489256936
C -1.996000927 -2.460076215 -9.313258415
H -2.037352082 -3.314206544 -10.004823677
C -1.833585450 -1.174346243 -9.801084882
H -1.746232488 -0.998998466 -10.883283879
