30
charge=0, multiplicity=1, basis=def2-TZVPPD
C -5.038354919 -5.350758767 -6.176989268
C -3.995554586 -4.633638555 -6.908403844
C -4.042268053 -4.455472400 -8.318894197
C -5.127133017 -4.989611684 -9.139157731
C -5.608441166 -4.654196431 -10.477637797
C -6.913478205 -5.000028787 -10.924644252
C -7.865149260 -5.715891727 -10.077619433
C -7.302768109 -6.186570047 -8.883436979
C -8.075385709 -6.566559689 -7.741258735
C -9.475435179 -6.519878154 -7.696023540
C -10.013195377 -6.552035251 -6.338264942
C -9.181907523 -6.442521796 -5.188854146
C -7.732262764 -6.284195651 -5.284693279
C -7.241776537 -6.449396704 -6.586415084
C -5.953089682 -6.002931182 -7.014044903
C -5.990812958 -5.839023321 -8.434017916
C -10.086521081 -6.234416064 -8.992593678
C -9.319254131 -5.852176591 -10.127595304
C -5.447675372 -5.331288995 -4.775201223
C -6.731523026 -5.774431362 -4.350102458
Cl -2.671956748 -3.881823444 -6.049129424
Cl -4.608987671 -3.722294474 -11.567938058
Cl -11.740539422 -6.601223727 -6.073400353
Cl -11.824657024 -6.266720642 -9.174674392
Cl -2.787655263 -3.477100218 -9.044184660
Cl -7.385787209 -4.454761632 -12.517209809
Cl -9.971667824 -6.406820203 -3.629490961
Cl -10.194579105 -5.446990684 -11.585479526
Cl -4.406439205 -4.621380501 -3.564088954
Cl -7.128133061 -5.569595748 -2.660040230
