27
charge=0, multiplicity=1, basis=def2-TZVPPD
C -1.64793 -0.681434 0.337594
C -1.38599 0.769536 -0.102813
C -0.445525 1.44561 0.909168
C 0.885616 0.675872 0.968053
C 0.623118 -0.778615 1.39726
C -0.317117 -1.45142 0.382847
C -0.733341 0.776873 -1.4963
C 1.53189 0.684453 -0.430051
C 0.331243 -1.43407 -1.01333
C 0.5955 0.0146728 -1.45269
O 1.1321 0.0759485 -2.77928
H -2.11407 -0.696195 1.33051
H -2.33869 -1.16496 -0.364056
H -2.33699 1.31464 -0.142419
H -0.261215 2.48252 0.598303
H -0.905057 1.47655 1.90417
H 1.55133 1.15408 1.69544
H 1.57155 -1.32796 1.45304
H 0.179248 -0.805482 2.39909
H -0.506142 -2.48788 0.686197
H -1.38729 0.308333 -2.24055
H -0.539636 1.80146 -1.83437
H 2.49062 0.146662 -0.406484
H 1.73429 1.71103 -0.758058
H 1.28385 -1.98172 -0.988144
H -0.311461 -1.91611 -1.75928
H 1.9222 -0.492013 -2.83369
