28
charge=0, multiplicity=1, basis=def2-TZVPPD
C -0.01870718538805 2.27074132230069 0.13220039061480
C -0.40079333115330 -0.05846436346268 0.22287254921540
C -1.16386747572401 2.04515214027294 0.93263688416932
C -1.40347263532484 0.58556812373985 0.99478146395259
C -1.74739447039382 3.17253836983919 1.51801748606400
C -0.12472644249271 4.60734624005240 0.49038802040948
C -1.32390951454311 -2.16690717555853 0.76938217769602
C -1.22442768253441 4.45064850013109 1.31992775344723
C 0.50957893306757 0.95939839327727 -0.35892016980724
C -0.34707399817258 -1.43619772667653 0.09841961194808
C 0.50679915830128 3.52069950122215 -0.11639009324398
C -2.31890164605992 -1.56539082331254 1.54064625295977
C -2.36267551459353 -0.17716079461471 1.65822841735582
N -2.93615608891718 3.09873207162071 2.38629136316447
N 0.40121216489283 5.96461029267690 0.26809573464336
N -1.30542349187502 -3.63589612159773 0.66370936074004
O -3.85178312940634 2.34517963326622 2.04132399510904
O -2.94579652080317 3.81592429245056 3.38876378603473
O 1.39133972589121 6.07376681497502 -0.46127607543197
O -0.40683494260349 -4.15292560201021 -0.00501114043468
O -0.17748159554543 6.90336911316355 0.82447095832554
O -2.19284054665825 -4.26346613755986 1.25452176190937
O 1.48692710891119 0.80975230640626 -1.07233971008712
H -3.14420134140642 0.28242983975978 2.24679125868591
H -1.67362678888228 5.31020495581575 1.80117070369916
H -3.04717168060733 -2.19273301049351 2.03670191052215
H 1.37829848109805 3.65315456895307 -0.74550751809247
H 0.41364280109876 -1.93125896871264 -0.48673644629756
