16
charge=0, multiplicity=1, basis=def2-TZVPPD
C -1.04303935210043 -0.57415600287732 -0.23046921563345
C 0.56918429037922 -0.90378209231965 -1.97408965291622
C -0.40765418832533 0.13921971676693 -1.43205366158549
C 0.12504350484776 -1.36027307171256 0.41349879450105
C 1.19339402576262 -1.53054633437671 -0.70682107935527
O 0.38264641742122 1.26393406127492 -1.01106396361122
H -0.21221807727374 1.95555685152034 -0.65186497932776
H 0.54253246273631 -0.79832065308371 1.25179029414310
H 1.30773447014644 -0.45317821891924 -2.64407952903744
H -1.82278721386646 -1.25801279634743 -0.59042393059154
H -1.14679784139253 0.45610085831983 -2.18132033234172
H 1.46529711423433 -2.57879817936213 -0.86411521945571
H 0.00667867095282 -1.65427811317491 -2.54197501804260
H 2.10820094741089 -0.99555385470490 -0.43890362874756
H -0.21690575390506 -2.32326538051911 0.80414902358934
H -1.51474663749968 0.12828837930126 0.46312732093894
