73
charge=0, multiplicity=1, basis=def2-TZVPPD
C -2.69576196067492 -1.72748222109696 1.11793468503065
C -3.49807457900298 -2.51747524364823 0.04300357297641
C -4.50131217201095 -2.83940192638791 2.18347079018066
C -4.87920568483781 -2.73694351384573 0.70429891988795
C -2.91731509383007 -1.34072208216470 -3.38282190736408
C -7.63754111479121 -0.47499806820786 -0.23815277011261
C -1.24574117542294 -2.39242285867023 -1.82560541304992
C 2.31562993901146 -3.17518937108717 0.67531556497260
C -6.89670126513972 -2.52904531176564 -1.48272687519368
C -3.17688697531864 -3.75979244602709 -2.71721941303661
C -7.88107768640892 -2.74032098262943 0.84333125182113
C 2.70770839622392 -3.66504277751945 -0.72328535595734
C -2.71082684103494 -2.36914668896661 -2.27309471555071
C -7.04314024653819 -1.87591299588198 -0.10464471593422
C -4.18403952928237 -4.26015832870005 2.64308850361136
C 3.28341407022861 -5.08389189339966 -0.69782847977805
C 3.71404570559803 -5.56966187319450 -2.08471875190201
C -1.47766508492038 0.43526710642091 0.74892554267939
C -1.87490123396256 1.75515609181652 0.54967174984783
C -3.67912187062342 0.63009037734497 0.76171157271239
N -2.63923749898940 -0.29089295729774 0.88965318482502
C 0.71754479715035 0.86258625808480 0.59936133804406
N 0.43914604889402 2.18517427956298 0.39715262072718
N 2.05183841061709 0.52669819192649 0.59014834587482
N 1.79120156263818 -1.81350223731593 0.67914283173938
C -0.86545384640335 2.74084706230316 0.34322488506070
C 2.61805801319891 -0.75492904378554 0.62363914230946
N -0.21757531510990 -0.05765567018119 0.78263519939983
N -3.25730480460965 1.85619192043866 0.56242711511984
O -5.72840648224390 -1.62120257493737 0.48548067721728
O -3.58385008942099 -1.87929373180578 -1.20430612004470
O -3.30895823346464 -2.02760297681099 2.36589835800316
O 3.85647595425150 -0.86526414692110 0.59540328989229
O -1.00494898402461 3.95004689855050 0.11993556592865
O -5.38993172908741 -5.02550826548268 2.50518388271038
H 0.79102997423297 -1.60197280534177 0.72556724414351
H 2.75428855130207 1.29693518502558 0.55003297097435
H 1.22217703773066 2.85921197187044 0.21720265425432
H -1.64935358493736 -2.04136067304198 1.15540383573416
H -3.02111504786085 -3.50202272197991 -0.04383439351525
H -5.33711650648363 -3.66385292044483 0.35201523979637
H -5.25668500325351 -5.88543108060457 2.93101803400224
H -5.29110859782002 -2.41281470565361 2.80666517208310
H -4.70614797583096 0.30251784738239 0.81681027594378
H 1.82858177505709 -3.62740827851720 -1.38016701461764
H 3.18889473615622 -3.20886389097001 1.33492673873526
H 3.44910451272571 -2.97078364069888 -1.13552855951985
H 2.53883333563984 -5.77579289115504 -0.27983391581945
H 4.14437958247628 -5.10868889565177 -0.01735828921947
H 1.54160358463837 -3.81921918700314 1.10623985121478
H -0.93290214182170 -1.40944600687502 -1.46437704686427
H -3.84405619032558 -4.22723618503751 3.68601153144073
H -3.37456345651803 -4.68520728261349 2.02864368270261
H -6.23767373838542 -1.92703909805914 -2.11284367237136
H -2.61242568837549 -0.34886798314831 -3.03750222793883
H -1.07811256741614 -3.12950502677059 -1.03155969953195
H -3.97275733789699 -1.29990546702533 -3.66717680495109
H -0.60509569013155 -2.67102251117125 -2.66845107844224
H -4.22305343663605 -3.72545806438815 -3.03348379061297
H -7.01565687670593 0.13987021512173 -0.89539899059514
H -7.42322428631139 -3.72088523614519 1.00755894267285
H -7.69382200149848 0.00682434802328 0.74267786115658
H -7.87907395425531 -2.60699311117453 -1.96027036185447
H -7.98890679624996 -2.24334286335363 1.81246394512092
H -2.32610268866564 -1.60694820408929 -4.26457373857166
H -8.64653113078310 -0.52973118354240 -0.65853019894155
H -6.48399781657764 -3.54083085030844 -1.41111571887599
H -2.56827867053188 -4.11338010766722 -3.55603251524662
H -8.87940750898770 -2.89951585265616 0.42182679512777
H -3.08039937137423 -4.49302688725300 -1.90834524971535
H 2.86240096462961 -5.59302447605781 -2.77452666963602
H 4.47081629547016 -4.90294534600738 -2.51272309333084
H 4.14056946158030 -6.57705837573558 -2.04018091710885
