14
charge=0, multiplicity=1, basis=def2-TZVPPD
c 3.97249510502596 0.26377453863034 1.25069176194282
c 4.56192456823186 0.17616455603539 -1.06151426891841
c 3.15294253242445 -0.02988489031650 -1.59494728769290
c 2.47533303576531 0.07527056595605 1.05940021548851
s 2.10051285505804 -0.93121823679907 -0.41087275047649
o 4.57650381684481 0.94795469694768 0.14571720379253
h 2.04409283813692 -0.46708024189324 1.90391655154402
h 3.17557419127367 -0.64820831876500 -2.49590832096544
h 2.69051098056123 0.93233081547871 -1.83368500095983
h 1.96907058911558 1.04156562848678 0.97671822477150
h 4.46657602299574 -0.70840817177034 1.39639805939252
h 5.04907795060772 -0.79123091780441 -0.87595804984907
h 5.16179659701881 0.74176187108895 -1.77931912190915
h 4.16515436501534 0.89496495752081 2.12241170665632
