72
charge=0, multiplicity=1, basis=def2-TZVPPD
c -2.72140625132067 -5.78154599760173 1.90893201551885
c -4.60987798967148 4.57372222498247 0.09758154199154
c -3.31491128235327 -5.56683062512674 -0.43365383399066
c 2.66224420867009 5.76365022363349 -2.03889792857753
c 4.15696008271937 -4.79695347147247 -2.39377895065042
c -4.08575523324602 4.81501415070052 2.45452913134680
c 4.60069631809431 -4.59140416426087 -0.01735365418439
c 3.29191845812166 5.58653162617577 0.29742618446246
c 3.52445436212145 -5.41484547761653 0.25574463075998
c -3.55449431017563 5.40601799760108 -0.22346570378782
c 2.06615255361141 6.10806828140223 0.66806509578277
c 3.07514895624306 -5.61678444261691 -2.11956978568421
c -1.48634048914372 -6.29218631090980 1.54733317607235
c -2.08349987617284 -6.08151499799203 -0.79400396815249
c -3.02537708504350 5.64588070510440 2.13177536473577
c 1.43396708206531 6.28308236331906 -1.66720016540956
c 6.42484694274849 0.15253994387995 -0.50977235086352
c 6.04612511835915 1.54321038652812 -2.90306051521454
c 6.24934153302109 0.17245247431709 -2.92989480950977
c 6.22284337420671 1.51880323018538 -0.48299841505010
c -6.20684627815842 -0.22254927210869 2.97320745386253
c -6.03516714510725 -1.59531081222543 2.88682656841989
c -6.41726785541686 -0.10048351938530 0.55858541713324
c -6.24800729664337 -1.46841407850704 0.47307300674500
c -5.97039886290910 -2.23214101185126 1.62901632522490
c -6.32050928628179 0.55950895883737 1.80455567108680
c 6.35946047097039 -0.56005103400746 -1.72822448180070
c 5.94955186073307 2.22904313564007 -1.67387084526479
c -2.68981845604091 5.89000545983752 0.78255440671192
c -1.11307764839151 -6.37731694269525 0.18893858978441
c 2.69051141959958 -5.87710328631374 -0.78663874955855
c 1.08194034026407 6.38895283484249 -0.30390519124370
c 3.58326865720700 5.33070172607966 -1.06047128904965
c -4.84687829932474 4.19831296261689 1.43866498167918
c 4.88925456869163 -4.20152167552401 -1.34373431836447
c -3.62661641301978 -5.33251195591361 0.92394328753276
c -1.42564350431217 6.40998154977382 0.42745716335998
c 1.41181927692773 -6.39431296850009 -0.48256255771146
c 0.24067154940353 -6.54687782170679 -0.17576825188500
c -0.26499584699814 6.56225903858811 0.08355296682578
c 4.66367734871472 4.48272754504312 -1.39140060278795
c -5.67513635139995 3.08534140437606 1.70564639717802
c 5.72580992574930 -3.08701858688820 -1.57583016177104
c -4.70558636482723 -4.48469781129497 1.25785938328281
c 6.18162469181030 -1.96137566919918 -1.69775262441854
c 5.39676298742574 3.52636396398090 -1.58433252503930
c -6.13269492200215 1.95985692181470 1.82104270937921
c -5.43145736655298 -3.52950268103085 1.48132254189112
h -4.28915119720633 4.56813024535371 3.49175114152482
h -2.97100724139717 -5.64693282667052 2.95656135601336
h 4.01784769209519 5.30479015120715 1.05235037291580
h -4.02976410016626 -5.27068036540000 -1.19412241634127
h -5.22779104489745 4.14624426829605 -0.68432011282641
h 2.89637205234768 5.61343492676679 -3.08806393513183
h 5.19316361780006 -4.17748263284094 0.79170878880085
h 4.39779277787056 -4.53662449191535 -3.41961129133882
h -0.76379868359817 -6.56547264585525 2.30935904704783
h -2.39226199942480 6.05181588453762 2.91434739235676
h -1.82154103345313 -6.19060377608202 -1.84128267159387
h -3.33552196528030 5.63643450189259 -1.26089095611546
h 3.26372872614427 -5.65171328764640 1.28167056755079
h 1.82178237336735 6.23709094064227 1.71739813394851
h 0.69858887939986 6.54153797987851 -2.42241423978472
h 2.46705420735558 -6.00652851182493 -2.92969261883528
h 6.23956533648831 -0.36118021042742 -3.87501839726884
h 6.56481685445880 -0.39868655964294 0.41392724087572
h -5.86469708725944 -2.18059088262118 3.78491742017479
h -6.17428046337908 0.27084434097484 3.93944841384442
h -6.56177143466903 0.49020291538248 -0.33926309580138
h -6.25656072974588 -1.96220138514744 -0.49277853649025
h 6.20485897290429 2.05112585683942 0.46171788353121
h 5.88034220955297 2.08749808298250 -3.82743705478366
