60
charge=0, multiplicity=1, basis=def2-TZVPPD
C 3.74043615557296 3.68657927597444 -2.00178308022667
C 3.60749672400357 4.01447045052353 0.39925077160749
C 5.38333579559810 -0.75833498638460 1.39154698389550
C 5.13743464747444 -1.25129839480046 -0.97170837293811
C -2.65062964408005 4.50192389807403 -2.16715355678177
C 0.69225600077253 -5.31774875215505 -0.01562897591327
C -2.51321185986264 4.82927096150252 0.23420082933071
C 0.69999193604885 -5.27711367443281 2.41193473297936
C 4.97920845273610 -2.04532701430700 1.70283839535197
C 2.50763570578244 4.83280754964001 0.22713477260591
C 2.64178858779238 4.51094774537455 -2.17505524676493
C 4.72481222123506 -2.53261673019514 -0.66121769391543
C -3.61123028356583 4.00915695304771 0.40973875064756
C -3.74695687827372 3.67529132334070 -1.99031816173770
C -0.68720651565310 -5.31882819481715 -0.01309827850986
C -0.68638270368445 -5.27884346741984 2.41442521291477
C -5.38270002624714 -0.76979531690715 1.40675963169979
C -5.13793761562120 -1.26049778817375 -0.95698196913892
C -4.72344205445954 -2.54162386872524 -0.64795541603484
C -4.97670197844461 -2.05654681103274 1.71662656689852
C 4.54641409497851 -2.92370927364240 0.68556495892926
C 1.94528469976589 5.01964395950887 -1.05604004926684
C -1.95337377565783 5.01445069374117 -1.05034254164794
C 1.41228592592709 -5.19683205218074 1.19616158707107
C 4.18547322865465 3.34741112710202 -0.70483790896665
C 5.37769539837129 -0.30816791014156 0.05301071701456
C -4.54342486713480 -2.93363064729700 0.69828879899812
C -5.37843678625191 -0.31839880219249 0.06854638305500
C -4.18960056750048 3.33847367168536 -0.69192335554782
C -1.40303032972573 -5.19932257339198 1.20121886646673
C 2.75022090779407 -4.75094281857805 1.14155813920349
C -0.61571486924582 5.45119687758489 -1.16586742697762
C 0.60624847419408 5.45320117489976 -1.16773547068597
C 3.72594425030449 -4.03502614184263 0.97448450685461
C 5.36158186658351 1.07112963634704 -0.24380284729522
C 4.99142963160609 2.20926332858608 -0.48844142939554
C -4.99344339751389 2.19940084124228 -0.47229030803379
C -2.74214318174516 -4.75648825865867 1.15082510374397
C -5.36305521079423 1.06109889763833 -0.22756111015712
C -3.72041606460110 -4.04361448317818 0.98560335456060
H -1.22892548115041 -5.24090124446118 3.35380488527193
H -1.23763911577410 -5.32549088039227 -0.94744836860654
H -3.98443799146118 3.80162374830271 1.40663854960389
H -4.22004324552207 3.20641259332136 -2.84734299766307
H 3.98224712528715 3.80528584139923 1.39521071267878
H 4.21349196654163 3.22099239439532 -2.86061740851875
H 5.18897662949218 -0.92894168678418 -2.00656343430875
H 5.62482061699293 -0.05517416229339 2.18178803550960
H 1.23919408340262 -5.32434483707397 -0.95197120653677
H 1.24571798643332 -5.23574182539705 3.34932496943442
H -2.25699939004381 4.67977743536296 -3.16294310014539
H -2.01700380984716 5.27112348952368 1.09168319398902
H 2.01183800570570 5.27177743507857 1.08631979827731
H 2.24531902655366 4.68872071225811 -3.16973311263666
H 4.45311176741753 -3.22818147155076 -1.44780744923564
H 4.89740153644249 -2.35531143213824 2.73981621035607
H -4.89254620220819 -2.36692042706043 2.75330794212103
H -5.19125453050039 -0.93733061350888 -1.99148813603699
H -5.62367374024564 -0.06738302985557 2.19784503529597
H -4.45115578294873 -3.23569884658476 -1.43568682938180
