17
charge=0, multiplicity=1, basis=def2-TZVP
C 2.210701 0.415082 -0.188439
C 1.172022 -0.462819 0.509221
C -0.018730 -0.764875 -0.369279
C -1.355626 -1.067865 0.203994
N -1.141816 0.156029 -0.555675
C -1.186381 1.411274 0.173389
H 2.556215 -0.051159 -1.113896
H 1.794270 1.390033 -0.446962
H 3.081687 0.579653 0.448255
H 1.629321 -1.416104 0.792282
H 0.851966 0.004195 1.442254
H 0.250400 -1.268447 -1.295010
H -2.006950 -1.807532 -0.247678
H -1.452458 -0.977054 1.283650
H -0.804527 1.358522 1.201356
H -0.614588 2.166521 -0.368451
H -2.224542 1.744386 0.220608
