16
charge=0, multiplicity=1, basis=def2-TZVP
C -0.586298 1.634154 -0.017845
C -0.618914 0.127800 -0.121527
C 0.586873 -0.486639 -0.818925
C 1.833590 -0.240125 -0.097117
N 2.801516 -0.031840 0.487434
C -1.240853 -0.661983 0.993947
C -1.938865 -0.557199 -0.339493
H -1.479002 2.005908 0.485906
H 0.284653 1.969421 0.549285
H -0.543510 2.094579 -1.008486
H 0.459678 -1.566516 -0.920220
H 0.688927 -0.080004 -1.829439
H -0.795277 -1.610990 1.261522
H -1.651111 -0.112934 1.830457
H -2.821151 0.064987 -0.406984
H -1.967018 -1.437622 -0.968320
