15
charge=0, multiplicity=1, basis=def2-TZVP
C -1.956849 -0.739088 -0.349904
C -0.656868 -0.061203 -0.101509
O -0.474074 0.636653 1.148584
C -0.221739 1.344128 -0.081823
C 1.201533 0.993038 -0.495707
C 0.758944 -0.515504 -0.499121
O 1.396972 -1.412798 0.369677
H -2.068285 -0.975928 -1.409693
H -2.009620 -1.674256 0.212420
H -2.786766 -0.103233 -0.041288
H -0.788575 2.249825 -0.248636
H 1.480970 1.351828 -1.486139
H 1.973345 1.258338 0.226782
H 0.798824 -0.952517 -1.496479
H 1.266803 -1.073119 1.265323
