15
charge=0, multiplicity=1, basis=def2-TZVP
C -2.083095 0.306288 -0.398897
C -0.660268 0.096620 0.020157
C 0.275307 1.287640 0.212533
C 1.646471 0.706416 -0.038664
C 1.590798 -0.582080 -0.374980
C 0.180365 -1.055828 -0.343173
O -0.424624 -0.951709 0.972330
H -2.585303 -0.650448 -0.538954
H -2.627420 0.869183 0.363310
H -2.131221 0.869564 -1.333110
H 0.041687 2.092957 -0.491212
H 0.180734 1.703057 1.219796
H 2.554435 1.282926 0.078523
H 2.435529 -1.217522 -0.599698
H -0.168923 -1.890378 -0.939152
