17
charge=0, multiplicity=1, basis=def2-TZVP
C 0.691909 2.051141 -0.000000
C 0.237780 0.617577 -0.000000
C 0.691909 -0.433272 -1.063994
C 0.135541 -1.399083 -0.000000
C 0.691909 -0.433272 1.063994
O -1.276718 -1.109105 0.000000
C -1.267918 0.337654 0.000000
H 1.781252 2.118311 -0.000000
H 0.323126 2.579315 -0.883029
H 0.323126 2.579315 0.883029
H 0.203064 -0.427803 -2.038482
H 1.775105 -0.476047 -1.166015
H 0.292198 -2.473006 -0.000000
H 1.775105 -0.476047 1.166015
H 0.203064 -0.427803 2.038482
H -1.774533 0.716072 0.891912
H -1.774533 0.716072 -0.891912
