15
charge=0, multiplicity=1, basis=def2-TZVP
C 1.604330 -0.237884 -0.268977
C 0.737622 0.452043 0.811313
C -0.106796 1.412501 -0.043905
C -0.824221 0.275091 -0.783199
O -1.550307 -0.360509 0.318549
C -0.250857 -0.807721 0.718720
C 0.277024 -0.853874 -0.725172
H 2.164771 0.403474 -0.950819
H 2.262411 -1.004512 0.142125
H 1.152909 0.807306 1.749272
H -0.820218 2.016005 0.514427
H 0.506277 2.052923 -0.679054
H -1.438233 0.478312 -1.655027
H -0.220063 -1.599312 1.461261
H 0.171989 -1.711057 -1.383251
