15
charge=0, multiplicity=1, basis=def2-TZVP
C -1.510372 -0.768376 0.422771
C -1.766663 0.718921 -0.027796
C -0.290309 0.738714 -0.350052
C 0.863866 1.242430 0.059963
C 1.865558 0.103477 0.124576
O 1.074444 -1.106130 0.054681
C -0.201135 -0.745486 -0.442507
H -1.269338 -0.827009 1.482389
H -2.268027 -1.504930 0.158480
H -2.408411 0.761880 -0.908842
H -2.124863 1.428138 0.715427
H 1.067736 2.230874 0.446697
H 2.597671 0.109023 -0.693386
H 2.415657 0.104602 1.069308
H -0.371647 -1.191618 -1.429249
