17
charge=0, multiplicity=1, basis=def2-TZVP
C 1.621213 1.656135 -0.102501
O 0.777049 0.718550 0.528350
C 0.480900 -0.429768 -0.252733
C 1.593709 -1.467090 -0.164890
C -0.845333 -0.988276 0.274036
C -1.978511 -0.108714 0.027594
C -2.907461 0.616067 -0.197733
H 1.186187 2.008278 -1.045804
H 1.723436 2.500386 0.577419
H 2.618339 1.248294 -0.306444
H 0.340320 -0.126216 -1.298525
H 1.369212 -2.331141 -0.793190
H 2.544102 -1.050668 -0.499383
H 1.712903 -1.805598 0.866049
H -1.031478 -1.960531 -0.190352
H -0.736837 -1.161845 1.348718
H -3.729676 1.260517 -0.387924
