15
charge=0, multiplicity=1, basis=def2-TZVP
C 2.555760 -0.624284 -0.272608
C 1.168148 -0.709418 0.361728
C 0.523256 0.641500 0.475199
O 0.010881 1.224772 -0.725754
C -0.925189 0.866826 0.306595
C -1.842655 -0.205624 0.033409
C -2.633132 -1.085234 -0.169681
H 3.011625 -1.612435 -0.346694
H 2.493080 -0.203388 -1.277106
H 3.223638 0.008481 0.316557
H 0.521591 -1.364099 -0.224189
H 1.236469 -1.140470 1.365615
H 1.046123 1.356286 1.109811
H -1.367977 1.720398 0.812796
H -3.328719 -1.865553 -0.358609
