17
charge=0, multiplicity=1, basis=def2-TZVP
C -2.571596 -0.012646 0.177503
N -1.258665 -0.020276 -0.418428
C -0.299151 -1.049193 0.031493
C 0.781377 0.028020 0.050709
C 2.086329 0.043637 0.722375
N 1.990743 0.058345 -0.753354
C -0.323262 1.070358 -0.061427
H -3.136198 0.848625 -0.184279
H -3.115392 -0.914426 -0.110653
H -2.542261 0.033989 1.281125
H -0.520354 -1.443927 1.034339
H -0.166539 -1.885043 -0.661475
H 2.463271 0.959989 1.161552
H 2.414737 -0.865586 1.214946
H 2.191659 -0.861550 -1.134152
H -0.198388 1.838041 -0.826726
H -0.557261 1.542351 0.903880
