15
charge=0, multiplicity=1, basis=def2-TZVP
O -1.780137 -1.075832 -0.104164
C -0.536393 -0.632712 0.366203
C 0.683077 -1.307935 -0.254236
C 1.825858 -0.330986 0.090059
C 1.203547 1.069073 -0.068831
C -0.290289 0.843160 0.077945
O -1.177786 1.643571 -0.082572
H -2.343236 -0.290154 -0.180750
H -0.473721 -0.743255 1.463800
H 0.850857 -2.315532 0.122114
H 0.535746 -1.369332 -1.335737
H 2.146262 -0.486246 1.122442
H 2.699245 -0.475916 -0.543315
H 1.561745 1.811738 0.644963
H 1.371685 1.483181 -1.066471
