17
charge=0, multiplicity=1, basis=def2-TZVP
C 0.855872 -0.281220 -1.282271
C 0.948975 0.830719 -0.214325
C -0.406858 1.511358 0.075368
C -0.857706 0.288619 0.904258
C -1.269045 -0.918750 0.033281
C 0.215697 -1.235843 -0.250484
C 0.621601 -0.236139 0.889466
H 0.291717 -0.065124 -2.193046
H 1.851640 -0.629412 -1.562157
H 1.836471 1.460198 -0.220041
H -0.269934 2.382290 0.718682
H -1.023100 1.801051 -0.779517
H -1.436123 0.478161 1.806149
H -1.718420 -1.700559 0.648076
H -1.920862 -0.728905 -0.823207
H 0.508251 -2.283275 -0.285575
H 1.229146 -0.466888 1.758875
