16
charge=0, multiplicity=1, basis=def2-TZVP
O -2.616473 -0.030341 -0.102099
C -1.310744 0.019495 0.420444
C -0.291014 -1.083780 0.028127
C 0.762123 0.020405 -0.049605
C 2.048159 0.060409 0.667535
N 1.999439 0.041589 -0.810484
C -0.321033 1.093857 -0.098931
H -2.563744 -0.031989 -1.064604
H -1.429509 0.076950 1.501646
H -0.133731 -1.909246 0.722091
H -0.522562 -1.485106 -0.963132
H 2.401877 0.990925 1.095900
H 2.371627 -0.834816 1.187401
H 2.218475 -0.887263 -1.158346
H -0.546766 1.373599 -1.131576
H -0.184906 1.996239 0.495374
