16
charge=0, multiplicity=1, basis=def2-TZVP
C 0.694213 -1.187094 0.319267
C -0.694282 -1.187047 -0.319330
C -1.491094 0.046908 0.110471
C -0.662459 1.300199 0.057679
C 0.662512 1.300159 -0.057690
C 1.491107 0.046848 -0.110397
H 0.585545 -1.182330 1.408621
H 1.238854 -2.097503 0.059713
H -0.585653 -1.182169 -1.408688
H -1.238963 -2.097449 -0.059833
H -2.375133 0.165429 -0.523298
H -1.876512 -0.090937 1.128598
H -1.192468 2.245432 0.114825
H 1.192583 2.245347 -0.115020
H 2.375037 0.165302 0.523542
H 1.876728 -0.090954 -1.128453
