16
charge=0, multiplicity=1, basis=def2-TZVP
C 2.353846 -0.562158 -0.250820
C 1.077924 -0.070283 0.409868
C 0.584168 1.296646 -0.104896
C -0.939639 1.228530 0.028577
C -1.256554 -0.263403 -0.024816
O -2.346686 -0.777697 -0.156577
N -0.069665 -0.922077 0.123252
H 2.219058 -0.636978 -1.331381
H 3.173764 0.129983 -0.049518
H 2.646810 -1.543341 0.128555
H 1.239318 -0.015605 1.495035
H 1.037929 2.121902 0.441900
H 0.863083 1.397906 -1.156018
H -1.287455 1.603583 0.994739
H -1.486852 1.762259 -0.745683
H -0.062985 -1.919582 0.264738
