17
charge=0, multiplicity=1, basis=def2-TZVP
C 2.238709 0.720190 -0.341854
C 1.235871 -0.393359 -0.395896
O 0.847802 -0.979370 0.864011
C -0.125849 -0.266301 0.118402
C -0.859283 0.984178 0.594133
C -2.050449 0.544809 -0.303791
C -1.415266 -0.869022 -0.427362
H 1.996557 1.423069 0.454966
H 3.240238 0.326013 -0.157615
H 2.258797 1.260563 -1.291668
H 1.400653 -1.133734 -1.177377
H -1.093942 0.921904 1.657621
H -0.398609 1.949870 0.387673
H -3.041580 0.596469 0.142015
H -2.063980 1.074731 -1.255355
H -1.377860 -1.327934 -1.415059
H -1.845085 -1.578966 0.280923
