15
charge=0, multiplicity=1, basis=def2-TZVP
C 1.867177 -0.012588 0.637303
O 1.722148 0.000413 -0.784928
C 0.533452 0.010617 0.029560
C -0.402363 -1.195587 -0.049730
C -1.829956 -0.610508 0.074898
C -1.618445 0.880127 0.011044
C -0.331531 1.213469 -0.006541
H 2.240624 -0.942553 1.058069
H 2.283146 0.893188 1.070748
H -0.257732 -1.678257 -1.016633
H -0.186289 -1.933188 0.722141
H -2.497993 -0.961230 -0.715535
H -2.300320 -0.892662 1.021616
H -2.441530 1.582580 0.000417
H 0.072898 2.215632 -0.040603
