17
charge=0, multiplicity=1, basis=def2-TZVP
C 1.739328 1.186119 -0.440973
C 1.437043 -0.289031 -0.492445
C 1.182583 -1.081288 0.738085
C 0.033640 -0.849048 -0.219125
C -1.069793 0.064253 0.174633
C -2.353032 -0.077140 -0.612015
O -0.957767 0.884467 1.063282
H 1.191991 1.675874 0.362083
H 2.807575 1.339183 -0.271402
H 1.477386 1.675187 -1.381951
H 1.940683 -0.818989 -1.293307
H 1.569574 -2.088249 0.812834
H 1.114041 -0.534167 1.669293
H -0.260760 -1.674783 -0.853794
H -2.762028 -1.082577 -0.481055
H -3.079231 0.660159 -0.278264
H -2.155699 0.049443 -1.679658
