15
charge=0, multiplicity=1, basis=def2-TZVP
O 2.503451 -0.000083 -0.567232
C 1.100967 -0.000050 -0.465718
C 0.389995 -1.084143 0.372618
C -0.647926 0.000100 0.810060
C 0.390037 1.084230 0.372391
C -1.868031 0.000017 0.027342
C -2.868496 -0.000045 -0.636749
H 2.878813 0.000013 0.320706
H 0.731753 -0.000128 -1.490622
H 0.013151 -1.968544 -0.136087
H 1.003635 -1.385787 1.223965
H -0.894374 0.000208 1.871708
H 1.003683 1.386000 1.223688
H 0.013214 1.968554 -0.136461
H -3.756763 -0.000307 -1.218706
