15
charge=0, multiplicity=1, basis=def2-TZVP
O 0.736627 1.521143 0.000176
C 0.076984 0.293669 -0.000052
C -1.027019 0.078928 1.082203
C -1.938011 -0.545592 0.000089
C -1.027403 0.079441 -1.082063
C 1.064723 -0.837684 -0.000633
O 2.258103 -0.657498 0.000115
H 1.688964 1.330919 0.000042
H -0.772481 -0.516918 1.958871
H -1.378537 1.057850 1.404327
H -1.895842 -1.634663 -0.000148
H -2.982850 -0.242250 0.000348
H -1.379031 1.058481 -1.403696
H -0.773126 -0.516063 -1.959048
H 0.639421 -1.859090 -0.000281
