16
charge=0, multiplicity=1, basis=def2-TZVP
C 1.360903 1.312399 0.209240
C 0.636608 0.000442 -0.018333
O 1.523126 -0.976300 -0.554319
C -0.261015 -0.579063 1.110065
N -1.447360 -0.693991 0.191563
C -1.743611 0.679458 -0.236432
C -0.618379 -0.013102 -0.881509
H 0.685995 2.088030 0.570692
H 2.149940 1.187733 0.957153
H 1.820058 1.653049 -0.720123
H 2.280743 -1.059384 0.036096
H 0.066931 -1.567074 1.425685
H -0.445242 0.053649 1.981932
H -2.665191 0.758216 -0.798783
H -1.566030 1.497402 0.454617
H -0.627731 -0.344082 -1.911841
