19
charge=0, multiplicity=1, basis=def2-TZVP
C -1.994450 1.199471 -0.267314
C -1.585334 -0.052609 0.467649
C -1.284244 -1.327020 -0.277696
C -0.174489 -0.585289 0.422416
C 0.908262 0.088837 -0.351605
C 1.959804 0.886906 0.370285
C 2.317781 -0.429756 -0.267661
H -1.516300 1.269369 -1.244842
H -3.074615 1.216535 -0.430150
H -1.725948 2.095954 0.296717
H -2.087222 -0.182882 1.420318
H -1.624115 -2.269793 0.129845
H -1.298762 -1.279622 -1.360069
H 0.177439 -1.032795 1.346488
H 0.610721 0.470857 -1.320162
H 2.325779 1.795834 -0.087970
H 1.901141 0.924829 1.450446
H 2.500747 -1.274209 0.384219
H 2.927164 -0.417319 -1.161280
