17
charge=0, multiplicity=1, basis=def2-TZVP
C -1.685244 0.012924 0.669711
C -0.926159 0.841681 -0.353253
C 0.396703 1.488139 0.039020
C 1.572419 0.522290 -0.141012
C 1.233659 -0.852109 0.410934
O 0.154278 -1.453059 -0.296873
C -0.984251 -0.656052 -0.471963
H -1.243936 -0.062163 1.655293
H -2.766865 0.033361 0.665304
H -1.528191 1.400773 -1.058161
H 0.558946 2.381283 -0.566125
H 0.355946 1.823885 1.079201
H 1.810265 0.415130 -1.202853
H 2.464869 0.907753 0.357510
H 2.067865 -1.543578 0.296509
H 0.998836 -0.788238 1.482550
H -1.594724 -1.084971 -1.254875
