15
charge=0, multiplicity=1, basis=def2-TZVP
O 1.883855 -0.794680 -0.386819
C 1.155871 0.116858 0.400643
C 0.509426 1.352670 -0.295104
C -0.865890 0.903730 0.215719
O -1.530070 0.023001 -0.724571
C -1.085472 -1.152473 0.001870
C -0.238620 -0.311732 0.951741
H 1.400691 -0.955946 -1.205062
H 1.827044 0.401192 1.209562
H 0.856606 2.307583 0.100896
H 0.584336 1.369768 -1.382992
H -1.545229 1.631884 0.657021
H -1.927577 -1.655986 0.483648
H -0.564074 -1.869412 -0.638402
H -0.313974 -0.509969 2.017241
