15
charge=0, multiplicity=1, basis=def2-TZVP
O 2.100999 -0.242817 -0.083829
C 0.900538 0.066671 0.591802
C 0.161524 1.326429 0.036272
C -1.096570 0.608884 -0.466755
C -1.508023 -0.263909 0.733415
C -0.209530 -0.956322 0.296672
O -0.531575 -0.599693 -1.093699
H 1.863126 -0.406637 -1.006692
H 1.150352 0.137359 1.649590
H -0.051746 2.079551 0.795045
H 0.731601 1.786801 -0.769342
H -1.804685 1.139143 -1.097402
H -1.555686 0.193983 1.721892
H -2.386110 -0.871351 0.528541
H 0.010130 -2.009285 0.450158
