16
charge=0, multiplicity=1, basis=def2-TZVP
N -2.974480 0.004805 -0.205192
C -1.862528 -0.009168 0.090241
C -0.449584 -0.025353 0.438439
C 0.337828 -1.195943 -0.179431
C 1.792651 -0.772734 0.043920
C 1.801883 0.767062 -0.123653
C 0.323836 1.221432 -0.049405
H -0.378443 -0.092086 1.528520
H 0.086122 -2.155131 0.271593
H 0.108162 -1.256459 -1.245674
H 2.098722 -1.042177 1.057218
H 2.477679 -1.272971 -0.639954
H 2.403487 1.240301 0.652135
H 2.237494 1.056287 -1.079871
H -0.044444 1.501685 -1.036652
H 0.168061 2.075143 0.608369
