16
charge=0, multiplicity=1, basis=def2-TZVP
C 1.892646 0.864467 -0.000001
C 1.200869 -0.491804 -0.000021
C -0.009820 -0.955206 0.766015
C -1.226661 0.003832 0.735037
N -0.872321 1.241312 -0.000045
C -1.226743 0.003789 -0.734970
C -0.009853 -0.955207 -0.766021
H 1.625602 1.453849 0.874186
H 2.975622 0.718518 0.000762
H 1.626803 1.453256 -0.874968
H 1.920115 -1.306895 -0.000063
H 0.018584 -1.813428 1.422304
H -2.052566 -0.019609 1.430066
H -1.696353 1.839098 -0.000023
H -2.052713 -0.019721 -1.429920
H 0.018525 -1.813468 -1.422261
