15
charge=0, multiplicity=1, basis=def2-TZVP
C -2.607350 -0.144860 -0.097823
C -1.158162 -0.037436 -0.497628
C -0.334688 1.144498 0.041935
C 0.584503 0.061389 0.653416
O -0.313971 -0.988937 0.212397
C 1.919827 -0.044898 0.088082
C 3.022145 -0.114695 -0.381148
H -2.723430 0.003135 0.977351
H -3.200555 0.608738 -0.622071
H -3.001746 -1.129392 -0.355300
H -1.045681 -0.180106 -1.577033
H 0.131619 1.789094 -0.697819
H -0.853512 1.746208 0.786071
H 0.650000 0.076686 1.744498
H 3.997427 -0.186858 -0.795881
