15
charge=0, multiplicity=1, basis=def2-TZVP
C -0.400935 -1.425469 0.336156
O 0.749368 -1.183118 -0.469011
C 1.607142 -0.168469 -0.004977
C 1.024430 1.203328 0.131742
C -0.249725 1.600930 0.027886
C -1.450663 0.794806 -0.147335
C -1.554804 -0.528824 0.002603
H -0.672627 -2.467156 0.162358
H -0.138215 -1.326008 1.399006
H 2.072674 -0.457151 0.951873
H 2.417824 -0.129308 -0.739203
H 1.774561 1.968100 0.314313
H -0.429870 2.668013 0.108568
H -2.350405 1.350809 -0.387788
H -2.521549 -1.000165 -0.133491
