20
charge=0, multiplicity=1, basis=def2-TZVP
C 2.177297 0.037081 -0.000113
C 0.869857 0.826065 -0.001660
C -0.434248 -0.000331 -0.000002
C -0.518921 -0.878819 1.254546
C -1.615614 0.978443 -0.002120
C -0.518851 -0.884152 -1.250819
H 3.031049 0.717190 -0.001106
H 2.268058 -0.597752 0.882619
H 2.268381 -0.600691 -0.880679
H 0.852754 1.486261 0.871681
H 0.852737 1.482882 -0.877542
H -0.437411 -0.275201 2.161813
H -1.474261 -1.407174 1.289485
H 0.272492 -1.629244 1.277074
H -1.591985 1.619496 -0.886535
H -2.567804 0.443151 -0.001125
H -1.592152 1.623108 0.879667
H 0.272403 -1.634846 -1.270052
H -1.474280 -1.412481 -1.283646
H -0.437104 -0.284426 -2.160641
