15
charge=0, multiplicity=1, basis=def2-TZVP
C -3.478902 -0.283847 -0.263426
C -2.375739 0.132837 -0.041240
C -1.024675 0.604075 0.226293
C 0.012699 -0.531596 0.220622
C 1.393439 -0.016498 0.510238
C 2.582908 -0.545650 -0.155602
O 2.032028 0.716423 -0.544061
H -4.458395 -0.643377 -0.461233
H -0.740426 1.347401 -0.523203
H -1.005783 1.114342 1.194535
H -0.259987 -1.279538 0.969846
H 0.003070 -1.025822 -0.752380
H 1.527604 0.438058 1.490731
H 3.548189 -0.496703 0.338704
H 2.471124 -1.341678 -0.885825
