15
charge=0, multiplicity=1, basis=def2-TZVP
O -2.341224 0.035987 0.023692
C -1.123070 0.027353 0.009979
C -0.346253 -1.278693 0.072545
N 1.033610 -1.139189 -0.375943
C 1.701558 -0.044611 0.309633
C 1.060627 1.253424 -0.146577
N -0.385822 1.169938 0.003818
H -0.432440 -1.626862 1.115559
H -0.876611 -1.993030 -0.555080
H 1.534272 -2.009388 -0.252724
H 1.628631 -0.120958 1.407803
H 2.758447 -0.038286 0.041823
H 1.430596 2.087212 0.453916
H 1.326812 1.438592 -1.192378
H -0.931599 2.014742 -0.077063
