15
charge=0, multiplicity=1, basis=def2-TZVP
O -2.396266 -1.052283 0.380174
C -2.317739 0.146427 -0.391210
C -1.078884 0.889139 0.055077
N 0.108626 0.100904 -0.240874
C 1.322614 0.697618 0.288204
C 2.490087 -0.136696 0.005576
N 3.406369 -0.800285 -0.195940
H -3.054084 -1.637189 -0.007428
H -2.238974 -0.082915 -1.458867
H -3.200564 0.774506 -0.227345
H -1.020136 1.838852 -0.484856
H -1.173950 1.125400 1.127721
H -0.016397 -0.833398 0.132558
H 1.478643 1.670714 -0.186921
H 1.294154 0.879029 1.375558
