15
charge=0, multiplicity=1, basis=def2-TZVP
C 2.634457 -0.131650 0.000328
N 1.253144 -0.549691 -0.000202
C 0.234542 0.334975 -0.000307
N 0.432471 1.603059 -0.000081
C -1.132747 -0.346226 -0.000789
C -2.359772 0.526289 0.000367
O -1.202136 -1.555013 0.000206
H 2.858315 0.474990 0.880995
H 3.270563 -1.014546 0.000415
H 2.858927 0.475241 -0.880012
H 1.000448 -1.523096 -0.000401
H -0.442206 2.115016 -0.000209
H -2.372518 1.172519 -0.879900
H -3.243552 -0.106183 0.000997
H -2.371085 1.172257 0.880851
