15
charge=0, multiplicity=1, basis=def2-TZVP
C -2.325832 0.313624 0.000016
C -1.080342 -0.551207 -0.000035
C 0.074313 -0.190668 -0.957813
C 0.625647 0.909325 0.000033
O 1.992885 0.395558 0.000030
C 1.140919 -0.791939 -0.000026
C 0.074287 -0.190769 0.957786
H -2.074713 1.376654 -0.000050
H -2.940339 0.117216 -0.881405
H -2.940194 0.117306 0.881561
H -1.339528 -1.613687 -0.000074
H 0.108390 -0.180983 -2.045379
H 0.476783 1.985446 0.000047
H 1.604213 -1.775454 -0.000056
H 0.108359 -0.181149 2.045352
