15
charge=0, multiplicity=1, basis=def2-TZVP
C -0.627633 1.778478 -0.221252
C -0.910014 0.477108 0.483171
O -1.688155 -0.440675 -0.326578
C -0.629814 -1.416166 -0.350952
C 0.244393 -0.568755 0.603535
C 1.567607 -0.198988 0.156293
C 2.661138 0.109111 -0.231525
H -0.109571 1.609278 -1.165176
H -1.567225 2.294906 -0.424070
H -0.004909 2.421959 0.403800
H -1.412576 0.655998 1.437774
H -0.951196 -2.382566 0.042462
H -0.211806 -1.542854 -1.351669
H 0.298035 -0.995647 1.605084
H 3.630426 0.379600 -0.571194
