15
charge=0, multiplicity=1, basis=def2-TZVP
C 1.646118 -1.037603 0.493100
C 0.630923 -0.480660 -0.499412
O -0.572799 -1.242351 -0.546745
C -1.540872 -0.630812 0.316835
C -1.291240 0.868752 0.203744
C 0.194952 0.933370 -0.115155
O 0.909888 1.898049 -0.062834
H 1.234267 -1.063596 1.503650
H 1.924384 -2.051779 0.207924
H 2.537603 -0.409490 0.501437
H 1.057662 -0.467690 -1.505189
H -2.524163 -0.945749 -0.026057
H -1.405340 -0.976545 1.348535
H -1.833787 1.300583 -0.641749
H -1.526622 1.450401 1.093414
