15
charge=0, multiplicity=1, basis=def2-TZVP
O 2.334574 -0.037969 0.014966
C 1.134811 -0.015826 -0.013562
C 0.349472 1.280235 -0.112965
C -1.119527 1.193670 0.291282
C -1.727222 -0.060641 -0.321111
C -0.965294 -1.271956 0.172572
O 0.459733 -1.189159 -0.039012
H 0.898906 2.027259 0.458027
H 0.426614 1.578471 -1.163831
H -1.206822 1.144602 1.380975
H -1.650069 2.091918 -0.028403
H -2.778098 -0.174406 -0.045927
H -1.679621 -0.008656 -1.412922
H -1.127894 -1.411477 1.245649
H -1.270917 -2.183582 -0.338490
