15
charge=0, multiplicity=1, basis=def2-TZVP
O -1.665439 -0.907861 -0.591921
C -0.762729 -0.062927 0.036940
C -0.048846 -0.456396 1.314639
C 0.748474 -0.165203 0.072271
O 1.657450 -1.031751 -0.511268
C 0.882092 1.331369 -0.136591
C -0.680778 1.442966 -0.177853
H -2.433654 -1.029810 -0.021443
H -0.026490 0.192397 2.186863
H -0.133113 -1.514361 1.537259
H 1.289253 -1.922843 -0.510708
H 1.394986 1.880075 0.654812
H 1.334426 1.567866 -1.098066
H -1.040828 1.734231 -1.163376
H -1.149945 2.070483 0.583742
