20
charge=0, multiplicity=1, basis=def2-TZVP
C 0.000079 1.507974 1.249762
C -0.342505 0.691964 0.000050
C -0.000079 1.507828 -1.249797
C 0.342505 -0.691964 0.000050
C -0.000079 -1.507974 1.249762
C 0.000079 -1.507828 -1.249797
H -0.348835 1.032392 2.165628
H 1.081806 1.647862 1.334795
H -0.457094 2.498004 1.199117
H -1.425913 0.514006 0.000121
H 1.081632 1.647777 -1.334934
H -0.349030 1.032088 -2.165568
H -0.457317 2.497833 -1.199255
H 1.425913 -0.514006 0.000121
H -1.081806 -1.647862 1.334795
H 0.457094 -2.498004 1.199117
H 0.348835 -1.032392 2.165628
H -1.081632 -1.647777 -1.334934
H 0.349030 -1.032088 -2.165568
H 0.457317 -2.497833 -1.199255
