16
charge=0, multiplicity=1, basis=def2-TZVP
C -0.573947 1.881976 -0.087875
C -0.329343 0.421604 0.295167
C -1.523530 -0.397490 0.088870
C -2.509712 -1.060574 -0.072433
N 0.781343 -0.111925 -0.500502
C 2.108709 0.087420 0.068206
C 1.477807 -1.256748 0.065763
H 0.327134 2.468154 0.097041
H -0.825149 1.949787 -1.145509
H -1.391816 2.299752 0.498522
H -0.083488 0.379124 1.370401
H -3.381054 -1.649114 -0.222170
H 2.891495 0.332394 -0.638533
H 2.178008 0.599971 1.023534
H 1.123894 -1.641576 1.017239
H 1.791678 -2.012145 -0.643200
