16
charge=0, multiplicity=1, basis=def2-TZVP
C -2.965087 -0.391231 -0.094057
C -1.731536 0.505296 -0.050015
C -0.430781 -0.283888 0.079979
C 0.811080 0.616461 0.106499
C 2.064425 -0.180293 0.334200
O 2.995073 -0.240444 -0.426761
H -3.879991 0.196264 -0.186573
H -2.922366 -1.076967 -0.943403
H -3.046366 -0.993867 0.813675
H -1.689911 1.119149 -0.954951
H -1.812157 1.203523 0.789234
H -0.463902 -0.889078 0.992271
H -0.345700 -0.987427 -0.753852
H 0.913628 1.179623 -0.822175
H 0.715429 1.330489 0.933831
H 2.082150 -0.756235 1.286390
