19
charge=0, multiplicity=1, basis=def2-TZVP
C 0.237446 0.642357 -2.419642
C 0.237446 -0.323787 -1.237831
C 1.003805 0.196745 0.000000
C 0.237446 -0.323787 1.237831
C 0.237446 0.642357 2.419642
C -1.129565 -0.613013 0.664133
C -1.129565 -0.613013 -0.664133
H -0.215165 1.595498 -2.136026
H 1.254965 0.840834 -2.763651
H -0.326933 0.238815 -3.263223
H 0.681248 -1.270319 -1.575443
H 2.055674 -0.091186 0.000000
H 0.964697 1.290508 0.000000
H 0.681248 -1.270319 1.575443
H -0.215165 1.595498 2.136026
H -0.326933 0.238815 3.263223
H 1.254965 0.840834 2.763651
H -1.987677 -0.828070 1.289368
H -1.987677 -0.828070 -1.289368
