16
charge=0, multiplicity=1, basis=def2-TZVP
C -2.669668 -0.553486 0.103105
N -1.745667 0.562456 0.233085
C -0.535694 0.393511 -0.011073
C 0.691013 1.269805 0.000907
C 1.427063 -0.004598 -0.457206
C 2.457506 -0.603300 0.462205
O 0.153106 -0.745569 -0.415180
H -2.201272 -1.484136 -0.227825
H -3.153784 -0.726003 1.066706
H -3.454436 -0.281803 -0.605896
H 0.667299 2.094966 -0.708063
H 0.972112 1.639646 0.986104
H 1.778809 0.031211 -1.489345
H 2.084685 -0.640434 1.487221
H 2.711452 -1.616871 0.148786
H 3.368629 -0.000806 0.444528
