15
charge=0, multiplicity=1, basis=def2-TZVP
C 2.367307 -0.819588 -0.268855
C 1.630762 0.347038 0.331564
N 0.768263 1.136375 -0.558337
C 0.163060 0.392904 0.546014
C -0.760966 -0.747846 0.167583
C -2.125727 -0.279394 -0.054973
N -3.196170 0.110293 -0.210250
H 1.774838 -1.314729 -1.036653
H 3.292172 -0.479024 -0.738364
H 2.628638 -1.551439 0.498859
H 2.207083 0.902950 1.066309
H 0.815177 2.129151 -0.359487
H -0.180914 0.960527 1.404779
H -0.409133 -1.231605 -0.743193
H -0.779132 -1.501194 0.959855
