16
charge=0, multiplicity=1, basis=def2-TZVP
C -1.924335 -0.416238 -0.248670
C -0.510315 -0.077151 0.106252
C -0.090911 1.272769 0.604289
C 0.536493 0.740867 -0.652732
C 1.623430 -0.272242 -0.298346
C 0.561626 -1.106853 0.482253
H -1.965256 -1.228218 -0.979486
H -2.485772 -0.734919 0.634850
H -2.440961 0.446126 -0.675125
H -0.819128 2.061546 0.461663
H 0.503568 1.372134 1.508075
H 0.437981 1.259245 -1.597383
H 2.011876 -0.808152 -1.163228
H 2.465135 0.116608 0.279455
H 0.729882 -1.252334 1.551943
H 0.386738 -2.078947 0.020959
