15
charge=0, multiplicity=1, basis=def2-TZVP
O 2.786743 0.055825 0.042099
C 1.663713 -0.027589 -0.379928
C 0.414923 0.049267 0.452376
C -0.491941 1.219654 0.001948
C -1.886380 0.596754 0.023201
O -1.679508 -0.744285 -0.395644
C -0.491038 -1.196287 0.236269
H 1.473800 -0.175898 -1.466982
H 0.706473 0.146582 1.497006
H -0.390830 2.088682 0.649907
H -0.243667 1.524086 -1.017384
H -2.311855 0.624407 1.035684
H -2.589640 1.059606 -0.667265
H -0.040403 -1.952350 -0.409104
H -0.717413 -1.658231 1.203299
