17
charge=0, multiplicity=1, basis=def2-TZVP
C -2.378773 -0.197444 -0.000017
C -0.921902 0.087965 -0.000096
C -0.236017 1.233497 0.000034
C 1.228313 0.778668 0.000157
C 1.165027 -0.366533 -1.063109
C 0.191911 -0.973977 -0.000158
C 1.164810 -0.366798 1.063137
H -2.667244 -0.784155 0.877995
H -2.962919 0.723625 -0.000801
H -2.667092 -0.785626 -0.877083
H -0.595975 2.251220 0.000093
H 2.011750 1.532203 0.000333
H 0.749852 -0.120136 -2.040033
H 2.099325 -0.922664 -1.160931
H -0.096399 -2.023119 -0.000315
H 2.099069 -0.922979 1.161024
H 0.749427 -0.120639 2.040034
