16
charge=0, multiplicity=1, basis=def2-TZVP
C 2.406079 -0.930121 -0.245632
C 1.740922 0.267320 0.374713
N 0.971725 1.151886 -0.511029
C 0.273364 0.410912 0.552178
C -0.736975 -0.624390 0.112029
C -2.008699 0.039640 -0.349802
O -3.102694 -0.185872 0.100425
H 1.800490 -1.353493 -1.045273
H 3.367430 -0.645208 -0.677904
H 2.587650 -1.704582 0.503025
H 2.335297 0.754748 1.142858
H 1.092870 2.127392 -0.262824
H -0.039185 0.981711 1.422046
H -0.334452 -1.187047 -0.734118
H -0.969810 -1.319690 0.919911
H -1.868966 0.789772 -1.154839
