17
charge=0, multiplicity=1, basis=def2-TZVP
C -1.706584 -1.177697 0.368803
C -0.814173 -0.334193 -0.519707
C -0.961571 1.228107 -0.479593
C 0.504747 1.307694 -0.063466
O 0.632383 0.562796 1.159473
C 0.655219 -0.154001 -0.088124
C 1.806375 -1.059344 -0.353375
H -1.626698 -0.851003 1.406101
H -2.752539 -1.095496 0.065378
H -1.428751 -2.233314 0.319622
H -0.854948 -0.682717 -1.554334
H -1.164340 1.659761 -1.459282
H -1.664242 1.628217 0.251939
H 1.226173 2.096215 -0.233043
H 1.703880 -1.986468 0.216405
H 1.855620 -1.318205 -1.412809
H 2.742705 -0.582749 -0.062987
