15
charge=0, multiplicity=1, basis=def2-TZVP
C 2.207167 -0.214732 -0.695419
C 0.888300 -0.733927 -0.184710
C 0.481974 -0.548958 1.252190
C -0.228400 0.222783 0.156284
O 0.083406 1.586669 0.006505
C -1.583182 -0.129794 -0.175722
C -2.721316 -0.414238 -0.434031
H 2.464865 0.733835 -0.227531
H 3.002361 -0.932735 -0.483101
H 2.172348 -0.056692 -1.774876
H 0.548700 -1.652591 -0.647267
H -0.060351 -1.336559 1.756206
H 1.139569 0.042240 1.876413
H -0.477151 2.088763 0.609685
H -3.724849 -0.666418 -0.673119
