17
charge=0, multiplicity=1, basis=def2-TZVP
C -3.489531 0.239598 -0.172609
C -2.104018 -0.165868 0.014206
C -0.963197 -0.507836 0.173809
C 0.427368 -0.903354 0.350527
C 1.416035 0.039659 -0.342651
C 1.391030 1.445951 0.232904
O 2.696927 -0.572874 -0.177713
H -4.001704 0.343610 0.786556
H -3.551878 1.200011 -0.689292
H -4.038349 -0.494470 -0.766766
H 0.679376 -0.943647 1.414836
H 0.585580 -1.908975 -0.047281
H 1.159761 0.078582 -1.409000
H 2.106856 2.089322 -0.285108
H 0.400151 1.888246 0.124408
H 1.651146 1.424058 1.293245
H 3.367531 0.017353 -0.537009
