16
charge=0, multiplicity=1, basis=def2-TZVP
C 2.036394 0.275123 -0.368533
C 0.789674 -0.565871 -0.269964
C 0.120984 -0.837887 1.064367
C -0.561608 0.003253 0.017796
C -0.787464 1.476536 0.232773
O -1.592010 -0.619005 -0.722221
H 2.054620 1.065508 0.382923
H 2.925937 -0.339927 -0.215576
H 2.121219 0.746584 -1.350532
H 0.751068 -1.398715 -0.962448
H -0.270129 -1.830652 1.240927
H 0.520578 -0.338378 1.938798
H 0.025859 1.934397 0.794533
H -0.880580 1.990616 -0.725940
H -1.710093 1.640583 0.796999
H -2.390275 -0.624906 -0.180545
