17
charge=0, multiplicity=1, basis=def2-TZVP
C 1.969322 -0.709366 -0.413770
C 0.690170 -0.771314 0.384833
C 0.031809 0.403888 1.080225
C 0.144643 1.676821 0.240606
C -0.588992 0.954152 -0.931753
C -0.656542 -0.308529 -0.074048
O -1.785017 -1.119999 -0.012492
H 2.034864 0.194974 -1.018572
H 2.840104 -0.728116 0.245660
H 2.047776 -1.562909 -1.091679
H 0.594231 -1.668011 0.990441
H -0.201191 0.364529 2.135188
H -0.437244 2.502977 0.645434
H 1.156267 2.030829 0.036083
H -1.583946 1.364074 -1.097469
H -0.069288 0.879765 -1.889662
H -1.643904 -1.892041 -0.572042
