17
charge=0, multiplicity=1, basis=def2-TZVP
C 3.444760 -0.022833 0.000125
C 2.044805 -0.630374 -0.000194
C 0.962864 0.430394 0.000058
O -0.304109 -0.205517 0.000010
C -1.371483 0.722006 -0.000137
C -2.646816 0.020597 0.000061
C -3.709175 -0.534313 0.000101
H 3.608056 0.600829 -0.881972
H 3.607553 0.600798 0.882332
H 4.208384 -0.801432 0.000317
H 1.907397 -1.267394 -0.877214
H 1.907265 -1.267866 0.876466
H 1.058428 1.075697 0.886117
H 1.058287 1.076055 -0.885747
H -1.312428 1.373609 0.883920
H -1.312455 1.373301 -0.884432
H -4.647337 -1.032324 0.000061
