17
charge=0, multiplicity=1, basis=def2-TZVP
C -3.864368 -0.513077 -0.000020
C -2.501869 -0.000675 0.000036
C -1.378175 0.424800 0.000016
C -0.004474 0.912455 0.000070
C 1.032606 -0.219421 -0.000050
C 2.450984 0.314731 -0.000105
O 3.342142 -0.796392 0.000076
H -4.413703 -0.171818 -0.880341
H -3.872897 -1.605350 -0.004516
H -4.411063 -0.179114 0.884733
H 0.151857 1.551858 -0.875353
H 0.151855 1.551696 0.875592
H 0.887214 -0.851977 0.877692
H 0.887091 -0.851857 -0.877867
H 2.613456 0.942295 -0.886560
H 2.613430 0.942584 0.886174
H 4.247406 -0.470057 0.000150
