15
charge=0, multiplicity=1, basis=def2-TZVP
C -2.214500 -0.276869 -0.523286
C -1.175872 -0.398297 0.588003
N 0.136049 0.103658 0.218231
C 0.307458 1.531100 0.027493
C 1.186339 -0.736598 0.033559
O 2.307862 -0.410869 -0.299731
H -2.380801 0.763393 -0.805380
H -1.894088 -0.824088 -1.411270
H -3.169659 -0.687458 -0.191324
H -1.518410 0.137793 1.479331
H -1.059132 -1.445363 0.872568
H -0.081831 2.073088 0.892916
H 1.369261 1.733719 -0.083447
H -0.212774 1.883011 -0.866482
H 0.911645 -1.788763 0.228703
