16
charge=0, multiplicity=1, basis=def2-TZVP
C 2.335800 0.325261 -0.000009
C 1.092958 -0.538587 0.000017
C -0.077799 -0.178935 0.917772
C -0.609994 0.961922 0.000001
C -1.977881 0.302600 -0.000023
N -1.081823 -0.927254 0.000011
C -0.077774 -0.178979 -0.917754
H 2.086707 1.388479 -0.000088
H 2.949503 0.126192 0.881169
H 2.949535 0.126095 -0.881144
H 1.326944 -1.606498 0.000010
H -0.166725 -0.251545 2.001849
H -0.332478 2.018424 0.000017
H -2.592966 0.390743 0.898012
H -2.592920 0.390749 -0.898085
H -0.166701 -0.251551 -2.001834
