15
charge=0, multiplicity=1, basis=def2-TZVP
C -0.587907 -1.851254 0.000000
O 0.846192 -1.605665 0.000000
C -0.035930 -0.512143 0.000000
C -0.035930 0.686555 -0.952164
C -1.108177 1.292833 0.000000
C -0.035930 0.686555 0.952164
C 1.036498 1.301906 -0.000000
H -0.972696 -2.284817 -0.917947
H -0.972696 -2.284817 0.917947
H -0.037303 0.679516 -2.039318
H -1.171787 2.380092 -0.000000
H -2.093487 0.826698 0.000000
H -0.037303 0.679516 2.039318
H 2.018372 0.832500 -0.000000
H 1.101621 2.389922 -0.000000
