19
charge=0, multiplicity=1, basis=def2-TZVP
C -2.483687 -0.583925 0.219355
C -1.170123 -0.119499 -0.392514
C -0.736973 1.308002 0.022057
C 0.765044 1.223067 0.040984
C 1.204983 -0.033772 0.005319
C 2.619340 -0.502900 0.063250
C 0.048546 -1.004124 -0.046568
H -2.419106 -0.595754 1.310542
H -3.307396 0.077605 -0.058480
H -2.742063 -1.592855 -0.110308
H -1.272627 -0.121616 -1.481841
H -1.120273 2.069841 -0.661713
H -1.124047 1.563510 1.017163
H 1.404866 2.093652 0.120409
H 3.318691 0.331662 0.121045
H 2.782619 -1.146576 0.933659
H 2.871079 -1.101466 -0.817725
H -0.076240 -1.492117 0.929417
H 0.201722 -1.806986 -0.773468
