19
charge=0, multiplicity=1, basis=def2-TZVP
C -3.570422 0.080025 -0.000041
C -2.205309 -0.601747 -0.000040
C -1.043254 0.388409 -0.000005
C 0.323568 -0.287798 0.000186
C 1.478968 0.724466 0.000018
C 2.792146 0.094749 -0.000064
C 3.861851 -0.449618 -0.000070
H -3.692971 0.714028 0.881460
H -3.692992 0.713975 -0.881582
H -4.381655 -0.650106 -0.000026
H -2.120921 -1.254378 0.874828
H -2.120954 -1.254313 -0.874965
H -1.126121 1.042119 -0.875793
H -1.126260 1.042248 0.875673
H 0.419492 -0.935250 0.875800
H 0.419518 -0.935591 -0.875171
H 1.393160 1.376007 -0.875501
H 1.393394 1.376091 0.875499
H 4.811026 -0.925746 -0.000128
