15
charge=0, multiplicity=1, basis=def2-TZVP
O 2.658412 -0.381334 0.006471
C 1.810380 0.482586 -0.047894
C 0.373814 0.229927 -0.002211
C -0.553157 1.196134 -0.015582
C -1.943654 0.644351 0.090221
C -1.742726 -0.869895 -0.160471
C -0.245448 -1.139491 0.116545
H 2.095296 1.550799 -0.139438
H -0.331606 2.255512 -0.060012
H -2.345700 0.845258 1.090385
H -2.637302 1.106895 -0.615098
H -2.402095 -1.485757 0.448957
H -1.963951 -1.092515 -1.205144
H 0.198283 -1.853984 -0.576434
H -0.075474 -1.537197 1.121364
