19
charge=0, multiplicity=1, basis=def2-TZVP
C 0.646642 0.906441 1.253709
C 0.718868 0.029896 -0.000013
C 0.646444 0.905278 -1.254520
C 2.028746 -0.764711 0.000285
C -0.450954 -0.989401 0.000451
C -1.778906 -0.392457 0.000225
C -2.867672 0.112763 -0.000006
H -0.284764 1.472923 1.283392
H 0.701979 0.299373 2.160441
H 1.477226 1.614917 1.272636
H 1.476392 1.614497 -1.273846
H 0.702630 0.297474 -2.160715
H -0.285481 1.470850 -1.284983
H 2.103896 -1.401842 0.884599
H 2.103709 -1.402785 -0.883363
H 2.887299 -0.090450 -0.000153
H -0.353966 -1.637903 -0.875940
H -0.353997 -1.637183 0.877387
H -3.833927 0.553268 -0.000238
