17
charge=0, multiplicity=1, basis=def2-TZVP
C -2.165172 -0.000006 -0.305907
C -0.701935 0.000008 -0.037625
C 0.167245 -0.769710 0.922084
C 1.102460 -1.221246 -0.189323
C 0.577480 0.000019 -0.982592
C 1.102407 1.221292 -0.189285
C 0.167233 0.769648 0.922138
H -2.468472 -0.883275 -0.874649
H -2.725318 -0.000438 0.632232
H -2.468660 0.883642 -0.873963
H -0.149949 -1.318409 1.797812
H 2.178152 -1.266366 0.004512
H 0.767983 -2.162004 -0.628347
H 0.571940 0.000029 -2.068692
H 2.178103 1.266455 0.004530
H 0.767885 2.162053 -0.628281
H -0.149966 1.318280 1.797905
