17
charge=0, multiplicity=1, basis=def2-TZVP
C -2.242378 -0.824972 0.184320
C -1.178708 0.236894 0.015629
O -1.418458 1.303680 -0.503639
C 0.201770 -0.131313 0.496213
C 1.029351 -1.042211 -0.470351
C 2.269378 -0.172724 -0.152683
C 1.327717 0.918442 0.411755
H -3.144892 -0.544285 -0.353756
H -1.880393 -1.794026 -0.166768
H -2.474959 -0.937594 1.246920
H 0.135526 -0.596908 1.482522
H 1.075527 -2.104469 -0.234750
H 0.700476 -0.921558 -1.503365
H 2.886651 -0.623330 0.625102
H 2.909335 0.101330 -0.990301
H 1.077679 1.679743 -0.325759
H 1.619930 1.406965 1.339967
