15
charge=0, multiplicity=1, basis=def2-TZVP
C -1.642795 1.470988 -0.000000
C -0.534480 0.479219 -0.000000
C -0.535399 -1.082298 -0.000000
C 0.779155 -1.083937 0.758516
C 0.779155 -1.083937 -0.758516
C 0.779155 0.469438 -0.761830
C 0.779155 0.469438 0.761830
H -2.276127 1.360657 -0.884602
H -2.276127 1.360657 0.884602
H -1.243996 2.488373 -0.000000
H -1.331780 -1.812216 -0.000000
H 1.172929 -1.817456 1.445863
H 1.172929 -1.817456 -1.445863
H 1.179254 1.201986 -1.447527
H 1.179254 1.201986 1.447527
