15
charge=0, multiplicity=1, basis=def2-TZVP
C -2.055987 -0.517072 -0.340885
C -0.689284 -0.088620 0.083511
C -0.404368 1.181388 0.859032
C 0.161692 0.965743 -0.530308
O 1.465508 0.445343 -0.638062
C 1.504207 -0.700734 0.197992
O 0.179516 -1.181992 0.329075
H -1.996017 -1.171017 -1.212326
H -2.557445 -1.057725 0.464235
H -2.663171 0.351686 -0.596101
H -1.218643 1.888882 0.946079
H 0.261519 1.152314 1.710817
H -0.115269 1.582512 -1.372396
H 2.124675 -1.466944 -0.267090
H 1.906599 -0.430743 1.182628
