15
charge=0, multiplicity=1, basis=def2-TZVP
O -3.312648 -0.118029 0.174353
C -2.278336 0.028400 -0.422831
C -0.981844 0.472914 0.193688
C 0.106752 -0.599483 0.035574
C 1.440576 -0.109161 0.526222
C 2.694318 -0.449085 -0.145201
O 2.104763 0.845489 -0.309187
H -2.225519 -0.182935 -1.513875
H -0.650680 1.377809 -0.327774
H -1.152634 0.715873 1.243231
H -0.173587 -1.497244 0.594315
H 0.199195 -0.884417 -1.015778
H 1.485397 0.137764 1.585393
H 3.623222 -0.466350 0.416018
H 2.668891 -1.081689 -1.027566
