15
charge=0, multiplicity=1, basis=def2-TZVP
C 2.214240 -0.081305 -0.137009
C 0.733366 0.080033 -0.033818
C -0.102886 1.337779 -0.259226
C -1.265661 0.524864 0.347446
O -1.519782 -0.508598 -0.653697
C -0.264157 -1.065020 -0.259071
C -0.214441 -0.392702 1.066577
H 2.552620 0.069583 -1.165313
H 2.738382 0.636617 0.498794
H 2.523025 -1.083195 0.170714
H 0.216535 2.142074 0.405005
H -0.247340 1.708102 -1.276705
H -2.167711 0.971326 0.751303
H 0.004044 -2.059863 -0.582130
H -0.064058 -0.737751 2.078523
