16
charge=0, multiplicity=1, basis=def2-TZVP
C -2.307319 -0.001217 -0.414750
C -1.041159 0.010219 0.417265
C 0.037319 -1.072571 0.147935
C 1.111915 -0.000509 0.365804
O 2.210664 -0.094367 -0.520369
C 0.038213 1.084124 0.118552
H -2.069014 -0.016343 -1.481022
H -2.917151 -0.881280 -0.195756
H -2.917762 0.884220 -0.220577
H -1.295003 0.024995 1.480070
H 0.059632 -1.960009 0.779486
H 0.031864 -1.375688 -0.900944
H 1.455090 0.012860 1.406358
H 2.844699 0.598842 -0.307243
H 0.030009 1.361184 -0.937664
H 0.058509 1.985871 0.731409
