16
charge=0, multiplicity=1, basis=def2-TZVP
C -2.781229 -0.078948 -0.237944
C -1.424693 0.436180 0.232535
C -0.307999 -0.593435 0.057772
C 1.028845 -0.078840 0.510941
C 2.280144 -0.436146 -0.156182
O 1.687351 0.849337 -0.362795
H -2.753819 -0.344249 -1.297506
H -3.079545 -0.971212 0.318194
H -3.560798 0.672818 -0.103920
H -1.157298 1.340225 -0.320493
H -1.486024 0.725410 1.286663
H -0.546896 -1.499178 0.626786
H -0.236159 -0.886812 -0.993569
H 1.086203 0.208050 1.560066
H 3.213593 -0.432146 0.398613
H 2.251527 -1.100471 -1.015201
