16
charge=0, multiplicity=1, basis=def2-TZVP
C 2.830153 -0.581559 -0.249337
C 1.686663 0.177371 0.384835
O 0.473841 -0.272144 -0.212365
C -0.692929 0.313886 0.332947
C -0.999592 1.690977 -0.258403
C -1.805727 -0.614151 0.082226
N -2.700974 -1.309055 -0.106627
H 2.711584 -1.653829 -0.092034
H 2.866594 -0.392533 -1.322581
H 3.778061 -0.266951 0.190382
H 1.648233 -0.005419 1.466869
H 1.811057 1.255972 0.232516
H -0.590374 0.398437 1.423764
H -1.923718 2.089053 0.161392
H -0.190382 2.383332 -0.029049
H -1.106367 1.613333 -1.339556
