15
charge=0, multiplicity=1, basis=def2-TZVP
C -2.102640 -1.270888 0.282268
C -1.563024 -0.000019 -0.394382
C -2.102339 1.271075 0.282090
C -0.105509 -0.000138 -0.390315
C 1.099208 -0.000154 -0.330436
C 2.536550 -0.000084 -0.329444
O 3.220809 0.000099 0.667908
H -1.732072 -2.168685 -0.211819
H -1.796206 -1.304802 1.328432
H -3.192790 -1.276025 0.239581
H -1.894886 -0.000064 -1.438106
H -1.795622 1.305204 1.328163
H -1.731795 2.168707 -0.212311
H -3.192499 1.276325 0.239677
H 2.995922 -0.000204 -1.335556
