16
charge=0, multiplicity=1, basis=def2-TZVP
C 0.054179 1.065440 1.266325
C -0.137046 0.211986 -0.000001
C 0.054669 1.065207 -1.266393
C 0.836969 -0.982756 0.000324
O 2.159273 -0.468078 -0.000039
C -1.493674 -0.349579 -0.000257
N -2.553575 -0.796159 -0.000093
H -0.647053 1.899343 1.272692
H -0.109256 0.471173 2.165610
H 1.070081 1.455381 1.284901
H 1.070163 1.456253 -1.284069
H -0.107226 0.470485 -2.165650
H -0.647419 1.898382 -1.273755
H 0.650688 -1.595753 0.888806
H 0.650496 -1.596360 -0.887698
H 2.779795 -1.202949 0.000137
