16
charge=0, multiplicity=1, basis=def2-TZVP
C 2.406523 -0.803550 -0.268400
C 1.655965 0.351978 0.336637
N 0.798334 1.145025 -0.557089
C 0.185883 0.383623 0.534364
C -0.733440 -0.757463 0.145323
C -2.109914 -0.313718 -0.038971
C -3.236648 0.075606 -0.174572
H 1.819121 -1.299576 -1.039317
H 3.330595 -0.453069 -0.732979
H 2.670918 -1.538272 0.495833
H 2.224010 0.905900 1.079726
H 0.839390 2.134730 -0.341844
H -0.168478 0.946191 1.392732
H -0.375863 -1.215243 -0.778031
H -0.703675 -1.529453 0.921283
H -4.234575 0.414763 -0.304070
