16
charge=0, multiplicity=1, basis=def2-TZVP
C 2.688707 -0.553740 -0.081231
C 1.629683 0.501183 -0.387524
C 0.400383 0.377499 0.492100
C -0.853199 1.202105 0.089301
C -1.570187 -0.155156 -0.054493
O -2.683453 -0.522781 -0.318154
N -0.419516 -0.827251 0.265349
H 2.300628 -1.560557 -0.251410
H 3.566512 -0.430044 -0.716704
H 3.018453 -0.492222 0.958676
H 2.049091 1.502300 -0.248188
H 1.319757 0.428204 -1.434075
H 0.670223 0.498965 1.545564
H -1.272318 1.839672 0.865110
H -0.758490 1.759533 -0.841325
H -0.261937 -1.804180 0.461218
