15
charge=0, multiplicity=1, basis=def2-TZVP
O -2.100523 -0.051864 -0.266019
C -0.740141 0.057840 -0.614856
C 0.154038 1.003673 0.287775
C 0.066863 -0.135490 1.353602
C 0.144334 -1.032988 0.075820
C 1.500562 -0.621447 -0.486505
C 1.505575 0.708496 -0.346400
H -2.590220 0.650056 -0.706998
H -0.608712 0.170531 -1.694944
H -0.123511 2.033276 0.501283
H 0.891112 -0.212150 2.061460
H -0.899176 -0.183443 1.851672
H -0.143585 -2.080670 0.071266
H 2.240427 -1.272408 -0.925572
H 2.250471 1.429215 -0.646630
