19
charge=0, multiplicity=1, basis=def2-TZVP
C -2.529978 -0.261603 0.276554
C -1.417361 0.107834 -0.705743
C -0.060243 0.080218 -0.069542
C 0.505036 1.238728 0.696602
C 1.256838 0.725212 -0.498349
C 2.028120 -0.538462 -0.121171
C 0.688072 -1.198377 0.328574
H -2.372629 -1.261872 0.686094
H -2.555656 0.438556 1.114033
H -3.508852 -0.249444 -0.206283
H -1.433800 -0.583855 -1.554995
H -1.602097 1.105209 -1.116232
H -0.010297 2.180164 0.550939
H 0.912027 1.101908 1.694241
H 1.454560 1.355344 -1.355428
H 2.468055 -1.046305 -0.978293
H 2.796887 -0.415489 0.645196
H 0.607889 -1.495291 1.376539
H 0.421009 -2.050228 -0.297354
