18
charge=0, multiplicity=1, basis=def2-TZVP
C -1.307623 1.479420 -0.105736
C -0.587210 0.153988 -0.108500
C -0.994736 -0.875703 0.918538
C -1.325266 -1.067744 -0.546993
N 0.782714 0.322291 -0.547228
C 1.788749 0.609578 0.466704
C 1.786052 -0.685569 -0.260941
H -2.351823 1.357398 0.183961
H -0.838536 2.170563 0.598787
H -1.269813 1.930000 -1.098922
H -0.248634 -1.527522 1.351595
H -1.795473 -0.615658 1.598008
H -2.353102 -0.962685 -0.868152
H -0.762866 -1.821456 -1.082552
H 2.506727 1.382106 0.219870
H 1.472751 0.584351 1.505191
H 1.506775 -1.568374 0.303571
H 2.495203 -0.868585 -1.059186
