15
charge=0, multiplicity=1, basis=def2-TZVP
O 2.513343 0.165416 -0.225229
C 1.410319 -0.712571 -0.057356
C 0.269083 -0.015624 0.641766
O -0.203240 1.155364 -0.106932
C -1.550723 0.676026 -0.008892
C -1.719525 -0.605401 -0.743990
C -1.131964 -0.612934 0.651430
H 2.187004 0.947638 -0.687398
H 1.078213 -1.114468 -1.020579
H 1.760185 -1.545724 0.556071
H 0.581636 0.316148 1.635125
H -2.328600 1.392255 0.215148
H -2.733369 -0.982248 -0.795238
H -1.110802 -0.805597 -1.616610
H -1.578234 -1.151203 1.473026
