17
charge=0, multiplicity=1, basis=def2-TZVP
C 2.557114 -0.349226 0.151879
C 1.340782 0.052049 -0.680648
C 0.322508 0.807978 0.136583
C -1.145618 0.953772 -0.205605
C -1.701751 -0.365545 -0.716119
O -1.156520 -1.087073 0.424501
C -0.704260 0.147391 0.996243
H 3.291106 -0.885735 -0.451995
H 3.052094 0.526821 0.578229
H 2.260207 -0.999287 0.977129
H 1.652548 0.671350 -1.527190
H 0.881594 -0.844702 -1.098574
H 0.705501 1.714973 0.597833
H -1.648110 1.907657 -0.260729
H -2.792394 -0.408066 -0.697249
H -1.329692 -0.750706 -1.668661
H -0.833343 0.285756 2.061203
