15
charge=0, multiplicity=1, basis=def2-TZVP
C 0.959600 -0.985726 -0.656023
C 1.287364 0.466573 -0.330376
C 0.005603 1.209982 -0.036747
O -1.211602 0.707070 -0.553605
C -1.421544 -0.574816 0.063964
C -0.038994 -0.991298 0.541386
C 0.577316 0.349125 1.024427
H 0.544605 -1.201376 -1.643441
H 1.811345 -1.638241 -0.467959
H 2.205130 0.987611 -0.569351
H 0.035107 2.287746 0.029881
H -2.128284 -0.478116 0.897293
H -1.839689 -1.247530 -0.686437
H -0.019164 -1.850248 1.206391
H 0.867698 0.640556 2.022676
