15
charge=0, multiplicity=1, basis=def2-TZVP
C 3.064101 0.435996 0.068960
C 2.043639 -0.169398 -0.109675
C 0.781429 -0.871540 -0.300198
C -0.355683 -0.256404 0.513807
C -0.868169 1.109131 0.023820
O -2.140805 0.538873 -0.364738
C -1.768248 -0.754030 0.159390
H 3.972965 0.964420 0.220005
H 0.514257 -0.856525 -1.361879
H 0.903213 -1.923633 -0.023915
H -0.113394 -0.290656 1.574710
H -0.987802 1.871946 0.796741
H -0.333811 1.536781 -0.828217
H -1.819052 -1.534390 -0.605945
H -2.392349 -1.041454 1.009778
