15
charge=0, multiplicity=1, basis=def2-TZVP
C -2.461643 -0.623589 0.000044
C -1.049987 -0.154144 -0.000071
N 0.018994 -0.917804 -0.000062
C 1.110844 -0.072624 -0.000001
C 2.503857 -0.598989 0.000031
C 0.684343 1.226345 0.000015
N -0.696447 1.163193 -0.000007
H -3.003812 -0.274190 -0.882406
H -2.465949 -1.710934 -0.001383
H -3.002850 -0.276570 0.884031
H 2.684709 -1.221096 -0.879210
H 3.229633 0.214715 -0.000008
H 2.684704 -1.221000 0.879341
H 1.215874 2.161642 -0.000012
H -1.324621 1.947717 0.000025
