18
charge=0, multiplicity=1, basis=def2-TZVP
C -1.926907 -1.167259 0.291563
C -1.513965 0.062415 -0.476408
C -1.192122 1.339763 0.214979
N -0.144952 0.580484 -0.456820
C 0.845523 -0.063202 0.356246
C 1.857748 -0.911063 -0.353887
C 2.255034 0.428759 0.211895
H -1.557630 -1.160784 1.316376
H -3.016325 -1.229259 0.332747
H -1.558959 -2.073164 -0.195620
H -1.963301 0.133242 -1.462900
H -1.446479 2.297202 -0.225103
H -1.204520 1.321909 1.301746
H 0.547368 -0.385617 1.351432
H 2.212822 -1.807197 0.136549
H 1.754924 -0.984644 -1.427526
H 2.412014 1.236806 -0.488573
H 2.882892 0.451633 1.092289
