16
charge=0, multiplicity=1, basis=def2-TZVP
C 2.324469 -0.478353 0.067566
C 0.866950 -0.780857 -0.265628
C -0.133380 0.212868 0.361426
C 0.049340 1.648274 -0.155683
C -1.504331 -0.240369 0.138780
C -2.626505 -0.613007 -0.068956
H 2.651997 0.473453 -0.352496
H 2.480838 -0.438129 1.148574
H 2.978575 -1.254597 -0.332624
H 0.719351 -0.783133 -1.349182
H 0.612977 -1.784266 0.082375
H 0.039817 0.217762 1.444428
H -0.690179 2.314288 0.288123
H 1.040993 2.026472 0.091826
H -0.073443 1.679701 -1.239780
H -3.620190 -0.942890 -0.246268
