16
charge=0, multiplicity=1, basis=def2-TZVP
C 1.251648 1.605820 0.000336
N 0.152230 0.668300 -0.000319
C -1.180293 1.007987 -0.000305
C -1.918197 -0.149127 0.000114
C -0.998105 -1.230826 0.000275
C 0.274663 -0.703834 -0.000026
C 1.600960 -1.379679 -0.000163
H 1.879934 1.478756 -0.883685
H 0.852243 2.617430 -0.003436
H 1.875245 1.483414 0.888382
H -1.483268 2.041099 -0.000511
H -2.993396 -0.212278 0.000181
H -1.234921 -2.282310 0.000500
H 2.196911 -1.124716 -0.881952
H 2.198329 -1.122241 0.879926
H 1.459265 -2.459286 0.001442
