15
charge=0, multiplicity=1, basis=def2-TZVP
O 1.048595 1.504984 -0.152023
C 0.723566 0.159461 0.112439
C -0.595847 -0.028568 0.842676
C -1.774380 0.295263 -0.035175
O -2.671606 -0.467543 -0.284729
C 1.186353 -0.880607 -0.865792
C 1.882785 -0.709830 0.468133
H 0.650241 1.765574 -0.989672
H -0.702032 -1.052626 1.200073
H -0.603410 0.649953 1.702827
H -1.772754 1.316347 -0.474231
H 0.564958 -1.752977 -1.018140
H 1.712940 -0.535835 -1.745358
H 2.852884 -0.233481 0.460574
H 1.746402 -1.470796 1.224258
