15
charge=0, multiplicity=1, basis=def2-TZVP
N 3.190131 -0.485585 -0.007151
C 2.188468 0.273951 -0.051350
O 0.949557 -0.228637 0.109800
C -0.144111 0.667834 -0.120847
C -1.373070 0.100821 0.515019
C -2.684348 0.335700 -0.132972
N -2.089722 -1.004064 -0.122845
H 4.046748 0.048520 -0.119701
H 2.208870 1.359983 -0.202652
H 0.085972 1.650362 0.305501
H -0.293773 0.785809 -1.200185
H -1.326747 0.024879 1.596077
H -3.571636 0.450153 0.476543
H -2.696778 0.896446 -1.061589
H -1.673607 -1.229351 -1.021524
