16
charge=0, multiplicity=1, basis=def2-TZVP
C 2.769541 -0.086091 -0.000074
N 1.431610 -0.639385 0.000267
C 0.310307 0.133729 -0.000182
O 0.346308 1.354985 0.000024
C -0.974309 -0.626821 0.000025
C -2.140523 -0.016971 0.744741
C -2.140553 -0.017140 -0.744766
H 2.677118 0.997062 -0.000112
H 3.324969 -0.395045 0.888317
H 3.324557 -0.395125 -0.888701
H 1.319893 -1.638124 -0.000152
H -0.900421 -1.707222 0.000192
H -2.801484 -0.695045 1.266505
H -1.940798 0.922297 1.240579
H -1.940767 0.922038 -1.240758
H -2.801569 -0.695258 -1.266395
