16
charge=0, multiplicity=1, basis=def2-TZVP
C 2.232186 -0.552116 -0.438239
C 0.766933 -0.745485 -0.168286
N 0.266982 -0.465427 1.167772
C -0.182945 0.402735 0.072217
C 0.253551 1.845201 0.078896
C -1.563089 0.149472 -0.425989
O -2.208283 -0.836275 -0.157299
H 2.643795 0.262983 0.153636
H 2.776841 -1.461164 -0.173904
H 2.411336 -0.347872 -1.495879
H 0.315630 -1.591283 -0.679389
H -0.490805 -1.106964 1.395705
H 1.281829 1.941887 0.416533
H 0.176213 2.279433 -0.920649
H -0.372831 2.431753 0.754412
H -1.984441 0.940579 -1.078076
