15
charge=0, multiplicity=1, basis=def2-TZVP
O -0.517925 1.516035 -0.234485
C -0.635473 0.121893 -0.134720
C 0.518937 -0.635650 -0.769967
C 1.789366 -0.309458 -0.131479
C 2.807819 0.006570 0.419473
C -1.316157 -0.442227 1.076881
C -2.022051 -0.400450 -0.266148
H 0.272277 1.780335 0.255061
H 0.336836 -1.710988 -0.702271
H 0.568153 -0.380122 -1.832633
H 3.719805 0.267170 0.897659
H -0.987583 -1.399805 1.458869
H -1.641496 0.265172 1.826646
H -2.802815 0.335998 -0.393960
H -2.176426 -1.330109 -0.797728
