16
charge=0, multiplicity=1, basis=def2-TZVP
C -0.000025 1.838085 0.753436
C 0.000025 1.838128 -0.753406
C -0.429000 0.609701 -0.000035
C 0.429000 -0.609701 -0.000035
C 0.000025 -1.838085 0.753436
C -0.000025 -1.838128 -0.753406
H 0.957026 1.804303 1.257958
H -0.753322 2.420530 1.266555
H -0.753238 2.420602 -1.266542
H 0.957110 1.804377 -1.257867
H -1.493907 0.401438 -0.000077
H 1.493907 -0.401438 -0.000077
H 0.753322 -2.420530 1.266555
H -0.957026 -1.804303 1.257958
H -0.957110 -1.804377 -1.257867
H 0.753238 -2.420602 -1.266542
