15
charge=0, multiplicity=1, basis=def2-TZVP
C -0.000000 1.633416 -0.272119
C 0.900271 0.592663 0.418175
O -0.000000 0.000000 1.370822
C -0.900271 -0.592663 0.418175
C -0.000000 -1.633416 -0.272119
C 0.687254 -0.379229 -0.816313
C -0.687254 0.379229 -0.816313
H -0.543553 2.320992 0.375723
H 0.515265 2.169494 -1.069988
H 1.862090 0.814321 0.869475
H -1.862090 -0.814321 0.869475
H 0.543553 -2.320992 0.375723
H -0.515265 -2.169494 -1.069988
H 1.397692 -0.354204 -1.636960
H -1.397692 0.354204 -1.636960
