15
charge=0, multiplicity=1, basis=def2-TZVP
C -0.000000 -0.000000 1.843199
C -0.938441 0.000000 0.620289
C -0.000000 1.030324 -0.106716
C -0.000000 0.666380 -1.578268
C 0.000000 -0.666380 -1.578268
C -0.000000 -1.030324 -0.106716
C 0.938441 -0.000000 0.620289
H -0.000000 0.899340 2.460435
H -0.000000 -0.899340 2.460435
H -2.029512 0.000000 0.603061
H -0.000000 2.072173 0.206358
H -0.000000 1.352126 -2.411280
H 0.000000 -1.352126 -2.411280
H -0.000000 -2.072173 0.206358
H 2.029512 -0.000000 0.603061
