16
charge=0, multiplicity=1, basis=def2-TZVP
C 2.180625 -0.056188 0.090005
C 0.735669 -0.036471 -0.383345
C -0.138881 -1.178648 0.145896
C -1.550337 -0.627145 -0.039839
O -1.440550 0.800747 0.040461
C -0.064963 1.176856 0.088143
H 2.230201 -0.046241 1.181728
H 2.698958 -0.950503 -0.260635
H 2.732172 0.811584 -0.278146
H 0.712279 -0.059664 -1.477968
H 0.019172 -2.120105 -0.380640
H 0.074885 -1.343319 1.205660
H -1.957943 -0.895025 -1.020653
H -2.248278 -0.971540 0.726156
H 0.214095 1.441164 1.117525
H 0.076178 2.057244 -0.541878
