16
charge=0, multiplicity=1, basis=def2-TZVP
C 2.089389 0.447660 -0.002940
C 0.773398 -0.040258 -0.555116
N 0.171988 -1.359094 -0.000563
C -0.303192 -0.528901 1.199714
C -0.595685 0.386424 -0.007332
O -1.080100 1.688748 -0.049580
C -1.124379 -0.898777 -0.678035
H 2.881898 -0.257528 -0.261233
H 2.334399 1.409389 -0.457774
H 2.093431 0.582169 1.077058
H 0.823009 -0.084025 -1.645371
H -1.153215 -0.976594 1.714654
H 0.481019 -0.255942 1.899036
H -1.950702 1.718813 0.364069
H -1.095379 -0.959720 -1.765359
H -2.014765 -1.369778 -0.262242
