15
charge=0, multiplicity=1, basis=def2-TZVP
O 1.908779 0.494996 -0.604778
C 0.708671 0.173203 0.039194
C 0.617631 -1.049712 0.913578
C -0.116282 -1.006800 -0.409034
C -1.575590 -0.574812 -0.414060
C -1.527247 0.844094 0.107640
C -0.280111 1.252682 0.329619
H 2.569548 0.704702 0.064598
H 1.489660 -1.690815 0.941834
H 0.055564 -0.986512 1.837209
H 0.259785 -1.642379 -1.197621
H -2.006608 -0.613965 -1.419301
H -2.197084 -1.217352 0.217725
H -2.418637 1.427355 0.296266
H 0.015117 2.227071 0.695893
