17
charge=0, multiplicity=1, basis=def2-TZVP
C 0.000000 -0.000000 1.902561
C 0.000000 0.936128 0.676841
C 1.034567 -0.000000 -0.021452
C 0.776008 0.000000 -1.522637
C -0.776008 -0.000000 -1.522637
C -1.034567 0.000000 -0.021452
C -0.000000 -0.936128 0.676841
H 0.899913 -0.000000 2.519532
H -0.899913 0.000000 2.519532
H 0.000000 2.026309 0.665422
H 2.064146 -0.000000 0.334723
H 1.196109 0.880810 -2.011920
H 1.196109 -0.880810 -2.011920
H -1.196109 0.880810 -2.011920
H -1.196109 -0.880810 -2.011920
H -2.064146 0.000000 0.334723
H -0.000000 -2.026309 0.665422
