16
charge=0, multiplicity=1, basis=def2-TZVP
C -1.940399 1.044849 0.039577
C -1.535229 -0.393903 0.180178
O -0.685814 -0.961552 -0.836907
C -0.173423 -0.841362 0.495170
C 0.980478 0.093221 0.682366
C 2.222636 -0.125352 -0.093037
N 1.354062 1.025264 -0.381001
H -1.089329 1.695860 -0.148000
H -2.656141 1.156748 -0.777563
H -2.429994 1.376746 0.958201
H -2.342119 -1.066379 0.464871
H -0.067330 -1.792620 1.014448
H 1.062619 0.500005 1.686028
H 3.184379 0.117284 0.341310
H 2.228416 -0.946730 -0.800791
H 0.793201 0.809940 -1.201774
