15
charge=0, multiplicity=1, basis=def2-TZVP
C -2.444346 0.281896 0.026735
C -1.361512 -0.736087 -0.321787
C -0.076215 -0.514363 0.465330
C 1.178808 -1.305388 0.068114
O 1.871579 -0.053113 -0.265301
C 0.768005 0.695888 0.062203
O 0.643631 1.874236 -0.013231
H -2.717024 0.216664 1.082426
H -2.101190 1.298442 -0.166819
H -3.345234 0.106929 -0.562658
H -1.720076 -1.749892 -0.121852
H -1.136761 -0.690509 -1.391457
H -0.273307 -0.519791 1.539099
H 1.702070 -1.831435 0.863619
H 1.081402 -1.931077 -0.817678
