15
charge=0, multiplicity=1, basis=def2-TZVP
C -1.566787 -0.815253 0.119967
C -0.754159 0.330575 -0.430521
C 0.000025 1.258890 0.485940
C 0.754170 0.330565 -0.430544
C 1.566763 -0.815283 0.119970
H -1.118785 -1.236315 1.020331
H -2.573376 -0.481810 0.383124
H -1.663621 -1.621947 -0.611139
H -1.204846 0.804370 -1.295888
H 0.000027 2.320331 0.276583
H 0.000054 1.014262 1.541690
H 1.204846 0.804345 -1.295922
H 1.118509 -1.236535 1.020113
H 1.663861 -1.621850 -0.611240
H 2.573254 -0.481816 0.383468
