16
charge=0, multiplicity=1, basis=def2-TZVP
C 2.137042 -1.250206 -0.045375
C 1.297895 -0.040182 0.316145
C 1.844209 1.247872 -0.286299
O -0.028808 -0.326655 -0.153273
C -1.017536 0.539341 0.343636
C -2.336143 0.005820 0.000807
N -3.385230 -0.386018 -0.254852
H 3.156962 -1.127664 0.321410
H 1.713178 -2.153548 0.392319
H 2.170849 -1.374931 -1.128950
H 1.254839 0.059882 1.410223
H 2.867575 1.414399 0.053661
H 1.848357 1.180214 -1.375672
H 1.258183 2.120764 0.004631
H -0.955604 0.631496 1.436994
H -0.940069 1.548883 -0.077949
