15
charge=0, multiplicity=1, basis=def2-TZVP
C 1.979653 -0.661756 -0.650662
C 1.125034 -0.137098 0.499263
C 0.622426 1.305746 0.268329
N -0.662625 1.070392 -0.368509
C -1.168719 -0.170821 -0.021215
O -2.283025 -0.589334 -0.248949
N -0.147390 -0.840614 0.631852
H 1.454054 -0.551681 -1.600691
H 2.923540 -0.115831 -0.709214
H 2.212942 -1.718607 -0.507399
H 1.687222 -0.196420 1.432764
H 0.519183 1.836390 1.220852
H 1.298182 1.869311 -0.375558
H -1.325088 1.813487 -0.513087
H -0.186090 -1.846857 0.626239
