16
charge=0, multiplicity=1, basis=def2-TZVP
C -0.569187 -1.259450 -0.814021
C -0.411875 -0.000001 0.033380
C -0.568465 1.261096 -0.811691
O -1.367577 -0.000757 1.105791
C 0.928211 -0.001023 0.767211
O 1.977716 0.000333 -0.194882
H 0.209790 -1.314458 -1.573830
H -0.506717 -2.147024 -0.183086
H -1.539628 -1.260537 -1.316919
H -1.538714 1.263447 -1.314965
H -0.505945 2.147445 -0.179049
H 0.210885 1.317265 -1.571023
H -2.251082 -0.000682 0.721970
H 0.973950 0.886455 1.407409
H 0.974007 -0.890259 1.404943
H 2.820236 -0.001994 0.268011
