15
charge=0, multiplicity=1, basis=def2-TZVP
C -1.859568 -0.776156 -0.476473
C -0.712324 -0.038092 0.112708
C 0.069523 -0.410519 1.346153
C 0.781790 -0.162329 0.038327
O 1.556230 -1.103605 -0.616302
C 0.790542 1.324684 -0.266238
O -0.652914 1.388986 -0.071517
H -1.708672 -1.851063 -0.372287
H -2.789187 -0.509788 0.032009
H -1.964358 -0.538516 -1.536138
H 0.151816 0.286876 2.172914
H 0.003181 -1.457714 1.615671
H 2.282294 -1.368262 -0.039776
H 1.331663 1.991985 0.409331
H 1.046952 1.537902 -1.306041
