17
charge=0, multiplicity=1, basis=def2-TZVP
C -2.203541 -0.828379 -0.269420
C -1.241211 0.317461 -0.446358
C -0.813087 1.165214 0.744843
C 0.145526 0.239101 0.083045
C 0.916750 -0.945395 0.643410
C 2.090533 -0.367699 -0.166435
O 1.272207 0.722462 -0.659842
H -2.026307 -1.347233 0.675296
H -3.238256 -0.478092 -0.262520
H -2.102316 -1.560390 -1.074401
H -1.328414 0.862351 -1.380254
H -0.666093 2.224825 0.582136
H -1.190955 0.898074 1.725045
H 1.049534 -0.946857 1.723790
H 0.563715 -1.922526 0.317021
H 2.933827 0.000835 0.421201
H 2.457785 -0.992499 -0.983093
