16
charge=0, multiplicity=1, basis=def2-TZVP
C -1.058435 0.000000 -0.849317
C -0.000000 -1.024347 -0.358499
C 1.058435 -0.000000 -0.849317
C 0.000000 1.024347 -0.358499
C 0.000000 0.780970 1.159307
C -0.000000 -0.780970 1.159307
H -1.170878 0.000000 -1.932915
H -2.037237 0.000000 -0.365572
H -0.000000 -2.057792 -0.698820
H 2.037237 -0.000000 -0.365572
H 1.170878 -0.000000 -1.932915
H 0.000000 2.057792 -0.698820
H 0.882474 1.200334 1.644180
H -0.882474 1.200334 1.644180
H -0.882474 -1.200334 1.644180
H 0.882474 -1.200334 1.644180
