15
charge=0, multiplicity=1, basis=def2-TZVP
C 2.525195 0.079356 -0.163826
O 1.313743 -0.647863 -0.149320
C 0.293197 0.004026 0.544042
C -0.419058 1.257398 -0.093886
C -1.729896 0.485630 0.047669
O -1.600578 -0.685587 -0.758809
C -1.047737 -0.715976 0.558910
H 3.253348 -0.518061 -0.709194
H 2.407908 1.046333 -0.666947
H 2.895701 0.257255 0.854111
H 0.607751 0.240391 1.569989
H -0.341624 2.152895 0.520809
H -0.150114 1.478460 -1.125947
H -2.726903 0.852438 0.246188
H -1.381583 -1.504721 1.218569
