16
charge=0, multiplicity=1, basis=def2-TZVP
O -2.282458 0.051394 -0.325986
C -1.138098 0.033485 0.065476
C -0.337045 1.294417 0.321329
C 1.077088 1.206616 -0.273570
C 1.746794 -0.114188 0.108863
N 0.956614 -1.289876 -0.245781
C -0.387732 -1.264559 0.333715
H -0.896364 2.149959 -0.055965
H -0.258062 1.401926 1.410445
H 1.014842 1.272002 -1.364524
H 1.679179 2.055957 0.060558
H 2.724875 -0.200283 -0.367829
H 1.916539 -0.142287 1.190974
H 0.888364 -1.368368 -1.254486
H -0.295741 -1.386918 1.420167
H -0.976298 -2.098629 -0.045862
