17
charge=0, multiplicity=1, basis=def2-TZVP
C 2.087253 -0.035964 -0.110212
C 0.755965 -0.670650 0.283712
C -0.480799 -0.002892 -0.331057
C -1.740010 -0.807699 -0.008309
C -0.641340 1.449105 0.121658
H 2.926566 -0.602445 0.297344
H 2.201676 -0.009380 -1.196989
H 2.174986 0.987562 0.257154
H 0.762683 -1.724278 -0.012272
H 0.653354 -0.662773 1.375017
H -0.349063 -0.004317 -1.420390
H -1.913726 -0.836439 1.071226
H -2.623578 -0.366598 -0.474362
H -1.653433 -1.838490 -0.358584
H -1.535722 1.897296 -0.315999
H -0.741166 1.503325 1.209821
H 0.211008 2.065139 -0.166718
