16
charge=0, multiplicity=1, basis=def2-TZVP
C -1.599674 -1.260936 -0.053664
C -0.751496 -0.000079 0.016642
C -1.596468 1.263073 -0.051668
C 0.339021 -0.001819 1.134066
C 1.370224 -0.001243 -0.009385
O 2.570249 0.000394 -0.091547
N 0.374330 -0.000731 -0.945301
H -0.973301 -2.152167 -0.003183
H -2.312655 -1.290075 0.772424
H -2.167622 -1.294205 -0.986389
H -2.309265 1.292787 0.774551
H -0.967874 2.152677 0.000130
H -2.164437 1.299190 -0.984274
H 0.368575 0.889511 1.758215
H 0.367613 -0.894532 1.756265
H 0.407031 0.004804 -1.954200
