15
charge=0, multiplicity=1, basis=def2-TZVP
C 3.150742 0.182516 0.151259
C 1.760688 -0.184474 -0.074251
C 0.620803 -0.527740 -0.256936
C -0.760301 -0.838947 -0.471415
C -1.731323 -0.828623 0.707211
C -1.763184 0.286830 -0.283653
O -1.313747 1.556587 0.070494
H 3.793068 -0.700641 0.130536
H 3.509199 0.875432 -0.613106
H 3.276243 0.661950 1.124571
H -0.964177 -1.544576 -1.267277
H -2.527092 -1.561301 0.703128
H -1.307203 -0.604759 1.675991
H -2.588406 0.326851 -0.984122
H -0.346205 1.556974 0.033038
