15
charge=0, multiplicity=1, basis=def2-TZVP
O -2.679286 -0.000072 -0.271301
C -1.282232 -0.000023 -0.420229
C -0.435941 1.083819 0.282208
C 0.645484 0.000088 0.591835
C -0.435858 -1.083775 0.282283
C 1.764434 0.000026 -0.401652
O 2.934708 -0.000062 -0.119212
H -2.892922 -0.000020 0.668884
H -1.107772 -0.000063 -1.496345
H -0.137527 1.957125 -0.297347
H -0.907953 1.420337 1.206617
H 1.065567 0.000162 1.595081
H -0.907874 -1.420252 1.206711
H -0.137319 -1.957089 -0.297183
H 1.447104 0.000055 -1.468985
