15
charge=0, multiplicity=1, basis=def2-TZVP
O -0.169774 -2.313407 -0.000000
C -0.722328 -1.017910 -0.000000
C -0.169774 0.053686 0.949794
C 1.040321 0.379043 -0.000000
C 0.726221 1.882113 0.000000
C -0.651273 1.201294 0.000000
C -0.169774 0.053686 -0.949794
H 0.791745 -2.242416 -0.000000
H -1.805258 -1.149913 0.000000
H -0.158891 0.082696 2.038433
H 2.016301 -0.104993 -0.000000
H 0.998223 2.439601 0.898425
H 0.998223 2.439601 -0.898425
H -1.643621 1.648515 0.000000
H -0.158891 0.082696 -2.038433
