15
charge=0, multiplicity=1, basis=def2-TZVP
C 0.721636 -1.791462 -0.000000
C -0.805114 -1.751752 -0.000000
C -0.015783 -0.504025 -0.000000
C -0.015783 0.733625 0.898578
C 1.078102 1.353163 0.000000
C -0.015783 0.733625 -0.898578
O -1.039985 1.335651 -0.000000
H 1.217667 -2.104666 0.910040
H 1.217667 -2.104666 -0.910040
H -1.316332 -2.038075 -0.909964
H -1.316332 -2.038075 0.909964
H -0.170531 0.819383 1.971694
H 1.113747 2.440266 0.000000
H 2.060871 0.882190 0.000000
H -0.170531 0.819383 -1.971694
