16
charge=0, multiplicity=1, basis=def2-TZVP
C 2.157161 -0.225015 -0.246559
C 0.894086 0.172854 0.486971
O 0.271989 1.251985 -0.225587
C -1.145410 1.178285 -0.098044
C -1.453627 -0.265333 0.212277
N -0.794962 -1.196376 -0.721769
C -0.174253 -0.895939 0.581127
H 1.903083 -0.603116 -1.236319
H 2.818350 0.634931 -0.355980
H 2.690632 -1.000611 0.307335
H 1.135515 0.498746 1.509783
H -1.503199 1.816221 0.721432
H -1.579194 1.527195 -1.036863
H -2.393393 -0.534898 0.676637
H -1.251741 -2.101977 -0.680721
H -0.098976 -1.666855 1.337142
