16
charge=0, multiplicity=1, basis=def2-TZVP
C -1.906559 -1.007002 -0.331365
C -0.783148 -0.786339 0.681608
C 0.400437 -0.051775 0.099210
C 1.791612 -0.435686 0.490808
N 1.310692 -0.730809 -0.850764
C 0.211788 1.387266 -0.241315
O -0.723931 2.055270 0.118480
H -2.296242 -0.055503 -0.692144
H -1.557271 -1.579364 -1.193724
H -2.731298 -1.558174 0.122371
H -1.161045 -0.210365 1.528951
H -0.439568 -1.746452 1.077020
H 2.571972 0.314357 0.544958
H 1.875650 -1.236222 1.216751
H 1.039341 -1.705916 -0.933140
H 1.030280 1.812360 -0.857203
