15
charge=0, multiplicity=1, basis=def2-TZVP
C 1.607909 1.211033 -0.319297
C 0.580388 0.187103 0.047844
C 0.914007 -1.095828 0.794779
C 0.248777 -1.225324 -0.522382
C -1.255505 -0.993676 -0.347795
C -0.891549 0.429334 0.137060
O -1.540755 1.427441 0.284424
H 1.269092 1.820539 -1.158741
H 1.803141 1.880754 0.520853
H 2.550720 0.735876 -0.595588
H 1.976543 -1.301536 0.828256
H 0.380673 -1.362536 1.700551
H 0.715854 -1.684518 -1.380811
H -1.818676 -0.930235 -1.279563
H -1.775468 -1.653727 0.348393
