16
charge=0, multiplicity=1, basis=def2-TZVP
C 3.419615 -0.000806 0.000265
C 2.023916 -0.617983 -0.000184
C 0.937112 0.436919 -0.000060
O -0.329207 -0.210835 -0.000276
C -1.397398 0.700478 -0.000089
C -2.662973 -0.032922 0.000170
N -3.673516 -0.578733 0.000173
H 3.579012 0.623032 0.882724
H 4.186667 -0.775575 0.000373
H 3.579526 0.623279 -0.881932
H 1.890015 -1.255172 -0.877368
H 1.889696 -1.255653 0.876603
H 1.023536 1.081098 0.886646
H 1.023698 1.081482 -0.886465
H -1.372587 1.350614 0.885737
H -1.372929 1.350600 -0.885936
