15
charge=0, multiplicity=1, basis=def2-TZVP
N 0.787407 1.642436 -0.216262
C 0.726616 0.300991 0.361723
C -0.504383 -0.460574 -0.142290
C -1.804195 0.216314 0.252414
O -2.864015 -0.619976 -0.201368
C 1.948987 -0.487948 0.106036
N 2.917245 -1.066014 -0.122353
H 1.574277 2.161760 0.154426
H 0.908880 1.586741 -1.221848
H 0.646453 0.415446 1.446706
H -0.455238 -0.552996 -1.230299
H -0.491529 -1.473640 0.263219
H -1.841267 0.335275 1.343703
H -1.862698 1.211578 -0.194927
H -3.701468 -0.172010 -0.047033
