15
charge=0, multiplicity=1, basis=def2-TZVP
C 2.474804 -0.754639 0.314163
C 1.343499 0.153453 -0.098247
O 1.441961 1.357089 -0.082636
C 0.063860 -0.533581 -0.563741
C -1.166825 0.294203 -0.325876
C -2.485882 -0.321131 -0.191973
O -1.777928 0.143303 0.960999
H 3.386460 -0.180423 0.461279
H 2.205197 -1.256928 1.247629
H 2.635234 -1.536403 -0.432352
H 0.186582 -0.717797 -1.638656
H -0.041584 -1.510031 -0.086744
H -1.102666 1.323157 -0.664040
H -3.374892 0.245931 -0.449961
H -2.583331 -1.400467 -0.270010
