15
charge=0, multiplicity=1, basis=def2-TZVP
C 1.322334 -0.720836 -0.282092
O 1.666111 -0.738815 1.120235
C 0.439369 -0.060493 1.466669
C -0.000025 -0.000025 0.000021
C -0.405987 1.302792 -0.696897
O -1.666034 0.738835 -1.120342
C -1.355763 -0.521475 -0.487620
H 2.048156 -0.154541 -0.873090
H 1.227649 -1.730635 -0.692152
H -0.192603 -0.668471 2.120717
H 0.627857 0.907661 1.939907
H -0.545437 2.163864 -0.036663
H 0.217570 1.593560 -1.547454
H -1.310250 -1.341028 -1.210843
H -2.073129 -0.770343 0.299943
