15
charge=0, multiplicity=1, basis=def2-TZVP
C -2.411152 0.885106 -0.245782
C -1.732391 -0.307869 0.360120
O -0.939481 -1.133827 -0.505019
C -0.284440 -0.438120 0.565542
C 0.730967 0.611007 0.182753
C 1.987934 -0.027030 -0.360319
O 3.092443 0.173746 0.072885
H -1.756191 1.429510 -0.923520
H -3.288055 0.565722 -0.812065
H -2.747962 1.565889 0.539370
H -2.360108 -0.885295 1.036505
H 0.040711 -1.094774 1.370472
H 0.323203 1.253490 -0.601604
H 0.992448 1.227329 1.044712
H 1.826746 -0.719789 -1.210677
