15
charge=0, multiplicity=1, basis=def2-TZVP
C -1.995504 -0.900234 0.311823
C -1.237860 0.019852 -0.641249
C 0.167536 0.323228 -0.165358
C 0.746169 1.664735 -0.345396
O 0.250965 1.263018 0.928783
C 1.060462 -0.808682 -0.067045
C 1.775643 -1.770056 -0.008222
H -1.494024 -1.864055 0.408196
H -2.063239 -0.452535 1.304140
H -3.008359 -1.080196 -0.050485
H -1.174525 -0.430360 -1.635537
H -1.764766 0.970208 -0.746608
H 1.823448 1.774462 -0.411865
H 0.157568 2.419476 -0.858920
H 2.417503 -2.614201 0.053499
