15
charge=0, multiplicity=1, basis=def2-TZVP
C 2.783396 -0.239949 0.204132
C 1.601873 -0.109004 0.020306
C 0.203848 0.020905 -0.197260
C -0.447144 1.331790 -0.562362
C -0.875766 0.666295 0.701068
C -1.834013 -0.484236 0.402110
C -0.756077 -1.136919 -0.514729
H 3.826600 -0.351800 0.366721
H 0.188216 2.199068 -0.446372
H -1.116841 1.367809 -1.416102
H -0.724568 1.130092 1.665383
H -2.051387 -1.096055 1.275689
H -2.775503 -0.199283 -0.071574
H -1.004049 -1.256505 -1.570739
H -0.399167 -2.086616 -0.122597
