17
charge=0, multiplicity=1, basis=def2-TZVP
C 0.000000 1.635832 -0.312325
C 0.945284 0.626732 0.383241
C -0.000000 0.000000 1.423717
C -0.945284 -0.626732 0.383241
C -0.000000 -1.635832 -0.312325
C 0.686151 -0.369982 -0.829410
C -0.686151 0.369982 -0.829410
H -0.549703 2.338676 0.317895
H 0.487456 2.171671 -1.128433
H 1.949001 0.902990 0.696006
H 0.468355 -0.752687 2.059439
H -0.468355 0.752687 2.059439
H -1.949001 -0.902990 0.696006
H 0.549703 -2.338676 0.317895
H -0.487456 -2.171671 -1.128433
H 1.380745 -0.341864 -1.665095
H -1.380745 0.341864 -1.665095
