18
charge=0, multiplicity=1, basis=def2-TZVP
C -2.221538 -0.000012 0.051529
C -0.757834 -0.000140 -0.362788
C 0.053895 1.193084 0.155662
C 1.525398 0.777545 -0.026708
C 1.525358 -0.777497 -0.027299
C 0.054051 -1.193039 0.156138
H -2.312560 0.000387 1.141228
H -2.743260 0.881998 -0.326584
H -2.743298 -0.882257 -0.325983
H -0.700711 -0.000399 -1.458701
H -0.190655 2.127154 -0.353063
H -0.171721 1.335634 1.217614
H 1.911325 1.155357 -0.975040
H 2.162817 1.188939 0.756428
H 1.910160 -1.154563 -0.976394
H 2.163619 -1.189605 0.754774
H -0.170965 -1.334814 1.218321
H -0.190736 -2.127474 -0.351805
