15
charge=0, multiplicity=1, basis=def2-TZVP
C 2.210739 -0.694362 0.006700
C 0.700023 -0.654095 0.013011
C -0.026128 0.387498 0.902115
O 0.418981 1.466245 -0.011368
C -0.034554 0.365201 -0.898453
C -1.283704 0.267794 -0.006361
O -2.025042 -0.923071 -0.069879
H 2.629979 0.310746 -0.011049
H 2.584776 -1.210642 0.893835
H 2.576750 -1.238700 -0.866803
H 0.248609 -1.645681 0.026702
H 0.056003 0.571605 1.972031
H 0.037821 0.521476 -1.972889
H -1.903762 1.165202 -0.016776
H -2.779947 -0.851618 0.522847
