17
charge=0, multiplicity=1, basis=def2-TZVP
C -2.606239 -0.359081 -0.054813
C -1.453031 0.587160 -0.371445
C -0.212835 0.312069 0.474645
O 0.276234 -1.018376 0.231366
C 1.646708 -0.984537 -0.166435
C 2.000481 0.470212 -0.210359
C 0.958353 1.197278 0.161898
H -2.915399 -0.264159 0.989113
H -3.473987 -0.145731 -0.681118
H -2.309444 -1.394395 -0.222873
H -1.171635 0.506569 -1.425081
H -1.758463 1.624579 -0.199919
H -0.490477 0.386520 1.537186
H 2.257283 -1.539169 0.558186
H 1.761509 -1.477047 -1.139719
H 2.974391 0.836587 -0.502269
H 0.915722 2.274650 0.234624
