16
charge=0, multiplicity=1, basis=def2-TZVP
C 0.863862 1.808086 0.060756
C 0.440355 0.379310 -0.309299
C 1.544673 -0.560409 -0.090324
N 2.411032 -1.292489 0.099956
C -0.792823 -0.070407 0.453448
C -2.150179 0.293392 -0.075433
C -1.680881 -1.137107 -0.111574
H 0.041094 2.492920 -0.144120
H 1.110697 1.871143 1.120902
H 1.735441 2.122320 -0.512704
H 0.210365 0.346259 -1.379428
H -0.668035 -0.060485 1.529816
H -2.919383 0.567196 0.633174
H -2.197405 0.832100 -1.013380
H -1.412383 -1.556913 -1.072261
H -2.127651 -1.844312 0.572870
