16
charge=0, multiplicity=1, basis=def2-TZVP
C 2.289369 -0.174746 0.496107
C 1.117989 -0.230971 -0.465597
C 0.056638 -1.350511 -0.256143
N -0.921850 -0.288969 -0.014983
C -2.322745 -0.319106 0.303628
C -0.041523 0.745049 -0.172096
O -0.170443 1.940946 -0.087578
H 1.949635 -0.264372 1.530194
H 3.001817 -0.978240 0.300009
H 2.813427 0.776731 0.398293
H 1.451397 -0.155953 -1.501786
H -0.163214 -1.967090 -1.130919
H 0.234164 -1.991323 0.611745
H -2.505740 -0.851315 1.241376
H -2.662998 0.710081 0.410959
H -2.900360 -0.801593 -0.489760
