16
charge=0, multiplicity=1, basis=def2-TZVP
C 2.185473 -0.674851 -0.109431
C 0.889864 -0.000216 0.338186
C 0.859585 1.471450 -0.075717
C -0.331177 -0.755527 -0.215019
C -1.624682 -0.253507 0.361753
O -2.568307 0.133876 -0.277074
H 3.055780 -0.155366 0.295949
H 2.228710 -1.714623 0.220739
H 2.269866 -0.665147 -1.199166
H 0.843475 -0.049359 1.432589
H 0.897979 1.565561 -1.164017
H -0.048690 1.971735 0.265383
H 1.714416 2.009311 0.337894
H -0.376971 -0.687804 -1.303902
H -0.247451 -1.814653 0.058093
H -1.665029 -0.254760 1.474394
