15
charge=0, multiplicity=1, basis=def2-TZVP
O 2.467925 -0.274505 -0.298060
C 1.447329 -0.003782 0.662298
C 0.087049 0.038663 0.054718
C -0.501786 1.272601 -0.606525
C -1.217751 0.626347 0.530629
O -1.981810 -0.494711 0.081576
C -0.757033 -1.164630 -0.342566
H 2.386170 0.372423 -1.008172
H 1.517101 -0.812082 1.392541
H 1.646412 0.938163 1.189469
H 0.009142 2.198264 -0.368226
H -0.930944 1.218348 -1.600483
H -1.509648 1.112832 1.451515
H -0.782424 -1.447332 -1.396793
H -0.571580 -2.042077 0.280695
