16
charge=0, multiplicity=1, basis=def2-TZVP
C 2.487226 -0.954450 -0.074041
C 1.391618 0.024733 0.317489
O 1.615805 1.315459 -0.255061
C 0.001357 -0.498861 -0.037674
C -1.103296 0.468260 0.408533
C -2.430091 0.013807 0.013646
N -3.466066 -0.366320 -0.310373
H 3.465712 -0.551849 0.187610
H 2.358608 -1.912002 0.433700
H 2.467921 -1.143560 -1.151604
H 1.436575 0.201822 1.395956
H 1.752050 1.209277 -1.204293
H -0.062673 -0.651548 -1.119228
H -0.153246 -1.474620 0.428114
H -1.086977 0.586660 1.495171
H -0.922826 1.455458 -0.020040
