17
charge=0, multiplicity=1, basis=def2-TZVP
C 2.263534 -0.186579 -0.187169
C 0.780220 -0.342908 -0.462320
C -0.152946 -0.709344 0.741737
C -0.153240 0.807982 1.098802
C -0.125459 0.914814 -0.438656
O -1.410743 0.384810 -0.819803
C -1.490006 -0.804678 0.011102
H 2.475162 0.412762 0.697935
H 2.727817 -1.164332 -0.040646
H 2.762209 0.288572 -1.034939
H 0.630168 -0.955579 -1.354534
H 0.091714 -1.487807 1.460847
H -1.029695 1.215760 1.601274
H 0.757234 1.138530 1.588378
H 0.077018 1.827745 -0.991508
H -1.580081 -1.691617 -0.620038
H -2.358212 -0.738242 0.670675
