15
charge=0, multiplicity=1, basis=def2-TZVP
C -2.285956 -0.822552 0.304824
C -1.594764 0.337171 -0.366416
C -0.722632 1.270326 0.392427
N -0.149224 0.379519 -0.612338
C 0.676510 -0.717944 -0.135664
C 2.062516 -0.273066 0.023926
N 3.148809 0.070958 0.171752
H -1.778344 -1.151308 1.211000
H -3.296864 -0.525494 0.589874
H -2.372234 -1.676055 -0.371771
H -2.149271 0.748515 -1.204055
H -0.687136 2.326652 0.157514
H -0.542822 1.029971 1.436931
H 0.359220 -1.146184 0.824260
H 0.656315 -1.523046 -0.874224
