17
charge=0, multiplicity=1, basis=def2-TZVP
C 2.642253 0.174644 -0.171552
C 1.382519 -0.684666 -0.099281
C 0.236305 0.014837 0.607700
C -0.438885 1.260010 -0.078951
C -1.767541 0.507386 -0.026116
O -1.593622 -0.708686 -0.765115
C -1.139395 -0.665111 0.594361
H 2.452201 1.107427 -0.707321
H 3.000995 0.435273 0.827366
H 3.449153 -0.346182 -0.689746
H 1.057086 -0.958612 -1.105512
H 1.604799 -1.620716 0.423758
H 0.517179 0.270058 1.632971
H -0.413697 2.152091 0.545540
H -0.098265 1.505775 -1.085077
H -2.774001 0.894358 0.054600
H -1.538002 -1.412584 1.267383
