19
charge=0, multiplicity=1, basis=def2-TZVP
C -0.580652 1.608713 0.000396
C -0.591170 0.096970 -0.000043
C -1.703738 -0.584006 0.754123
C -1.703984 -0.583505 -0.754289
C 0.736971 -0.605934 -0.000442
C 1.931814 -0.090024 -0.753727
C 1.931634 -0.091095 0.753865
H -1.600833 1.994180 0.001057
H -0.079208 2.008000 0.884577
H -0.080159 2.008504 -0.884095
H -1.478789 -1.513152 1.261308
H -2.428847 0.036787 1.264145
H -2.429247 0.037645 -1.263655
H -1.479217 -1.512315 -1.262175
H 0.634847 -1.685822 -0.001213
H 2.558146 -0.804860 -1.270055
H 1.850263 0.866384 -1.251305
H 1.849958 0.864602 1.252785
H 2.557836 -0.806668 1.269328
