15
charge=0, multiplicity=1, basis=def2-TZVP
O 2.372960 -0.401019 -0.187761
C 1.097376 -0.109220 0.362542
C 0.620127 1.248712 -0.160388
C -0.892584 1.234162 0.072007
C -1.291163 -0.237487 -0.017876
O -2.416607 -0.660559 -0.052369
C -0.017420 -1.075611 -0.048756
H 2.700965 -1.220969 0.196370
H 1.162259 -0.071756 1.458176
H 1.134265 2.078775 0.321387
H 0.845278 1.292028 -1.228801
H -1.151409 1.575627 1.079693
H -1.472849 1.836321 -0.626177
H 0.148586 -1.387494 -1.085969
H -0.115938 -1.973244 0.561183
