17
charge=0, multiplicity=1, basis=def2-TZVP
C 2.166638 -0.582997 -0.556361
C 0.734758 -0.779163 -0.132136
C 0.270051 -0.485314 1.247005
C -0.199725 0.411178 0.109049
C 0.294551 1.835069 0.003353
C -1.597151 0.192812 -0.335618
O -2.191774 -0.857562 -0.275895
H 2.654769 0.218507 -0.001996
H 2.735778 -1.497775 -0.376573
H 2.239080 -0.350727 -1.621052
H 0.227574 -1.609123 -0.610425
H -0.475580 -1.133142 1.687168
H 0.974410 -0.039119 1.937931
H 1.302568 1.941821 0.399018
H 0.307593 2.177274 -1.034442
H -0.350246 2.510660 0.570327
H -2.096489 1.092610 -0.754546
