16
charge=0, multiplicity=1, basis=def2-TZVP
C -0.888678 0.239442 1.268682
C -0.341586 1.179943 0.184528
C 1.164945 1.045294 -0.082573
C 0.839161 -0.220743 -0.888866
C 0.550014 -1.467170 -0.039125
C -0.846366 -0.882216 0.220187
N -0.651967 0.143921 -0.904991
H -0.303920 0.112043 2.181577
H -1.913658 0.495046 1.537288
H -0.785746 2.170598 0.100310
H 1.527931 1.845563 -0.727470
H 1.832814 0.950670 0.775636
H 1.349201 -0.362050 -1.840525
H 0.497692 -2.365260 -0.654559
H 1.192936 -1.663330 0.820938
H -1.698411 -1.558023 0.164745
