15
charge=0, multiplicity=1, basis=def2-TZVP
O -2.722050 -0.388450 0.088289
C -1.352166 -0.750789 -0.068170
C -0.616499 0.485134 -0.500107
C -0.064688 1.442571 0.488621
C 0.896742 0.621986 -0.358374
C 1.703736 -0.422344 0.295816
O 2.799457 -0.765047 -0.076174
H -3.233008 -1.181598 0.279928
H -0.946075 -1.136278 0.873193
H -1.241650 -1.533418 -0.828359
H -1.005900 0.908389 -1.418200
H -0.113991 2.503291 0.288648
H -0.139456 1.175022 1.535383
H 1.410077 1.120295 -1.169792
H 1.248001 -0.887078 1.195568
