17
charge=0, multiplicity=1, basis=def2-TZVP
C -3.472889 0.047592 0.014424
C -2.095100 -0.604910 -0.042385
C -0.965972 0.413670 0.008391
N 0.335492 -0.238264 -0.078877
C 1.441206 0.700743 0.015972
C 2.728730 0.008259 -0.013611
N 3.739511 -0.538499 -0.010507
H -3.602404 0.623835 0.933417
H -3.621303 0.727587 -0.827575
H -4.264393 -0.701914 -0.021557
H -1.984926 -1.302536 0.794869
H -1.991077 -1.195862 -0.955237
H -1.053668 1.100396 -0.839918
H -1.064392 1.028246 0.919948
H 0.422324 -0.946628 0.641139
H 1.400306 1.382851 -0.838107
H 1.418658 1.329236 0.921962
