17
charge=0, multiplicity=1, basis=def2-TZVP
C -1.483708 1.880084 -0.140542
C -0.248741 1.185024 0.419598
C 0.082172 -0.138250 -0.295636
C 1.418237 -0.722530 0.172414
O 2.444621 0.197420 -0.183031
C -0.973244 -1.130911 -0.118002
C -1.833105 -1.949097 0.060458
H -1.351829 2.119307 -1.198568
H -2.369245 1.249329 -0.048372
H -1.677830 2.814036 0.389314
H 0.623625 1.832929 0.328563
H -0.386405 0.975882 1.484362
H 0.183770 0.067762 -1.367655
H 1.383781 -0.878913 1.257159
H 1.577337 -1.692712 -0.309038
H 3.288023 -0.141617 0.131719
H -2.597856 -2.671276 0.207024
