15
charge=0, multiplicity=1, basis=def2-TZVP
C 2.436761 0.006710 0.372440
C 1.260944 -0.639007 -0.353955
C -0.031459 0.139159 -0.153055
O -0.062634 1.357704 -0.178425
N -1.143434 -0.624559 0.033236
C -2.469970 -0.062495 0.183515
H 2.293605 -0.024941 1.453977
H 3.367583 -0.510722 0.136947
H 2.530710 1.050853 0.078605
H 1.452764 -0.650600 -1.431354
H 1.137513 -1.680286 -0.044811
H -1.037045 -1.623792 0.041875
H -2.919102 -0.364148 1.132077
H -2.371622 1.020036 0.166296
H -3.126953 -0.372324 -0.632533
