16
charge=0, multiplicity=1, basis=def2-TZVP
C -0.328803 1.636631 0.004646
C -0.308327 0.129622 -0.103409
C 0.997534 -0.454946 -0.566806
O 2.007412 -0.156144 0.398169
C -1.107234 -0.674954 0.883816
C -1.558295 -0.579574 -0.550891
H -1.300706 1.989676 0.352948
H 0.432245 1.981606 0.705531
H -0.131513 2.099957 -0.966269
H 0.893586 -1.539914 -0.690281
H 1.264577 -0.027709 -1.542584
H 2.862509 -0.415708 0.041444
H -0.693406 -1.613566 1.227288
H -1.672259 -0.136124 1.632601
H -2.424416 0.028848 -0.775255
H -1.459165 -1.458588 -1.174913
