16
charge=0, multiplicity=1, basis=def2-TZVP
C 2.794003 -0.457090 -0.133866
C 1.321785 -0.769778 0.125231
C 0.555220 0.471196 0.506311
N 0.070391 1.323431 -0.566428
C -0.919211 0.655384 0.301571
C -1.751724 -0.387567 -0.346059
O -2.798300 -0.776609 0.108521
H 3.345504 -1.357363 -0.408129
H 2.895013 0.262910 -0.947849
H 3.269620 -0.032379 0.753551
H 0.878607 -1.213038 -0.767318
H 1.226399 -1.505130 0.929435
H 0.934969 0.969552 1.395728
H 0.135126 2.308704 -0.336354
H -1.446163 1.233541 1.052716
H -1.345848 -0.790811 -1.294069
