15
charge=0, multiplicity=1, basis=def2-TZVP
C 0.731348 2.091751 0.073744
O -0.119935 1.061592 -0.397226
C -0.009179 -0.159891 0.323656
C -1.175144 -1.030650 -0.146130
O -2.411906 -0.400701 0.111476
C 1.277628 -0.823136 0.108457
C 2.322053 -1.382037 -0.080890
H 0.531386 2.315722 1.128209
H 1.784698 1.818483 -0.039160
H 0.521111 2.973913 -0.527756
H -0.136273 0.041763 1.396562
H -1.041303 -1.243438 -1.212893
H -1.168470 -1.973234 0.399852
H -2.364947 0.478640 -0.284467
H 3.248298 -1.875199 -0.247369
