15
charge=0, multiplicity=1, basis=def2-TZVP
C -3.320243 -0.112696 0.618966
C -2.421240 -0.295686 -0.610689
C -1.040314 0.108146 -0.373785
C 0.087327 0.463256 -0.157315
C 1.473406 0.828201 0.094096
C 2.355246 -0.393410 0.315526
O 3.469419 -0.498050 -0.117177
H -4.340341 -0.426883 0.393442
H -2.954382 -0.706428 1.457091
H -3.342042 0.932151 0.929665
H -2.437401 -1.342682 -0.927604
H -2.820805 0.281699 -1.449724
H 1.899941 1.419156 -0.718717
H 1.542772 1.435142 1.006693
H 1.891813 -1.194621 0.925773
