15
charge=0, multiplicity=1, basis=def2-TZVP
C 2.557332 -0.470329 0.000006
C 1.101368 -0.156532 -0.000000
C -0.013257 -0.966784 -0.000019
C -1.125677 -0.089957 -0.000021
C -2.577448 -0.432842 0.000008
N -0.727613 1.176206 -0.000004
N 0.622164 1.111793 0.000042
H 3.057228 -0.063540 0.882613
H 2.705444 -1.548719 0.000167
H 3.057187 -0.063815 -0.882754
H -0.022521 -2.043767 -0.000004
H -2.845451 -1.020937 0.880633
H -3.172796 0.478844 -0.000427
H -2.845300 -1.021702 -0.880149
H 1.150443 1.966305 -0.000180
