18
charge=0, multiplicity=1, basis=def2-TZVP
C -0.000000 1.460002 -0.229182
C 1.264399 0.730001 0.229182
C 1.264399 -0.730001 -0.229182
C 0.000000 -1.460002 0.229182
C -1.264399 -0.730001 -0.229182
C -1.264399 0.730001 0.229182
H -0.000000 2.487700 0.142897
H -0.000000 1.523676 -1.323341
H 2.154412 1.243850 -0.142897
H 1.319542 0.761838 1.323341
H 1.319542 -0.761838 -1.323341
H 2.154412 -1.243850 0.142897
H 0.000000 -2.487700 -0.142897
H 0.000000 -1.523676 1.323341
H -1.319542 -0.761838 -1.323341
H -2.154412 -1.243850 0.142897
H -1.319542 0.761838 1.323341
H -2.154412 1.243850 -0.142897
