15
charge=0, multiplicity=1, basis=def2-TZVP
O 2.300132 -0.092904 -0.047573
C 0.920781 -0.010882 -0.003237
C -0.002635 1.079543 -0.624554
C -0.920781 0.010866 -0.003274
O -2.300129 0.092953 -0.047585
C 0.002679 -1.078648 -0.626137
C -0.000046 -0.000926 1.250753
H 2.673737 0.675407 0.398697
H -0.005644 2.057018 -0.141004
H -0.007203 1.150950 -1.711564
H -2.673758 -0.675453 0.398503
H 0.007307 -1.148445 -1.713251
H 0.005647 -2.056836 -0.144036
H -0.001471 -0.908322 1.855644
H 0.001366 0.905575 1.856981
