15
charge=0, multiplicity=1, basis=def2-TZVP
C 1.031087 1.873571 0.004309
C 0.125945 0.691598 -0.009773
C 0.394659 -0.665796 -0.007573
C 1.732934 -1.330952 0.001711
C -0.880225 -1.275726 0.002211
N -1.863267 -0.385010 0.004996
N -1.228267 0.800641 0.001415
H 1.277808 2.183953 1.023504
H 1.968163 1.641364 -0.502177
H 0.580541 2.728242 -0.504140
H 2.168478 -1.363760 1.004388
H 1.656208 -2.359121 -0.353787
H 2.445542 -0.812605 -0.643807
H -1.111202 -2.329966 0.000588
H -1.771200 1.646300 -0.014763
