16
charge=0, multiplicity=1, basis=def2-TZVP
C -2.817183 0.055997 -0.368020
C -1.592748 -0.660940 0.190200
C -0.280102 0.026876 -0.176757
O -0.219458 1.362706 0.296791
C 0.923484 -0.794466 0.322485
C 2.205348 -0.220660 -0.065858
N 3.216935 0.222721 -0.384107
H -3.736063 -0.445733 -0.062065
H -2.858308 1.087988 -0.020221
H -2.792889 0.074794 -1.459667
H -1.658916 -0.724934 1.283443
H -1.564110 -1.691660 -0.175469
H -0.208989 0.118607 -1.262939
H -0.331385 1.362844 1.255335
H 0.888503 -0.870782 1.413667
H 0.866478 -1.812663 -0.069965
