16
charge=0, multiplicity=1, basis=def2-TZVP
C -1.261386 -1.272373 0.000000
C -0.016896 -0.399343 0.000000
C 1.255858 -1.233269 0.000000
C -0.016896 0.749246 -1.035774
O 0.064392 1.752390 -0.000000
C -0.016896 0.749246 1.035774
H -2.169539 -0.666926 -0.000000
H -1.285216 -1.916817 -0.882358
H -1.285216 -1.916817 0.882358
H 1.300338 -1.875730 -0.882955
H 2.142961 -0.597323 0.000000
H 1.300338 -1.875730 0.882955
H 0.845804 0.787688 -1.706666
H -0.936554 0.846904 -1.620827
H -0.936554 0.846904 1.620827
H 0.845804 0.787688 1.706666
