15
charge=0, multiplicity=1, basis=def2-TZVP
C -0.941114 -2.029615 -0.000000
N -0.627710 -0.622733 -0.000000
C 0.265091 -0.091346 -1.047675
C 0.842341 0.886305 0.000000
O 0.265091 2.173984 0.000000
C 0.265091 -0.091346 1.047675
H -1.532976 -2.278417 0.882899
H -1.532976 -2.278417 -0.882899
H -0.037883 -2.665214 -0.000000
H 1.015710 -0.822086 -1.384539
H -0.233738 0.343991 -1.916154
H 1.918840 1.033406 0.000000
H -0.694157 2.068110 0.000000
H -0.233738 0.343991 1.916154
H 1.015710 -0.822086 1.384539
