17
charge=0, multiplicity=1, basis=def2-TZVP
C 1.328963 -1.585201 -0.000000
C -0.141200 -1.167724 -0.000000
C -0.512328 -0.297813 1.232318
C -0.512328 1.125070 0.731272
O 0.671898 1.482900 0.000000
C -0.512328 1.125070 -0.731272
C -0.512328 -0.297813 -1.232318
H 1.978659 -0.710290 -0.000000
H 1.561561 -2.185913 0.882310
H 1.561561 -2.185913 -0.882310
H -0.749027 -2.074271 -0.000000
H -1.514937 -0.536351 1.598823
H 0.182347 -0.446206 2.061621
H -0.946736 1.924381 1.321853
H -0.946736 1.924381 -1.321853
H 0.182347 -0.446206 -2.061621
H -1.514937 -0.536351 -1.598823
