15
charge=0, multiplicity=1, basis=def2-TZVP
C -1.681470 -0.014018 0.656123
C -0.912061 0.814703 -0.358334
C 0.423081 1.424241 0.032900
O 1.510507 0.525590 -0.197101
C 1.267393 -0.720104 0.381906
O 0.224431 -1.425564 -0.259077
C -0.947241 -0.682549 -0.463286
H -1.266976 -0.075445 1.654299
H -2.762281 -0.006765 0.619568
H -1.487365 1.375888 -1.082530
H 0.634044 2.301635 -0.574989
H 0.428815 1.728605 1.087417
H 2.161467 -1.325262 0.255160
H 1.039162 -0.600200 1.453163
H -1.524580 -1.132299 -1.258525
