15
charge=0, multiplicity=1, basis=def2-TZVP
C -3.486090 -0.304753 -0.056476
O -2.111683 -0.373557 -0.371662
C -1.336728 0.483889 0.448244
C 0.071333 0.378761 0.106521
C 1.241108 0.301977 -0.150656
C 2.650901 0.214984 -0.491978
O 3.334958 -0.586448 0.470889
H -4.003175 -0.987583 -0.727861
H -3.676377 -0.608656 0.981120
H -3.881922 0.709142 -0.200844
H -1.671151 1.525170 0.328376
H -1.473967 0.222574 1.507989
H 2.742666 -0.216492 -1.496834
H 3.074211 1.226990 -0.527566
H 4.260367 -0.640266 0.207865
