17
charge=0, multiplicity=1, basis=def2-TZVP
C -1.123647 -1.060985 0.000000
C -0.030171 -0.690106 -1.010608
C -0.030171 0.811123 -1.290951
C 0.348852 1.572763 -0.000000
C -0.030171 0.811123 1.290951
C -0.030171 -0.690106 1.010608
O 0.987126 -0.986984 -0.000000
H -2.043648 -0.476486 0.000000
H -1.346001 -2.126353 0.000000
H 0.092941 -1.303672 -1.902680
H 0.685350 1.053174 -2.079126
H -1.018752 1.101125 -1.658205
H 1.430210 1.700690 -0.000000
H -0.083771 2.573900 0.000000
H 0.685350 1.053174 2.079126
H -1.018752 1.101125 1.658205
H 0.092941 -1.303672 1.902680
