15
charge=0, multiplicity=1, basis=def2-TZVP
C 0.258798 -0.220320 1.510726
C 0.258798 -1.458045 0.663751
C 0.258798 -1.458045 -0.663751
C 0.258798 -0.220320 -1.510726
C 0.051164 1.051940 -0.732806
O -1.175827 1.158370 0.000000
C 0.051164 1.051940 0.732806
H -0.512713 -0.295175 2.285565
H 1.210934 -0.142828 2.050015
H 0.263201 -2.404225 1.193653
H 0.263201 -2.404225 -1.193653
H 1.210934 -0.142828 -2.050015
H -0.512713 -0.295175 -2.285565
H 0.329332 1.967300 -1.249575
H 0.329332 1.967300 1.249575
