17
charge=0, multiplicity=1, basis=def2-TZVP
C 1.053144 1.545109 -0.012222
C 0.913917 0.038647 0.032890
C 1.950714 -0.693201 -0.789802
C 0.423437 -0.607908 1.277714
C -0.477172 -0.603409 0.047424
C -1.703422 0.207312 0.057827
O -2.705267 -0.067969 -0.558355
H 0.348736 2.050952 0.646297
H 2.060388 1.830198 0.300911
H 0.899469 1.922446 -1.025712
H 2.956126 -0.454397 -0.433546
H 1.819738 -1.774307 -0.729907
H 1.888888 -0.402471 -1.840894
H 0.830685 -1.564732 1.575351
H 0.124596 0.030041 2.100317
H -0.577893 -1.530737 -0.501605
H -1.672304 1.117462 0.692646
