15
charge=0, multiplicity=1, basis=def2-TZVP
C 1.341215 1.252264 0.337340
C 0.623794 -0.031553 -0.012457
O 1.485722 -0.978990 -0.626114
C -0.291957 -0.686403 1.092255
C -1.467703 -0.546795 0.127755
O -1.591273 0.851088 -0.181487
C -0.629049 0.076501 -0.899427
H 0.634086 1.991483 0.712385
H 2.090161 1.074527 1.114948
H 1.845861 1.655466 -0.542372
H 2.248325 -1.117472 -0.052946
H 0.003397 -1.720690 1.263088
H -0.400437 -0.154852 2.037945
H -2.358499 -1.151812 0.034735
H -0.676276 0.062478 -1.979770
