16
charge=0, multiplicity=1, basis=def2-TZVP
C 2.977939 -0.114362 0.000205
O 1.718129 0.518531 -0.000317
C 0.644044 -0.397761 -0.000098
C -0.644044 0.397761 0.000088
O -1.718129 -0.518531 -0.000144
C -2.977939 0.114361 0.000105
H 3.110285 -0.742035 0.890854
H 3.110879 -0.742393 -0.890105
H 3.735336 0.667855 0.000295
H 0.681639 -1.044337 -0.887083
H 0.681996 -1.044251 0.886934
H -0.681830 1.044084 0.887248
H -0.681805 1.044505 -0.886769
H -3.110722 0.742267 -0.890316
H -3.735336 -0.667855 0.000182
H -3.110443 0.742161 0.890642
