15
charge=0, multiplicity=1, basis=def2-TZVP
O 2.681884 -0.273209 0.000299
C 1.480515 -0.409082 -0.001387
C 0.533356 0.720047 0.000016
C -0.782363 0.731752 -0.755589
C -1.456876 -0.642441 -0.780526
C -1.456436 -0.643752 0.779961
C -0.781661 0.730382 0.756984
H 1.041293 -1.424746 -0.000738
H 1.035616 1.679992 0.000674
H -0.985787 1.545533 -1.437264
H -2.466765 -0.591385 -1.183140
H -0.924346 -1.446293 -1.288724
H -2.466088 -0.593217 1.183242
H -0.923795 -1.448574 1.286489
H -0.984415 1.542934 1.440322
