15
charge=0, multiplicity=1, basis=def2-TZVP
C 0.000054 -2.425868 -0.680000
C 0.000000 -1.107420 -0.004825
C -0.000014 -0.717089 1.294021
C 0.000014 0.717089 1.294021
C -0.000000 1.107420 -0.004825
C -0.000054 2.425868 -0.680000
O -0.000000 -0.000000 -0.810746
H 0.881726 -2.549278 -1.314040
H 0.000070 -3.220081 0.065169
H -0.881576 -2.549341 -1.314087
H -0.000004 -1.369763 2.150830
H 0.000004 1.369763 2.150830
H 0.881576 2.549341 -1.314087
H -0.881726 2.549278 -1.314040
H -0.000070 3.220081 0.065169
