15
charge=0, multiplicity=1, basis=def2-TZVP
O -0.231549 2.306754 -0.000000
C 0.063098 1.140758 -0.000000
C 0.281985 0.281731 1.247808
C 0.281985 -1.147757 0.759619
C -0.931240 -1.607225 0.000000
C 0.281985 -1.147757 -0.759619
C 0.281985 0.281731 -1.247808
H 1.250599 0.559067 1.676151
H -0.478924 0.513477 1.994849
H 0.855878 -1.885217 1.302888
H -1.151243 -2.665901 0.000000
H -1.810264 -0.971669 0.000000
H 0.855878 -1.885217 -1.302888
H -0.478924 0.513477 -1.994849
H 1.250599 0.559067 -1.676151
