17
charge=0, multiplicity=1, basis=def2-TZVP
C -1.937886 -0.821204 0.420862
C -0.872151 -0.205588 -0.466050
C -0.688064 1.349664 -0.500183
C 0.795289 1.168486 -0.177725
C 0.932920 0.469721 1.154352
C 0.599684 -0.328757 -0.066371
O 1.436863 -1.330197 -0.545012
H -1.850595 -0.471757 1.451818
H -2.939706 -0.565050 0.068481
H -1.858646 -1.911252 0.427419
H -0.975992 -0.572453 -1.489023
H -0.881452 1.778408 -1.482003
H -1.258437 1.904864 0.248276
H 1.617973 1.714899 -0.615998
H 1.953666 0.346510 1.493380
H 0.209377 0.643592 1.944430
H 1.510155 -2.020113 0.124004
