16
charge=0, multiplicity=1, basis=def2-TZVP
C 2.611982 -0.235686 -0.145807
N 1.310981 -0.756073 0.244992
C 0.304912 -0.024768 0.185019
O 0.170143 1.300439 -0.220561
C -1.278593 1.247875 -0.017813
C -1.169978 -0.210426 0.470729
C -1.883903 -1.292559 -0.319332
H 2.580985 0.776581 -0.557108
H 3.272586 -0.240655 0.724039
H 3.051724 -0.906050 -0.886648
H -1.594550 1.989990 0.713819
H -1.804503 1.388575 -0.962372
H -1.364920 -0.316115 1.538978
H -1.699017 -1.179842 -1.389218
H -1.525199 -2.277124 -0.018652
H -2.961635 -1.252980 -0.150068
