15
charge=0, multiplicity=1, basis=def2-TZVP
O -0.741846 1.779680 -0.087432
C -0.978699 0.484798 0.421680
C -1.575553 -0.596376 -0.506438
C -0.526129 -1.583934 0.055709
C 0.302472 -0.370773 0.592317
C 1.401285 0.006255 -0.359261
O 2.550633 0.157248 -0.034566
H -1.562574 2.283161 -0.075780
H -1.518777 0.530459 1.372559
H -2.629688 -0.843931 -0.386295
H -1.382012 -0.349294 -1.550445
H -0.908420 -2.190607 0.874544
H -0.024922 -2.236653 -0.657583
H 0.716800 -0.442213 1.595881
H 1.099038 0.113838 -1.420934
