17
charge=0, multiplicity=1, basis=def2-TZVP
C -1.440989 1.302168 -0.000007
C -0.596964 0.036033 -0.000033
C -1.494921 -1.191557 0.000004
C 0.684160 -0.050971 -0.893442
C 1.412648 0.973792 0.000021
C 0.684127 -0.050986 0.893432
O 1.204777 -1.117064 -0.000001
H -0.864649 2.223868 -0.000251
H -2.090169 1.315590 -0.878531
H -2.089781 1.315807 0.878798
H -2.143034 -1.185449 -0.879773
H -0.915564 -2.110515 0.000217
H -2.143251 -1.185160 0.879616
H 0.766253 -0.215569 -1.966679
H 2.494636 0.870819 0.000057
H 1.092844 2.011837 0.000023
H 0.766143 -0.215587 1.966676
