15
charge=0, multiplicity=1, basis=def2-TZVP
C 0.000332 1.532903 0.000005
C 1.148957 0.548655 -0.000052
C 0.772779 -0.707052 -0.755941
C 0.772774 -0.706928 0.756015
C -0.773091 -0.706717 0.755944
C -1.148711 0.549143 0.000033
C -0.773081 -0.706612 -0.756004
H 0.000499 2.169355 0.888398
H 0.000433 2.169299 -0.888434
H 2.180455 0.872213 -0.000119
H 1.421658 -1.226532 -1.443702
H 1.421670 -1.226263 1.443872
H -1.422203 -1.225874 1.443731
H -2.180064 0.873165 0.000073
H -1.422205 -1.225710 -1.443823
