15
charge=0, multiplicity=1, basis=def2-TZVP
C 2.249366 0.966756 -0.000081
C 1.929407 -0.525832 0.000262
N 0.538432 -0.940119 -0.000001
C -0.387397 -0.098137 -0.000338
O -1.678049 -0.507607 -0.000240
C -2.650677 0.531311 0.000257
H 1.851579 1.469296 0.884468
H 3.331623 1.105648 0.000086
H 1.851909 1.468789 -0.885066
H 2.397959 -0.996991 -0.869358
H 2.397527 -0.996498 0.870384
H -0.268742 0.990526 -0.000302
H -2.565098 1.156786 0.893358
H -2.564649 1.158088 -0.891889
H -3.620923 0.041460 -0.000350
