17
charge=0, multiplicity=1, basis=def2-TZVP
O 1.280383 1.923277 -0.000000
C 0.415337 1.077644 -0.000000
C -0.161867 0.504344 1.279001
C -0.161867 -1.032649 1.260327
C -0.831593 -1.578804 0.000000
C -0.161867 -1.032649 -1.260327
C -0.161867 0.504344 -1.279001
H 0.396920 0.904790 2.123998
H -1.196342 0.859126 1.360178
H 0.872154 -1.389218 1.303129
H -0.659601 -1.409705 2.156073
H -0.795941 -2.670570 0.000000
H -1.891050 -1.299015 0.000000
H 0.872154 -1.389218 -1.303129
H -0.659601 -1.409705 -2.156073
H -1.196342 0.859126 -1.360178
H 0.396920 0.904790 -2.123998
