15
charge=0, multiplicity=1, basis=def2-TZVP
O 1.917362 0.413916 -0.060878
C 0.913581 -0.569413 -0.010393
C -0.272282 -0.449111 0.978968
C -0.751389 0.995875 0.798357
C -0.746937 1.022169 -0.759313
C -0.261255 -0.415480 -0.986444
O -1.058145 -1.176835 -0.019257
H 2.671780 0.125826 0.461933
H 1.311602 -1.584319 -0.028973
H -0.283063 -0.900248 1.968007
H -1.742868 1.138353 1.224318
H -0.062197 1.717379 1.235574
H -1.737760 1.170782 -1.184697
H -0.061217 1.761117 -1.171272
H -0.260314 -0.829771 -1.990861
