16
charge=0, multiplicity=1, basis=def2-TZVP
C 2.790665 0.023240 0.149355
C 1.504602 -0.740384 -0.123296
C 0.261151 0.117929 -0.098072
O 0.295862 1.323865 0.034596
C -1.042186 -0.597290 -0.247890
C -2.101125 -0.269704 0.756339
N -2.218455 0.194401 -0.614316
H 3.651004 -0.645262 0.103052
H 2.931276 0.820089 -0.580370
H 2.767094 0.486988 1.135632
H 1.534698 -1.230610 -1.103767
H 1.359051 -1.555113 0.595317
H -1.005154 -1.599089 -0.658909
H -2.795228 -1.047211 1.050425
H -1.836851 0.447295 1.524912
H -1.922244 1.168435 -0.661461
