17
charge=0, multiplicity=1, basis=def2-TZVP
C -2.396924 -1.076763 0.438166
C -1.660384 -0.016597 -0.393783
C -2.039697 1.404988 0.048835
C -0.212840 -0.206119 -0.327473
C 0.977608 -0.345502 -0.243376
C 2.417065 -0.532011 -0.154305
O 3.023738 0.645998 0.380975
H -2.141193 -2.083330 0.106804
H -2.127962 -0.987295 1.491969
H -3.476687 -0.945337 0.345635
H -1.964573 -0.135809 -1.439859
H -1.755945 1.567446 1.089793
H -1.533442 2.153338 -0.560505
H -3.117537 1.551459 -0.042649
H 2.629427 -1.400000 0.483020
H 2.814510 -0.751822 -1.153521
H 3.974525 0.495384 0.423133
