17
charge=0, multiplicity=1, basis=def2-TZVP
C -1.938992 1.087923 -0.013523
C -1.548409 -0.346979 0.215527
N -0.699008 -0.999503 -0.796001
C -0.170148 -0.780961 0.557035
C 0.983794 0.167817 0.667145
C 2.243014 -0.135562 -0.049697
N 1.382306 0.969895 -0.489926
H -1.099878 1.680117 -0.373068
H -2.745304 1.151592 -0.747441
H -2.295073 1.534462 0.917753
H -2.340090 -0.962767 0.634042
H -0.964031 -1.966652 -0.940398
H -0.090996 -1.649263 1.205963
H 1.044058 0.693806 1.615122
H 3.196630 0.156957 0.372403
H 2.262684 -1.034947 -0.655801
H 0.833352 0.650522 -1.286007
