19
charge=0, multiplicity=1, basis=def2-TZVP
C 0.881913 1.554568 -0.000018
C 0.743042 0.048526 -0.000012
C 2.077994 -0.668837 0.000022
C -0.330289 -0.671759 0.768880
C -1.658222 0.086312 0.779345
C -1.658228 0.086280 -0.779303
C -0.330303 -0.671746 -0.768914
H -0.076622 2.070367 -0.000177
H 1.435296 1.886066 0.882583
H 1.435526 1.885980 -0.882508
H 2.663575 -0.400586 0.883126
H 1.948592 -1.752653 0.000111
H 2.663595 -0.400724 -0.883114
H -0.078218 -1.481583 1.441226
H -2.474459 -0.509688 1.184537
H -1.659942 1.057108 1.278951
H -2.474411 -0.509862 -1.184395
H -1.660110 1.057015 -1.279011
H -0.078265 -1.481506 -1.441334
