19
charge=0, multiplicity=1, basis=def2-TZVP
C -2.321449 -0.617076 0.000069
C -0.839238 -0.980302 0.001201
C 0.146815 0.219089 0.000006
C -0.037477 1.086065 -1.259923
C -0.036726 1.087923 1.258800
C 1.507841 -0.326721 0.000004
C 2.620126 -0.778687 -0.000024
H -2.601800 -0.038790 0.881445
H -2.601013 -0.041190 -0.883150
H -2.926314 -1.525392 0.001042
H -0.615176 -1.595005 0.876342
H -0.614488 -1.597199 -0.872230
H -1.022413 1.553644 -1.262949
H 0.713471 1.875661 -1.290681
H 0.065065 0.483722 -2.163350
H 0.067975 0.487213 2.163067
H 0.713223 1.878560 1.287151
H -1.022328 1.554129 1.262542
H 3.604448 -1.177104 -0.000028
