15
charge=0, multiplicity=1, basis=def2-TZVP
C 1.488570 -0.496370 0.662226
C 0.757623 -0.763523 -0.597235
C -0.746871 -0.801702 -0.550162
N -1.329832 -0.558414 0.784851
C -1.217678 0.552902 -0.175009
C 0.011405 1.423107 0.022517
N 1.212013 0.605487 -0.265654
H 0.916349 -0.558577 1.578824
H 2.537689 -0.756452 0.740839
H 1.239595 -1.251500 -1.435959
H -1.280506 -1.427346 -1.252747
H -2.285403 -0.900443 0.811909
H -2.121671 0.986342 -0.586501
H -0.007413 2.247761 -0.692761
H 0.067794 1.844218 1.027988
