17
charge=0, multiplicity=1, basis=def2-TZVP
C -2.308892 -0.578805 -0.121979
C -0.834341 -0.945665 -0.246822
C 0.138174 0.215755 0.059488
C -0.090408 1.424723 -0.846879
O -0.061939 0.697126 1.398356
C 1.516360 -0.274563 -0.088928
C 2.633772 -0.699284 -0.195257
H -2.516112 -0.125799 0.847693
H -2.619861 0.122795 -0.896825
H -2.928594 -1.471354 -0.220468
H -0.594354 -1.760840 0.441834
H -0.614725 -1.318810 -1.250082
H -1.077615 1.842985 -0.657371
H 0.656473 2.188337 -0.637295
H -0.017366 1.135065 -1.894817
H 0.252929 0.022539 2.011267
H 3.626755 -1.064895 -0.288518
