16
charge=0, multiplicity=1, basis=def2-TZVP
C -2.054950 -0.017064 -0.000001
C -0.644639 -0.571473 0.000037
C 0.466174 -0.001921 -0.937614
C 0.567335 1.232922 -0.000032
C 0.466221 -0.001848 0.937617
C 1.493725 -0.691243 0.000001
H -2.091130 1.071863 -0.000800
H -2.600289 -0.366652 -0.880010
H -2.599880 -0.365372 0.880772
H -0.678281 -1.664965 0.000080
H 0.468548 -0.002800 -2.027253
H 1.524060 1.756243 -0.000062
H -0.259230 1.939472 -0.000010
H 0.468610 -0.002677 2.027257
H 1.501312 -1.782103 0.000022
H 2.503080 -0.279243 -0.000046
