19
charge=0, multiplicity=1, basis=def2-TZVP
C 2.037064 -0.611812 -0.000619
C 0.589210 -0.568487 -0.466324
C -0.382539 -1.424980 0.377146
C -1.698901 -0.716066 0.198240
C -1.535891 0.499539 -0.313897
C -0.079201 0.838356 -0.528151
C 0.407713 1.837254 0.528905
H 2.140681 -0.254661 1.025649
H 2.420120 -1.634125 -0.033450
H 2.680500 0.001765 -0.635242
H 0.547541 -0.964795 -1.485245
H -0.403954 -2.466524 0.047075
H -0.091505 -1.441799 1.435096
H -2.648366 -1.147312 0.488611
H -2.331852 1.210822 -0.496804
H 0.086723 1.285564 -1.513276
H 0.295965 1.430101 1.535833
H 1.456460 2.100141 0.380289
H -0.177044 2.758000 0.479663
