16
charge=0, multiplicity=1, basis=def2-TZVP
C -2.012359 -0.266681 0.205570
O -0.896403 -0.329976 -0.663084
C 0.303511 0.144941 -0.104649
C 0.367710 1.638627 0.091897
C 1.010988 -0.776391 0.851009
C 1.510821 -0.596305 -0.568253
H -1.810844 -0.780418 1.152250
H -2.307113 0.765421 0.422495
H -2.835482 -0.765214 -0.303698
H -0.364173 1.981482 0.826045
H 1.354849 1.934630 0.447682
H 0.173939 2.150564 -0.852908
H 1.582580 -0.344810 1.662051
H 0.527351 -1.715171 1.083518
H 1.342038 -1.412523 -1.256490
H 2.424052 -0.039300 -0.729714
