15
charge=0, multiplicity=1, basis=def2-TZVP
C -1.183335 0.895725 -0.383010
C -1.305602 -0.653663 -0.451721
C -0.036789 -1.057988 0.309064
O 1.095968 -0.838918 -0.534823
C 1.299694 0.587282 -0.494330
C 0.135598 1.042398 0.394510
O 0.074221 -0.066851 1.314266
H -1.140257 1.366449 -1.364577
H -2.006273 1.338441 0.175627
H -2.197715 -1.015367 0.058845
H -1.297727 -1.045720 -1.466813
H 0.008492 -2.057059 0.731693
H 2.272550 0.802167 -0.047865
H 1.256547 1.002011 -1.503188
H 0.285468 1.972704 0.933659
