17
charge=0, multiplicity=1, basis=def2-TZVP
C 2.531688 0.007279 -0.188789
O 1.299885 -0.674410 -0.087680
C 0.307595 0.080644 0.565852
C -0.365885 1.267499 -0.205001
C -1.712277 0.570850 -0.012500
C -1.675790 -0.775831 -0.658591
C -1.033164 -0.613143 0.686295
H 3.230939 -0.657473 -0.693495
H 2.436465 0.932040 -0.770797
H 2.930275 0.260652 0.802420
H 0.679119 0.416805 1.541398
H -0.270498 2.216573 0.320010
H -0.051905 1.395778 -1.242923
H -2.637534 1.057622 0.259401
H -2.606611 -1.327750 -0.648462
H -1.061267 -0.942680 -1.535619
H -1.361069 -1.180078 1.545911
