16
charge=0, multiplicity=1, basis=def2-TZVP
C -3.257152 0.000045 0.208422
O -2.047067 -0.000069 -0.542042
C -0.909523 -0.000007 0.185584
N 0.210866 -0.000088 -0.378754
C 1.377558 0.000033 0.429471
C 2.575781 -0.750833 -0.089030
C 2.575735 0.750861 -0.089194
H -3.335570 -0.892846 0.834822
H -3.335436 0.892981 0.834775
H -4.066220 0.000088 -0.517271
H -1.060091 0.000172 1.273379
H 1.230410 0.000136 1.509344
H 3.196245 -1.269972 0.628854
H 2.450328 -1.252301 -1.038055
H 2.450244 1.252111 -1.038329
H 3.196169 1.270201 0.628570
