15
charge=0, multiplicity=1, basis=def2-TZVP
C 0.000000 0.778919 -1.503308
C -0.000000 -0.778919 -1.503308
C 0.000000 -1.049327 -0.009113
C -0.888946 0.000000 0.712155
O 0.000000 -0.000000 1.885307
C 0.888946 -0.000000 0.712155
C 0.000000 1.049327 -0.009113
H 0.879633 1.195763 -1.996022
H -0.879633 1.195763 -1.996022
H -0.879633 -1.195763 -1.996022
H 0.879633 -1.195763 -1.996022
H 0.000000 -2.068252 0.368491
H -1.963532 0.000000 0.883920
H 1.963532 -0.000000 0.883920
H 0.000000 2.068252 0.368491
