19
charge=0, multiplicity=1, basis=def2-TZVP
C 0.117411 -2.446752 0.000000
C 0.580446 -0.997575 -0.000000
C 0.115965 -0.175342 -1.222362
C 0.115965 1.276300 -0.757335
C -1.088423 1.760748 0.000000
C 0.115965 1.276300 0.757335
C 0.115965 -0.175342 1.222362
H -0.974597 -2.502136 0.000000
H 0.478098 -2.980701 -0.882030
H 0.478098 -2.980701 0.882030
H 1.675665 -0.979414 -0.000000
H 0.774489 -0.326536 -2.078914
H -0.885926 -0.489679 -1.532610
H 0.696408 2.002575 -1.310128
H -1.292154 2.823809 0.000000
H -1.974823 1.136393 0.000000
H 0.696408 2.002575 1.310128
H -0.885926 -0.489679 1.532610
H 0.774489 -0.326536 2.078914
