15
charge=0, multiplicity=1, basis=def2-TZVP
O 1.833561 0.511795 -0.000000
C 0.613137 1.192266 -0.000000
C -0.591623 0.720412 -0.762176
C -0.591623 -0.736064 -1.162413
O -0.153819 -1.455444 0.000000
C -0.591623 -0.736064 1.162413
C -0.591623 0.720412 0.762176
H 1.645536 -0.438057 -0.000000
H 0.789514 2.259362 -0.000000
H -1.185520 1.416026 -1.339556
H -1.597170 -1.054900 -1.460982
H 0.106267 -0.980069 -1.964924
H -1.597170 -1.054900 1.460982
H 0.106267 -0.980069 1.964924
H -1.185520 1.416026 1.339556
