17
charge=0, multiplicity=1, basis=def2-TZVP
O 1.508949 -0.005197 1.128930
C 1.342629 0.046750 -0.265098
C 0.227956 -0.673691 -0.974562
C -0.923770 -1.230187 -0.156045
C -1.399492 -0.079694 0.757198
C -0.945411 1.223200 0.066512
C 0.215050 0.841926 -0.835848
H 1.836611 -0.880273 1.363828
H 2.280566 0.110714 -0.810521
H 0.462600 -1.151553 -1.917432
H -1.718073 -1.535051 -0.842015
H -0.647044 -2.116779 0.420488
H -2.478979 -0.104337 0.911482
H -0.923928 -0.159904 1.731477
H -1.745138 1.630432 -0.557280
H -0.676262 1.992341 0.792561
H 0.436277 1.486159 -1.676970
