16
charge=0, multiplicity=1, basis=def2-TZVP
O -2.816758 -0.704016 -0.164938
C -2.313784 0.398313 -0.099625
N -1.018478 0.657685 0.200261
C -0.020349 -0.373047 0.439216
C 1.190571 -0.192189 -0.437132
C 2.259072 0.792465 -0.039084
C 2.526686 -0.687038 0.031596
H -2.889006 1.323972 -0.284370
H -0.716985 1.618608 0.193943
H 0.281579 -0.363423 1.492157
H -0.509133 -1.327365 0.247993
H 0.987175 -0.277184 -1.498237
H 2.747242 1.365914 -0.814939
H 2.135328 1.322644 0.897307
H 2.579290 -1.142821 1.011843
H 3.194740 -1.123027 -0.697855
