15
charge=0, multiplicity=1, basis=def2-TZVP
C 1.700661 -1.337286 0.184271
O 1.317123 -0.191105 -0.562684
C 0.763152 0.801754 0.224061
C -0.174491 1.736201 -0.436689
C -0.720922 0.743761 0.585717
C -1.529931 -0.351810 0.150601
C -2.208502 -1.276867 -0.205810
H 2.125912 -2.046424 -0.522836
H 2.456515 -1.079764 0.935598
H 0.837716 -1.789111 0.680152
H 1.421033 1.185276 1.001836
H -0.155800 2.782496 -0.165968
H -0.407950 1.522931 -1.470017
H -0.983236 1.149298 1.555638
H -2.810973 -2.090381 -0.525842
