15
charge=0, multiplicity=1, basis=def2-TZVP
C 1.928318 -0.686741 0.395951
C 0.670061 -0.450892 -0.443836
C -0.446409 -1.434978 -0.225203
C -1.589913 -0.854493 0.132115
C -1.473281 0.639953 0.215364
C -0.000158 0.892245 -0.112797
O 0.552487 1.960251 -0.096884
H 1.679895 -0.738630 1.457530
H 2.410848 -1.623672 0.113859
H 2.635906 0.128850 0.247663
H 0.963048 -0.416929 -1.500958
H -0.308393 -2.501617 -0.345774
H -2.510916 -1.382487 0.339123
H -2.106554 1.168539 -0.504796
H -1.715439 1.053374 1.198863
