17
charge=0, multiplicity=1, basis=def2-TZVP
O 2.463818 0.334112 -0.089017
C 1.376851 -0.537978 -0.391856
C 0.247790 -0.271827 0.589921
C -0.315968 1.163688 0.427290
C -1.595111 0.958678 -0.338822
C -1.938913 -0.322336 -0.409635
C -0.949354 -1.213230 0.294126
H 3.144849 0.226942 -0.759926
H 1.016224 -0.371119 -1.415587
H 1.691929 -1.585517 -0.309636
H 0.640634 -0.428560 1.595140
H -0.516898 1.629078 1.397981
H 0.394994 1.816703 -0.082674
H -2.168594 1.777790 -0.753599
H -2.833033 -0.702357 -0.886802
H -0.654024 -2.074775 -0.313355
H -1.378398 -1.623055 1.214457
