15
charge=0, multiplicity=1, basis=def2-TZVP
C 0.717477 1.267712 -0.000000
O -0.012979 1.016147 1.166547
C -0.012979 -0.322761 1.623448
C -0.468133 -1.382734 0.664495
C -0.468133 -1.382734 -0.664495
C -0.012979 -0.322761 -1.623448
O -0.012979 1.016147 -1.166547
H 0.930141 2.335054 -0.000000
H 1.655988 0.690007 -0.000000
H 0.996151 -0.591721 1.978074
H -0.662124 -0.325871 2.500637
H -0.789014 -2.294278 1.161312
H -0.789014 -2.294278 -1.161312
H 0.996151 -0.591721 -1.978074
H -0.662124 -0.325871 -2.500637
