15
charge=0, multiplicity=1, basis=def2-TZVP
C -1.820296 -0.871247 -0.384565
C -0.584368 -0.501612 0.429600
C 0.647255 -1.396559 0.196644
C 1.748825 -0.438412 -0.160860
C 1.343337 0.832727 -0.212387
C -0.095647 0.918596 0.103088
O -0.785935 1.912302 0.102545
H -1.584476 -0.904266 -1.450811
H -2.205295 -1.849422 -0.091906
H -2.603996 -0.128701 -0.235625
H -0.848041 -0.497163 1.491267
H 0.912021 -1.992211 1.074359
H 0.483339 -2.110570 -0.616870
H 2.758484 -0.775212 -0.360387
H 1.940811 1.698170 -0.459506
