15
charge=0, multiplicity=1, basis=def2-TZVP
C 1.840318 -1.323195 -0.302907
C 1.126323 -0.205534 0.427534
N 1.338009 1.168111 -0.136997
C -0.129027 1.440988 -0.164272
C -0.352677 -0.009110 0.177133
N -1.310291 -0.824559 0.200179
O -2.524479 -0.190275 -0.144308
H 1.627247 -1.271831 -1.370635
H 2.919538 -1.240785 -0.161319
H 1.512717 -2.293122 0.075146
H 1.336040 -0.259239 1.503319
H 1.860025 1.785760 0.471025
H -0.497768 2.122494 0.609692
H -0.508402 1.771275 -1.132766
H -3.157212 -0.916120 -0.107206
