15
charge=0, multiplicity=1, basis=def2-TZVP
C 2.254866 -0.459247 0.059543
O 1.248483 0.230214 -0.666298
C 0.339567 0.879488 0.155903
C -1.103513 0.930751 -0.227096
C -1.521385 -0.432260 -0.759854
O -1.006854 -1.108868 0.422763
C -0.652338 0.143222 1.002098
H 2.902643 -0.937049 -0.673211
H 2.850450 0.232228 0.667424
H 1.813095 -1.220558 0.708588
H 0.708903 1.795994 0.616331
H -1.664596 1.847620 -0.326793
H -2.603173 -0.559327 -0.818347
H -1.038187 -0.777913 -1.674174
H -0.805355 0.276524 2.064908
