17
charge=0, multiplicity=1, basis=def2-TZVP
C -1.518181 1.333326 -0.259017
C -1.342927 -0.024018 0.377100
C -0.656336 -1.169184 -0.282590
O 0.465072 -0.728577 -1.058612
C 1.165598 -0.333376 0.165597
C 1.834486 1.018291 0.110274
C -0.082462 -0.601982 0.997540
H -0.790880 1.489804 -1.053127
H -2.513591 1.409196 -0.701957
H -1.415194 2.138610 0.471453
H -2.205726 -0.358887 0.946690
H -1.090917 -2.129414 -0.526350
H 1.913817 -1.104498 0.377818
H 1.124605 1.826071 -0.048770
H 2.360041 1.199882 1.050908
H 2.571441 1.037507 -0.695336
H -0.075239 -1.018000 1.994147
