16
charge=0, multiplicity=1, basis=def2-TZVP
C 2.373295 -0.028500 0.000829
C 0.892266 -0.001197 -0.354370
C 0.158614 -1.196446 0.230993
O -1.246027 -1.153690 -0.066748
C -1.811378 0.079115 -0.069366
N -1.260412 1.207077 0.040741
C 0.193251 1.263947 0.141494
H 2.515260 -0.012799 1.084376
H 2.862246 -0.923666 -0.389222
H 2.888393 0.839755 -0.413753
H 0.782405 -0.046549 -1.442977
H 0.519250 -2.140209 -0.176410
H 0.278013 -1.220124 1.319629
H -2.886909 -0.006897 -0.192611
H 0.461653 1.455314 1.186964
H 0.534500 2.133638 -0.424681
