15
charge=0, multiplicity=1, basis=def2-TZVP
C -3.105840 0.495646 0.609504
C -2.312831 0.083732 -0.637645
C -0.936740 -0.294349 -0.338330
C 0.193863 -0.592926 -0.066845
C 1.572223 -0.959672 0.258495
C 2.526931 0.134296 0.076630
C 3.315420 1.024761 -0.069492
H -3.150741 -0.324083 1.327105
H -2.636369 1.348263 1.100730
H -4.125678 0.772120 0.337476
H -2.814606 -0.751945 -1.134596
H -2.305928 0.906895 -1.358367
H 1.623651 -1.308417 1.295537
H 1.881453 -1.808917 -0.360316
H 4.010068 1.817149 -0.201475
