17
charge=0, multiplicity=1, basis=def2-TZVP
C -2.121135 -0.322947 -0.025903
C -0.695797 -0.462127 0.495553
C 0.189676 -1.418020 -0.271533
C 1.443914 -0.979939 -0.344841
C 1.602635 0.343431 0.361985
C 0.147575 0.843328 0.479127
O -0.190597 1.697277 -0.608773
H -2.135947 -0.008522 -1.069492
H -2.648058 -1.276344 0.048003
H -2.678172 0.418212 0.549208
H -0.747421 -0.805048 1.538190
H -0.170597 -2.356553 -0.673628
H 2.264988 -1.507194 -0.812407
H 2.051288 0.200465 1.352075
H 2.224377 1.067136 -0.168627
H -0.021521 1.447626 1.369365
H -0.015371 1.219650 -1.428826
