15
charge=0, multiplicity=1, basis=def2-TZVP
C 1.026160 -1.499204 -0.000000
C -0.139926 -0.930787 -0.757729
C -0.139926 -0.930787 0.757729
C -0.139926 0.595248 0.974027
C -1.243876 1.074329 0.000000
C -0.139926 0.595248 -0.974027
O 0.842088 1.067544 0.000000
H 1.109237 -2.578037 -0.000000
H 1.964019 -0.963496 -0.000000
H -0.789282 -1.559642 -1.349686
H -0.789282 -1.559642 1.349686
H -0.000220 0.993993 1.975083
H -2.201199 0.552273 0.000000
H -1.365229 2.155927 0.000000
H -0.000220 0.993993 -1.975083
