15
charge=0, multiplicity=1, basis=def2-TZVP
C 1.509199 -0.580290 -0.383773
O 1.305874 0.852200 -0.458075
C 0.305816 0.813297 0.591267
C -1.100346 1.096390 0.094732
C -1.481088 -0.221959 -0.584098
O -0.840477 -1.242361 0.192727
C 0.389526 -0.727823 0.659565
H 1.325153 -1.077844 -1.338409
H 2.511810 -0.824096 -0.023028
H 0.609789 1.400978 1.457943
H -1.755157 1.294561 0.946046
H -1.127738 1.951749 -0.579629
H -2.549077 -0.431506 -0.582948
H -1.117568 -0.246041 -1.616742
H 0.640965 -1.224201 1.593398
