15
charge=0, multiplicity=1, basis=def2-TZVP
O 2.512117 0.261327 -0.118185
C 1.405982 -0.640518 -0.089601
C 0.265471 0.054249 0.610399
C -0.429944 1.265165 -0.104539
C -1.742630 0.484915 -0.041087
O -1.541522 -0.745284 -0.750084
C -1.092464 -0.660283 0.609373
H 3.208329 -0.118942 -0.662677
H 1.097150 -0.917259 -1.102321
H 1.668124 -1.559056 0.452536
H 0.563478 0.329382 1.623592
H -0.425075 2.166577 0.505869
H -0.080419 1.499870 -1.109206
H -2.758358 0.848439 0.030774
H -1.476483 -1.398527 1.300321
