16
charge=0, multiplicity=1, basis=def2-TZVP
O 1.881458 -0.734581 -0.455056
C 1.179645 0.168779 0.375962
C 0.392500 1.325070 -0.288272
N -0.874621 0.899140 0.385815
C -1.729902 0.056809 -0.508655
C -0.982593 -1.235474 -0.099561
C -0.171237 -0.360035 0.874092
H 2.743905 -0.362354 -0.665929
H 1.814125 0.508904 1.199378
H 0.699338 2.335238 -0.013770
H 0.358991 1.242322 -1.378092
H -2.774035 0.089031 -0.194978
H -1.674918 0.339928 -1.561973
H -1.597949 -1.995021 0.379142
H -0.384736 -1.702456 -0.879458
H -0.244521 -0.603814 1.934029
