17
charge=0, multiplicity=1, basis=def2-TZVP
C 2.602827 -0.268954 0.310156
C 1.499679 0.482164 -0.435258
C 0.202183 -0.301594 -0.463287
C -0.724227 -0.457820 0.774011
C -1.197289 1.003152 0.628767
C -1.179188 0.335680 -0.762732
O -1.814690 -0.860728 -0.151579
H 2.780206 -1.250295 -0.135346
H 3.543764 0.283070 0.288435
H 2.331977 -0.425891 1.356601
H 1.359374 1.465707 0.016685
H 1.814412 0.663439 -1.467638
H 0.322467 -1.252993 -0.984898
H -0.588674 -1.054533 1.673583
H -2.189357 1.203505 1.026518
H -0.492113 1.806005 0.834754
H -1.588444 0.692043 -1.705999
