15
charge=0, multiplicity=1, basis=def2-TZVP
C -3.235573 -0.117554 0.001626
C -1.784455 -0.019646 -0.002861
C -0.584527 0.061253 -0.021162
C 0.850480 0.176191 -0.014357
O 1.352015 1.491474 -0.092151
C 1.667897 -0.827723 0.770795
C 1.691488 -0.834599 -0.735012
H -3.688617 0.842225 -0.256559
H -3.580817 -0.853794 -0.727753
H -3.613076 -0.413266 0.983070
H 1.006038 1.984854 0.661273
H 2.534799 -0.430740 1.280798
H 1.140362 -1.618546 1.285203
H 1.181904 -1.629962 -1.259165
H 2.571420 -0.440098 -1.223828
