16
charge=0, multiplicity=1, basis=def2-TZVP
C 2.587278 -0.638147 -0.244044
C 1.159483 -0.749517 0.285783
C 0.528422 0.601831 0.479904
N 0.004177 1.261202 -0.716159
C -0.940485 0.836159 0.342833
C -1.863272 -0.219724 0.032089
C -2.645086 -1.102029 -0.193436
H 3.031003 -1.624149 -0.389921
H 2.598070 -0.116816 -1.202722
H 3.226733 -0.084921 0.448539
H 0.545353 -1.325755 -0.407650
H 1.148521 -1.283865 1.240645
H 1.022259 1.235253 1.213320
H 0.133385 2.266765 -0.675469
H -1.358052 1.615197 0.972535
H -3.334549 -1.881561 -0.404936
