15
charge=0, multiplicity=1, basis=def2-TZVP
C 2.152556 -0.147672 -0.249404
C 0.875741 0.181479 0.495237
O 0.210779 1.257768 -0.181902
C -1.202155 1.110047 -0.079571
C -1.438719 -0.352866 0.191805
O -0.744827 -1.214290 -0.720009
C -0.149419 -0.928773 0.552167
H 1.915744 -0.500793 -1.252764
H 2.781340 0.739175 -0.328651
H 2.713170 -0.921779 0.278560
H 1.103717 0.478335 1.530309
H -1.609170 1.704763 0.749933
H -1.644554 1.457753 -1.014865
H -2.391329 -0.710470 0.564809
H -0.024547 -1.768086 1.226554
