16
charge=0, multiplicity=1, basis=def2-TZVP
C -1.780151 1.121854 0.478832
C -1.424539 -0.337623 0.449325
N -1.153268 -0.935988 -0.846686
C -0.046755 -0.844616 0.114095
C 1.081912 0.095236 -0.182511
C 2.336359 -0.142175 0.628534
O 0.995647 0.995878 -0.983775
H -1.211383 1.669978 -0.268928
H -2.843963 1.246285 0.265274
H -1.580367 1.548694 1.464273
H -1.949734 -0.951378 1.177392
H -1.488373 -1.892107 -0.898173
H 0.250571 -1.751879 0.630920
H 2.762395 -1.117956 0.378852
H 3.064983 0.637718 0.421447
H 2.102609 -0.160526 1.696301
