15
charge=0, multiplicity=1, basis=def2-TZVP
O -3.026978 -0.026045 -0.245521
C -1.946859 -0.353249 0.175664
C -0.808171 0.604164 0.420068
C 0.413818 0.248001 -0.412575
C 1.739984 0.955160 -0.083285
C 2.286367 -0.465193 0.132704
O 0.971799 -1.042220 -0.054751
H -1.723864 -1.414283 0.402210
H -1.140020 1.618006 0.187242
H -0.530482 0.549313 1.478329
H 0.159929 0.269213 -1.477743
H 2.188989 1.529058 -0.890525
H 1.700577 1.565116 0.817839
H 2.986221 -0.811542 -0.631951
H 2.689248 -0.692057 1.121327
