17
charge=0, multiplicity=1, basis=def2-TZVP
C -2.172637 1.017853 -0.284990
C -1.585171 -0.148881 0.454949
O -1.121639 -1.261535 -0.325509
C -0.163120 -0.511547 0.438180
C 0.888829 0.229255 -0.302499
C 2.047029 0.802106 0.473190
C 2.259251 -0.382738 -0.423874
H -1.583219 1.277802 -1.162322
H -3.185789 0.780979 -0.616222
H -2.228143 1.890718 0.369941
H -2.152090 -0.452551 1.334152
H 0.214584 -1.053985 1.305320
H 0.543604 0.799751 -1.153445
H 2.438073 1.761671 0.164714
H 2.065452 0.637187 1.542767
H 2.417666 -1.347744 0.039475
H 2.797885 -0.237840 -1.350039
