16
charge=0, multiplicity=1, basis=def2-TZVP
C 2.705639 -0.225780 0.086700
C 1.289113 -0.752280 -0.088549
C 0.243220 0.345329 -0.117973
O 0.482566 1.510107 0.107960
N -1.024687 -0.086803 -0.503079
C -1.853585 -0.998387 0.261472
C -2.234334 0.437119 0.076163
H 3.418182 -1.051078 0.118392
H 2.979394 0.434948 -0.735789
H 2.797457 0.347871 1.008304
H 1.188284 -1.337802 -1.005855
H 1.027803 -1.436519 0.726008
H -2.355659 -1.775411 -0.302235
H -1.502293 -1.295584 1.243819
H -2.121758 1.106592 0.920926
H -3.019448 0.697748 -0.622565
