16
charge=0, multiplicity=1, basis=def2-TZVP
C -1.199403 1.423898 -0.236721
C -0.750598 0.203027 0.545754
C -0.988172 -1.150798 -0.145776
O 0.426628 -1.341145 -0.364959
C 0.747151 -0.195634 0.468167
C 1.762213 0.720807 -0.166714
H -0.878481 1.371809 -1.278362
H -2.289096 1.498107 -0.230107
H -0.801355 2.345167 0.193707
H -1.127480 0.255085 1.567596
H -1.406072 -1.933027 0.495468
H -1.542966 -1.120136 -1.087398
H 1.120503 -0.541629 1.439664
H 1.426104 1.078753 -1.139452
H 1.955672 1.581708 0.477872
H 2.703003 0.185528 -0.307583
