15
charge=0, multiplicity=1, basis=def2-TZVP
C 2.074399 -0.255042 -0.722029
N 0.804596 -0.754953 -0.220795
C 0.509173 -0.631045 1.188837
C -0.235319 0.197543 0.186984
C -0.040604 1.699190 0.129001
C -1.571747 -0.223375 -0.185575
N -2.646071 -0.524753 -0.465700
H 2.488593 0.584593 -0.151540
H 2.792660 -1.074665 -0.689116
H 1.955072 0.050311 -1.761738
H 0.032126 -1.482726 1.657777
H 1.209752 -0.084919 1.815741
H 0.937863 1.987262 0.506042
H -0.143979 2.062153 -0.894665
H -0.797179 2.192307 0.739652
