16
charge=0, multiplicity=1, basis=def2-TZVP
C -2.253271 -0.092928 0.067101
C -0.853470 -0.269898 -0.493620
C -0.013901 1.002086 -0.415915
C 0.552643 0.625232 0.895373
C 0.168479 -0.856362 0.517017
C 1.470758 -0.847247 -0.286575
N 1.442999 0.651516 -0.295498
H -2.222262 0.381175 1.051032
H -2.863842 0.534047 -0.586488
H -2.757183 -1.056275 0.170039
H -0.889301 -0.776639 -1.463688
H -0.236564 1.983251 -0.809452
H 0.741073 1.163863 1.812040
H -0.115115 -1.666887 1.183010
H 2.342691 -1.166207 0.283473
H 1.472078 -1.322240 -1.271767
