15
charge=0, multiplicity=1, basis=def2-TZVP
O -3.067050 -0.007316 -0.239277
C -1.984889 0.338941 0.156590
C -0.826001 -0.587307 0.411560
C 0.392946 -0.203952 -0.421125
C 1.170360 1.069422 -0.028361
O 2.388690 0.319403 0.162857
C 1.712889 -0.930079 -0.100779
H -1.778137 1.414488 0.348465
H -0.564912 -0.518531 1.474644
H -1.142602 -1.609944 0.200241
H 0.144889 -0.234979 -1.482094
H 1.278447 1.831494 -0.802953
H 0.840964 1.544610 0.901470
H 1.680272 -1.567815 0.788089
H 2.176135 -1.478166 -0.923818
