17
charge=0, multiplicity=1, basis=def2-TZVP
C 0.022210 -0.900690 -0.116093
C -1.241172 -0.317460 0.471670
C -1.756013 1.002525 -0.026525
C -2.501028 -0.266438 -0.345798
C 1.270005 -0.295846 0.469076
C 2.508720 -0.161730 -0.296574
O 1.676736 0.976159 -0.051707
H 0.045535 -1.983604 0.050908
H 0.033125 -0.743761 -1.198281
H -1.371815 -0.509127 1.531481
H -2.193552 1.686719 0.687440
H -1.199638 1.481866 -0.820263
H -2.455336 -0.638730 -1.361336
H -3.444760 -0.446481 0.150831
H 1.355806 -0.362602 1.552479
H 3.466835 -0.154526 0.214200
H 2.533578 -0.501192 -1.328333
