16
charge=0, multiplicity=1, basis=def2-TZVP
C 3.195592 0.234366 0.155940
C 1.808453 -0.147740 -0.056919
C 0.660612 -0.466422 -0.223173
C -0.704594 -0.843087 -0.468407
C -1.689327 -0.889994 0.657278
N -1.805761 0.131297 -0.363191
C -1.476784 1.493773 0.025128
H 3.748702 -0.558722 0.664291
H 3.698872 0.440563 -0.791286
H 3.261670 1.134068 0.771866
H -0.837580 -1.543963 -1.285527
H -2.459969 -1.652049 0.665887
H -1.315817 -0.594383 1.633316
H -0.673746 1.557993 0.769415
H -1.170661 2.053629 -0.859231
H -2.374867 1.958417 0.434528
