17
charge=0, multiplicity=1, basis=def2-TZVP
C -0.613105 1.632775 -0.028845
C -0.646709 0.125755 -0.118120
C 0.545989 -0.498214 -0.832682
C 1.815286 -0.255768 -0.155670
C 2.848246 -0.045298 0.417621
C -1.247124 -0.648363 1.019115
C -1.974741 -0.554068 -0.300465
H -1.493561 2.011516 0.492027
H 0.273082 1.970279 0.512074
H -0.592497 2.083003 -1.025146
H 0.392632 -1.577062 -0.924299
H 0.603275 -0.105821 -1.853859
H 3.765309 0.137251 0.921011
H -0.797370 -1.595852 1.285246
H -1.640605 -0.091776 1.859187
H -2.858334 0.068340 -0.352257
H -2.018984 -1.440790 -0.919709
