15
charge=0, multiplicity=1, basis=def2-TZVP
C -0.217767 1.695391 -0.030417
C -0.522835 0.215086 -0.275011
C 0.557807 -0.703896 0.338610
C 1.881626 -0.509603 -0.353151
O 2.884009 -0.116678 0.181605
C -1.854039 -0.152662 0.339857
O -2.748133 -0.710031 -0.238357
H 0.751352 1.969757 -0.447861
H -0.976197 2.330784 -0.489271
H -0.187896 1.915457 1.039117
H -0.601372 0.011669 -1.345642
H 0.682313 -0.510442 1.405319
H 0.259161 -1.748736 0.200067
H 1.875898 -0.748265 -1.438669
H -1.959020 0.127550 1.411637
