17
charge=0, multiplicity=1, basis=def2-TZVP
C 0.592357 1.371160 -0.681792
C 0.715041 0.022819 0.021595
C 2.034204 -0.663635 -0.333026
O 0.628512 0.194504 1.441799
C -0.453763 -0.915494 -0.339211
C -1.777691 -0.351354 -0.122907
C -2.871451 0.112880 0.041325
H 0.605857 1.251468 -1.766799
H -0.336882 1.862894 -0.398106
H 1.430732 2.016874 -0.407817
H 2.877461 -0.038784 -0.030638
H 2.115458 -1.619498 0.185811
H 2.116169 -0.838867 -1.407523
H 1.269920 0.862359 1.708059
H -0.353893 -1.207654 -1.388053
H -0.345892 -1.824476 0.258282
H -3.839203 0.521396 0.196484
