16
charge=0, multiplicity=1, basis=def2-TZVP
C 0.920700 1.299150 0.000000
C -0.287058 0.812167 -0.754967
C -0.287058 -0.631124 -1.225375
C 0.174560 -1.446470 -0.000000
C -0.287058 -0.631124 1.225375
C -0.287058 0.812167 0.754967
H 1.821774 0.698311 0.000000
H 1.103930 2.365157 0.000000
H -0.867079 1.537497 -1.310136
H -1.305130 -0.913072 -1.508374
H 0.350440 -0.801006 -2.096213
H -0.225909 -2.460226 -0.000000
H 1.261562 -1.538674 -0.000000
H -1.305130 -0.913072 1.508374
H 0.350440 -0.801006 2.096213
H -0.867079 1.537497 1.310136
