17
charge=0, multiplicity=1, basis=def2-TZVP
C -1.653701 -1.274851 0.002403
C -0.645379 -0.166077 0.001101
C -0.754318 1.233282 -0.668198
C 0.644362 1.227446 0.000710
C -0.045466 0.581926 1.233669
C 0.800023 -0.200140 -0.587559
O 1.760346 -1.101309 -0.101361
H -2.566980 -0.979440 0.523766
H -1.921727 -1.556416 -1.018438
H -1.251466 -2.160803 0.499262
H -0.781511 1.254218 -1.759023
H -1.487060 1.911938 -0.233075
H 1.378224 2.030607 -0.001166
H -0.735507 1.217746 1.789486
H 0.570090 0.009039 1.930828
H 0.859700 -0.259787 -1.674613
H 1.780343 -1.066155 0.861105
