16
charge=0, multiplicity=1, basis=def2-TZVP
C 1.230731 2.814769 0.000000
C 0.234616 1.660455 0.000000
C 0.931637 0.291116 0.000000
C -0.000000 -0.830210 -0.000000
C -0.790272 -1.735725 -0.000000
C -1.741817 -2.837398 -0.000000
H 0.718995 3.778491 0.000000
H 1.875129 2.780268 0.881856
H 1.875129 2.780268 -0.881856
H -0.416476 1.724060 0.875109
H -0.416476 1.724060 -0.875109
H 1.586719 0.220479 -0.874936
H 1.586719 0.220479 0.874936
H -1.614446 -3.468581 0.882432
H -2.770220 -2.468989 -0.000000
H -1.614446 -3.468581 -0.882432
