17
charge=0, multiplicity=1, basis=def2-TZVP
C 2.495750 -0.987666 -0.067856
C 1.420847 0.021162 0.309733
O 1.680098 1.297680 -0.281963
C 0.019455 -0.475997 -0.035053
C -1.078806 0.495631 0.417901
C -2.414004 0.051479 0.044530
C -3.503555 -0.337377 -0.275628
H 3.483845 -0.599832 0.180363
H 2.350234 -1.932626 0.459003
H 2.467035 -1.196753 -1.141562
H 1.472833 0.214620 1.385100
H 1.730016 1.183094 -1.238646
H -0.053132 -0.627733 -1.117084
H -0.144217 -1.452328 0.427566
H -1.030042 0.618657 1.504573
H -0.883886 1.481158 -0.010758
H -4.471588 -0.673092 -0.554614
