16
charge=0, multiplicity=1, basis=def2-TZVP
C -0.001350 1.443121 0.234592
C -1.254324 0.693555 -0.222814
C -1.177947 -0.769105 0.199010
O 0.001241 -1.396932 -0.282020
C 1.179416 -0.767074 0.198869
C 1.253040 0.695882 -0.222691
H -0.002271 2.467015 -0.145021
H -0.001476 1.511542 1.328171
H -2.157102 1.148157 0.193645
H -1.336952 0.741517 -1.312512
H -1.211379 -0.842388 1.297209
H -2.012398 -1.344068 -0.202796
H 1.213020 -0.840479 1.297056
H 2.014880 -1.340457 -0.203087
H 1.335869 0.744231 -1.312359
H 2.154866 1.152110 0.194057
