15
charge=0, multiplicity=1, basis=def2-TZVP
O 1.694442 1.009330 -0.108673
C 1.284967 -0.332286 -0.016240
C 0.156387 -0.893541 0.789526
C -1.183931 -0.122134 0.767237
C -1.185960 1.163819 -0.012610
C -1.196941 -0.146083 -0.745012
C 0.145174 -0.915221 -0.764223
H 2.081550 1.259941 0.738329
H 2.129401 -1.021237 -0.015857
H 0.313306 -1.727066 1.460183
H -1.990757 -0.388125 1.433534
H -2.149900 1.659461 -0.010686
H -0.332702 1.819882 -0.044014
H -2.012307 -0.438324 -1.389358
H 0.287704 -1.766497 -1.414814
