15
charge=0, multiplicity=1, basis=def2-TZVP
O 1.611191 -1.123880 -0.091756
C 0.646688 -0.133319 -0.008498
C 0.818625 1.391950 -0.009212
C -0.701896 1.148724 0.002726
C -0.596799 -0.097831 -0.938941
C -1.431963 -0.974834 0.009903
C -0.599577 -0.087616 0.951067
H 2.182519 -1.070442 0.682913
H 1.248222 1.842816 0.888617
H 1.238976 1.835068 -0.913951
H -1.508333 1.875333 0.000441
H -0.571052 -0.073137 -2.027057
H -2.510157 -0.805139 0.007177
H -1.205218 -2.041236 0.013749
H -0.574957 -0.054663 2.039895
