15
charge=0, multiplicity=1, basis=def2-TZVP
C 0.000008 0.756924 -0.000055
C 1.164598 -0.089489 -0.439873
C 2.550793 0.315464 -0.214423
O 1.942751 -0.684867 0.608013
C -1.164525 -0.089553 0.439770
C -2.550772 0.315417 0.214651
O -1.942855 -0.684721 -0.608111
H 0.315011 1.399232 0.827142
H -0.315029 1.399183 -0.827269
H 0.957773 -0.765021 -1.266252
H 3.334254 -0.041999 -0.875268
H 2.753950 1.260081 0.282225
H -0.957562 -0.765265 1.265967
H -3.334090 -0.042222 0.875570
H -2.754080 1.260137 -0.281742
