16
charge=0, multiplicity=1, basis=def2-TZVP
C 1.030145 1.591894 0.097691
N 1.410982 0.343069 -0.544704
C 1.924263 -0.724666 0.299141
C 0.596012 -0.852665 -0.354885
C -0.678396 -0.853700 0.465235
C -1.836584 -0.265341 -0.301046
O -2.583710 0.575151 0.125782
H 0.657647 1.480677 1.123395
H 1.905328 2.242094 0.125638
H 0.258705 2.084408 -0.495342
H 2.784572 -1.266127 -0.076943
H 1.922836 -0.561492 1.374184
H 0.532028 -1.461411 -1.252925
H -0.934084 -1.897341 0.687452
H -0.578790 -0.329912 1.413968
H -1.968066 -0.666723 -1.329574
