15
charge=0, multiplicity=1, basis=def2-TZVP
C -1.453418 -1.433097 0.239238
O -0.456180 -0.936840 -0.650826
C 0.359470 0.041086 -0.111038
C 1.492898 -0.391027 0.814762
C 1.792916 0.021724 -0.585876
C -0.230983 1.375504 0.146007
O -1.382972 1.673040 -0.040232
H -0.997205 -1.829722 1.152665
H -2.173974 -0.656229 0.496634
H -1.958480 -2.239587 -0.288207
H 1.776064 0.264224 1.627535
H 1.510109 -1.446697 1.045239
H 2.007890 -0.751637 -1.309142
H 2.285907 0.968820 -0.758593
H 0.497602 2.116100 0.543773
