16
charge=0, multiplicity=1, basis=def2-TZVP
C -1.882268 0.826193 0.000007
N -1.204553 -0.463602 0.000026
C -0.088597 -0.944032 -0.750414
C 1.205377 -0.062586 -0.759086
C 1.111051 1.226576 0.000003
C 1.205453 -0.062572 0.759042
C -0.088542 -0.944032 0.750431
H -1.636622 1.410948 -0.888319
H -2.961236 0.653492 0.000178
H -1.636346 1.411163 0.888118
H -0.222390 -1.768671 -1.439299
H 2.037083 -0.284785 -1.411067
H 2.032735 1.796739 -0.000032
H 0.228927 1.842542 0.000077
H 2.037200 -0.284829 1.410950
H -0.222327 -1.768671 1.439315
