15
charge=0, multiplicity=1, basis=def2-TZVP
C -3.392876 0.000022 -0.261309
C -1.974816 -0.000141 0.064689
C -0.803915 -0.000143 0.337718
C 0.610729 -0.000031 0.637495
C 1.522949 -1.034426 -0.068452
O 2.442995 0.000055 -0.475387
C 1.522919 1.034471 -0.068351
H -4.003173 -0.116317 0.636940
H -3.683542 0.935267 -0.744873
H -3.638870 -0.817956 -0.942010
H 0.773473 -0.000059 1.716218
H 1.999527 -1.780920 0.568885
H 1.049614 -1.519587 -0.926012
H 1.049572 1.519716 -0.925858
H 1.999498 1.780905 0.569059
