17
charge=0, multiplicity=1, basis=def2-TZVP
C -1.879894 1.231676 -0.314394
C -1.322175 -0.043846 0.307817
C -2.153289 -1.263855 -0.043471
O 0.004995 -0.323812 -0.145231
C 0.993200 0.547198 0.370606
C 2.317747 0.048544 0.028426
C 3.418751 -0.339967 -0.242857
H -2.907246 1.393917 0.016612
H -1.301646 2.112447 -0.032717
H -1.875666 1.149267 -1.402962
H -1.294408 0.072323 1.401535
H -2.173703 -1.405611 -1.125523
H -1.728408 -2.158145 0.411932
H -3.178540 -1.142835 0.309557
H 0.880402 1.562316 -0.030584
H 0.902243 0.619376 1.464313
H 4.390968 -0.691058 -0.487085
