15
charge=0, multiplicity=1, basis=def2-TZVP
C -2.077741 0.617107 0.273674
N -1.150294 0.001589 -0.666872
C 0.166668 -0.227169 -0.148753
C 0.443313 -1.291435 0.910735
C 0.891287 -1.497552 -0.505390
C 0.963159 0.976986 -0.057965
N 1.595772 1.933049 0.043125
H -2.209695 0.044980 1.202732
H -1.714910 1.611299 0.538318
H -3.047873 0.733731 -0.208179
H -1.525137 -0.846182 -1.067885
H 1.190833 -1.086882 1.664019
H -0.422208 -1.839988 1.256459
H 0.345071 -2.199381 -1.122177
H 1.945467 -1.427659 -0.730873
