17
charge=0, multiplicity=1, basis=def2-TZVP
C 1.827476 0.006374 -0.958938
C 1.317220 0.048393 0.457517
C 0.052213 0.786030 0.863067
C -0.949034 1.162672 -0.221223
C -1.634846 -0.175805 -0.546953
O -0.728809 -1.211656 -0.141171
C 0.092858 -0.713155 0.885965
H 1.031945 -0.223784 -1.666187
H 2.278537 0.958973 -1.246634
H 2.587726 -0.770120 -1.064445
H 2.096905 0.089095 1.211264
H 0.063822 1.360200 1.778876
H -1.664806 1.897600 0.146999
H -0.463258 1.588341 -1.100964
H -2.575101 -0.277489 0.007748
H -1.839996 -0.314703 -1.608693
H 0.079374 -1.301920 1.794792
