15
charge=0, multiplicity=1, basis=def2-TZVP
C 2.323293 0.036379 -0.601323
C 1.043873 -0.635328 -0.195724
O 0.625820 -0.536337 1.161035
C -0.194949 0.098343 0.155835
C -0.311130 1.593939 0.175530
C -1.460244 -0.664893 -0.085081
O -2.480685 -0.174917 -0.492407
H 2.433049 1.015000 -0.140009
H 3.173172 -0.579203 -0.300503
H 2.358319 0.151213 -1.686736
H 0.913843 -1.635448 -0.608970
H 0.647833 2.064463 0.374526
H -0.696492 1.949067 -0.780569
H -1.016337 1.900772 0.948762
H -1.379527 -1.746476 0.149056
