15
charge=0, multiplicity=1, basis=def2-TZVP
O -0.811411 -2.525442 -0.000000
C -0.445818 -1.387452 -0.000000
C -0.121324 -0.377877 1.109739
C 0.204065 0.635114 0.000000
C -0.121324 2.092071 0.000000
C 1.317048 1.630036 0.000000
C -0.121324 -0.377877 -1.109739
H -0.977471 -0.138136 1.744159
H 0.714351 -0.681734 1.743989
H -0.514696 2.525936 -0.910442
H -0.514696 2.525936 0.910442
H 1.889497 1.753658 0.910441
H 1.889497 1.753658 -0.910441
H 0.714351 -0.681734 -1.743989
H -0.977471 -0.138136 -1.744159
