17
charge=0, multiplicity=1, basis=def2-TZVP
C -2.524289 -0.216173 0.304067
C -1.413673 0.101474 -0.698761
C -0.053516 0.076105 -0.072590
C 0.571477 1.244297 0.660792
C 1.284103 0.623295 -0.495841
O 1.991899 -0.550200 -0.078712
C 0.730668 -1.180038 0.288487
H -2.387628 -1.208842 0.738982
H -2.526141 0.506674 1.122220
H -3.506361 -0.193745 -0.171319
H -1.445468 -0.615856 -1.525320
H -1.586221 1.087282 -1.139877
H 0.100073 2.199344 0.461253
H 0.981115 1.128027 1.658122
H 1.624593 1.138194 -1.384249
H 0.720027 -1.511300 1.329887
H 0.522193 -2.021935 -0.376925
