15
charge=0, multiplicity=1, basis=def2-TZVP
C -2.712579 -0.831823 -0.110305
C -1.553493 0.127932 0.012798
O -1.707684 1.325520 0.023140
C -0.174151 -0.503974 0.131202
C 0.965581 0.487226 -0.092930
C 2.279185 -0.089530 0.351164
O 3.240162 -0.250391 -0.354466
H -3.653153 -0.302019 0.019992
H -2.693174 -1.290284 -1.103045
H -2.629998 -1.642448 0.616801
H -0.118250 -0.939254 1.137424
H -0.105072 -1.350759 -0.557175
H 1.034183 0.783462 -1.139136
H 0.762310 1.385059 0.499633
H 2.316072 -0.383777 1.424539
