18
charge=0, multiplicity=1, basis=def2-TZVP
C 2.002245 0.766379 -0.013333
C 0.785067 0.055445 -0.555042
N 0.439592 -1.347331 -0.003532
C -0.179389 -0.602090 1.188895
C -0.650978 0.262073 -0.000559
C -1.491000 1.507991 0.001022
C -0.925452 -1.104115 -0.663741
H 2.902201 0.200969 -0.263756
H 2.087798 1.750227 -0.480035
H 1.985969 0.910899 1.065546
H 0.841194 0.024859 -1.646929
H -0.934471 -1.188575 1.713213
H 0.543486 -0.194056 1.890549
H -0.997700 2.309757 0.555411
H -1.665966 1.860801 -1.018007
H -2.462178 1.325574 0.466556
H -0.899322 -1.160287 -1.752929
H -1.721115 -1.722949 -0.248341
