17
charge=0, multiplicity=1, basis=def2-TZVP
C 2.114102 -0.380503 -0.300953
C 0.925222 0.144961 0.506351
C 0.279055 1.386175 -0.075245
C -1.042687 1.268196 -0.188626
C -1.511301 -0.083049 0.225779
C -0.991937 -1.218678 -0.628310
C -0.250754 -0.827109 0.618952
H 1.813162 -0.637861 -1.317626
H 2.906339 0.368439 -0.364230
H 2.533983 -1.274298 0.164275
H 1.286393 0.374647 1.516848
H 0.857387 2.249743 -0.378233
H -1.708637 2.030526 -0.571444
H -2.448661 -0.204209 0.752112
H -1.531643 -2.156281 -0.597591
H -0.577980 -0.964126 -1.595170
H -0.260534 -1.526536 1.443374
