15
charge=0, multiplicity=1, basis=def2-TZVP
C -1.983117 -0.688522 0.604240
C -1.088039 -0.167458 -0.503909
C -0.659765 1.300664 -0.333962
C 0.672938 1.183193 0.400050
C 1.175706 -0.200957 0.024675
O 2.274514 -0.652154 0.159954
O 0.154020 -0.916355 -0.513650
H -1.544526 -0.496774 1.585726
H -2.956882 -0.197083 0.560833
H -2.132237 -1.763086 0.500749
H -1.549832 -0.345441 -1.474641
H -0.514928 1.763458 -1.310532
H -1.407930 1.879592 0.205205
H 1.411917 1.933705 0.129625
H 0.559808 1.212184 1.486032
