17
charge=0, multiplicity=1, basis=def2-TZVP
C 0.711198 1.868400 0.064326
C 0.399578 0.412082 -0.313612
C 1.565462 -0.446973 -0.108875
C 2.523040 -1.145156 0.081732
C -0.803540 -0.114693 0.450411
C -2.186138 0.184777 -0.052786
C -1.638431 -1.217674 -0.123910
H -0.159695 2.496267 -0.128025
H 0.962268 1.940545 1.123462
H 1.554636 2.249801 -0.511086
H 0.151152 0.382457 -1.381198
H 3.368965 -1.765845 0.245584
H -0.667653 -0.121169 1.525851
H -2.962767 0.399703 0.668383
H -2.274915 0.737761 -0.979481
H -1.358566 -1.601827 -1.096305
H -2.040448 -1.962273 0.549094
