18
charge=0, multiplicity=1, basis=def2-TZVP
C -2.334038 0.000000 0.450641
C -1.085062 0.000000 -0.406679
C -0.000000 1.077044 -0.155048
C 1.085062 -0.000000 -0.406679
C 2.334038 -0.000000 0.450641
C 0.000000 -1.077044 -0.155048
H -2.074819 0.000000 1.512525
H -2.948779 0.882830 0.257300
H -2.948779 -0.882830 0.257300
H -1.360570 0.000000 -1.464810
H -0.000000 1.965260 -0.787704
H -0.000000 1.393207 0.891886
H 1.360570 -0.000000 -1.464810
H 2.074819 -0.000000 1.512525
H 2.948779 -0.882830 0.257300
H 2.948779 0.882830 0.257300
H 0.000000 -1.393207 0.891886
H 0.000000 -1.965260 -0.787704
