16
charge=0, multiplicity=1, basis=def2-TZVP
C 0.043405 -0.640908 -2.099622
C 0.043405 0.432087 -1.040556
C -1.088786 0.454501 0.000000
C 0.043405 0.432087 1.040556
C 0.043405 -0.640908 2.099622
O 1.028701 0.192959 -0.000000
H -0.137977 -1.620489 -1.654081
H -0.735804 -0.442022 -2.839923
H 1.005282 -0.669237 -2.615051
H 0.215744 1.414885 -1.495155
H -1.742757 1.324174 0.000000
H -1.690346 -0.455272 0.000000
H 0.215744 1.414885 1.495155
H -0.137977 -1.620489 1.654081
H 1.005282 -0.669237 2.615051
H -0.735804 -0.442022 2.839923
