15
charge=0, multiplicity=1, basis=def2-TZVP
C -1.962398 -1.255394 0.217561
C -1.723849 0.153293 -0.264687
C -1.049552 1.165924 0.630523
C -0.346182 0.633300 -0.584532
O 0.706847 -0.301736 -0.418876
C 1.868723 0.178514 0.068477
O 2.832175 -0.507775 0.220820
H -1.143258 -1.603545 0.845468
H -2.884916 -1.307215 0.798674
H -2.050927 -1.945360 -0.623578
H -2.494049 0.544280 -0.919401
H -1.380338 2.195439 0.624386
H -0.700940 0.805381 1.589915
H -0.202910 1.278901 -1.442240
H 1.824707 1.254373 0.307171
