17
charge=0, multiplicity=1, basis=def2-TZVP
C 0.000001 -2.373633 0.182451
C 0.000001 -0.902470 -0.054620
C 1.086149 0.000002 -0.682301
C -0.000001 0.902470 -0.054620
C -0.000001 2.373633 0.182451
C -1.086149 -0.000002 -0.682301
O -0.000000 0.000000 1.135068
H -0.000226 -2.906447 -0.770362
H 0.886776 -2.669048 0.745316
H -0.886560 -2.668968 0.745693
H 2.044050 0.000007 -0.165304
H 1.182870 0.000002 -1.768741
H 0.000226 2.906447 -0.770362
H -0.886776 2.669048 0.745316
H 0.886560 2.668968 0.745693
H -1.182870 -0.000002 -1.768741
H -2.044050 -0.000007 -0.165304
