17
charge=0, multiplicity=1, basis=def2-TZVP
C -0.365723 -2.080102 -0.000000
C 0.115198 -1.076670 1.078983
C 0.083966 0.018380 0.000000
C 0.115198 -1.076670 -1.078983
C -1.033595 1.077519 -0.000000
C 0.115198 2.095221 0.000000
O 1.101693 1.038378 0.000000
H 0.088858 -3.068812 -0.000000
H -1.449819 -2.192613 -0.000000
H -0.497308 -0.927565 1.968578
H 1.145524 -1.272160 1.378712
H 1.145524 -1.272160 -1.378712
H -0.497308 -0.927565 -1.968578
H -1.661614 1.082103 -0.889136
H -1.661614 1.082103 0.889136
H 0.196384 2.721786 -0.891079
H 0.196384 2.721786 0.891079
