16
charge=0, multiplicity=1, basis=def2-TZVP
C 1.934064 -0.866957 -0.013346
N 0.556870 -0.445022 -0.051475
C -0.541324 -1.376443 0.125735
C -1.783764 -0.524472 -0.183831
C -1.334500 0.905880 0.129616
C 0.182832 0.868410 -0.004990
O 0.935022 1.822185 -0.041041
H 2.559734 0.015116 -0.131896
H 2.173743 -1.349357 0.940191
H 2.145300 -1.573366 -0.819999
H -0.438120 -2.229678 -0.548518
H -0.557773 -1.766669 1.152031
H -2.031127 -0.614369 -1.242303
H -2.652014 -0.844158 0.389722
H -1.755437 1.664372 -0.527222
H -1.566425 1.197273 1.157544
