16
charge=0, multiplicity=1, basis=def2-TZVP
C 2.747613 -0.293221 -0.002889
C 1.405836 0.431426 0.044148
C 0.225525 -0.525640 -0.040393
C -1.134482 0.146351 -0.014603
C -2.334386 -0.774976 0.024304
O -1.258454 1.349196 -0.019621
H 2.861374 -0.857565 -0.931967
H 3.578553 0.411195 0.060401
H 2.847655 -0.999281 0.825417
H 1.325823 1.015766 0.963490
H 1.337420 1.153345 -0.771814
H 0.276209 -1.122559 -0.959787
H 0.256287 -1.260504 0.772992
H -2.261286 -1.543809 -0.747987
H -2.365588 -1.292325 0.987151
H -3.249442 -0.201479 -0.104334
