15
charge=0, multiplicity=1, basis=def2-TZVP
C -0.887594 -1.431824 0.779117
C -0.752991 -0.361675 -0.321871
C -2.081524 0.323598 -0.617647
C 0.302203 0.628676 0.103102
O 0.085555 1.736892 0.534440
C 1.775292 0.202813 -0.005815
O 2.142165 -0.817550 -0.521695
H 0.058477 -1.937994 0.968889
H -1.238139 -0.981022 1.709531
H -1.615597 -2.182540 0.470167
H -0.371802 -0.861669 -1.217194
H -2.462021 0.830865 0.269179
H -1.977300 1.069806 -1.405964
H -2.819529 -0.413189 -0.937507
H 2.471835 0.951475 0.419619
