15
charge=0, multiplicity=1, basis=def2-TZVP
O 3.504458 -0.266135 -0.040699
C 2.129302 -0.497123 0.243391
C 1.348837 0.684271 -0.324958
C -0.082307 0.562928 -0.089426
C -1.258009 0.427538 0.115157
C -2.683954 0.291141 0.366604
O -3.200180 -0.817213 -0.372268
H 4.019369 -1.010796 0.285118
H 1.777138 -1.424681 -0.220568
H 1.952874 -0.567416 1.322440
H 1.726474 1.604984 0.128582
H 1.550423 0.756056 -1.397213
H -2.848799 0.149774 1.442423
H -3.188983 1.220976 0.075314
H -4.145933 -0.874643 -0.196965
