16
charge=0, multiplicity=1, basis=def2-TZVP
C 0.256454 1.471727 0.311842
C 0.302733 0.031981 -0.190103
C 1.606997 -0.659010 0.186155
O 2.676461 0.038198 -0.437573
C -0.871420 -0.803784 0.355426
C -2.170785 -0.282109 -0.048557
N -3.187296 0.141253 -0.379423
H -0.662494 1.967347 -0.002385
H 0.300760 1.500729 1.404436
H 1.103567 2.034013 -0.076388
H 0.237910 0.033423 -1.281894
H 1.721244 -0.654951 1.279155
H 1.581296 -1.704661 -0.146591
H 3.510572 -0.356764 -0.165946
H -0.798881 -1.837836 0.008752
H -0.838454 -0.828478 1.448825
