17
charge=0, multiplicity=1, basis=def2-TZVP
C -2.387132 -0.475003 -0.443648
C -1.202489 -0.025765 0.408433
C 0.011304 -0.982731 0.366151
C 1.271584 -0.089173 0.379611
O 2.334568 -0.566990 -0.442155
C 0.734112 1.258392 -0.027943
C -0.594130 1.288191 -0.018291
H -2.092964 -0.570406 -1.491573
H -2.764481 -1.443720 -0.109635
H -3.209795 0.241215 -0.388029
H -1.550313 0.074020 1.444470
H 0.006483 -1.719687 1.168481
H 0.002349 -1.532924 -0.579305
H 1.715920 -0.041315 1.377936
H 2.027709 -0.555315 -1.356753
H 1.390666 2.086084 -0.262775
H -1.201618 2.154506 -0.251451
