16
charge=0, multiplicity=1, basis=def2-TZVP
C 2.200375 -0.271150 -0.668121
C 0.864587 -0.745573 -0.157530
C 0.438018 -0.542859 1.261549
C -0.264584 0.230983 0.157846
C -0.076383 1.731242 0.040928
C -1.586276 -0.219495 -0.192176
N -2.644276 -0.573623 -0.478768
H 2.543926 0.624882 -0.152131
H 2.953799 -1.046222 -0.513781
H 2.160415 -0.052173 -1.736994
H 0.522175 -1.668596 -0.609545
H -0.111817 -1.326683 1.762442
H 1.081830 0.044725 1.903577
H 0.918310 2.024268 0.370609
H -0.208554 2.062496 -0.990060
H -0.804579 2.253780 0.662288
