15
charge=0, multiplicity=1, basis=def2-TZVP
C 2.509629 0.188998 0.578449
C 1.609519 -0.281478 -0.569305
C 0.154907 -0.092372 -0.281138
N -0.627372 -1.132247 -0.007708
N -1.842945 -0.602249 0.229432
C -1.860300 0.745534 0.113907
C -0.578053 1.118045 -0.216122
H 3.562960 0.037955 0.334876
H 2.360012 1.250164 0.786142
H 2.287099 -0.364065 1.492335
H 1.871599 0.261072 -1.482056
H 1.780582 -1.340786 -0.766282
H -2.608430 -1.213398 0.450928
H -2.757880 1.320610 0.266573
H -0.217936 2.117553 -0.389335
