15
charge=0, multiplicity=1, basis=def2-TZVP
C -0.206568 1.652721 0.099572
C -0.433566 0.173042 -0.222542
C 0.614042 -0.735688 0.463513
C 1.976228 -0.443643 0.044397
C 3.090992 -0.190234 -0.319058
C -1.807759 -0.234087 0.251781
O -2.702230 -0.611019 -0.457274
H -0.927881 2.279967 -0.425034
H -0.305878 1.840413 1.171858
H 0.796751 1.951902 -0.202348
H -0.395173 0.012322 -1.300799
H 0.537575 -0.621134 1.550154
H 0.387454 -1.782304 0.241375
H 4.081534 0.025882 -0.635826
H -1.956754 -0.151565 1.352835
