16
charge=0, multiplicity=1, basis=def2-TZVP
N -2.258667 -0.728335 0.000458
C -1.198990 0.127529 -0.000002
O -1.345671 1.336642 -0.000750
C 0.168948 -0.515191 0.000383
C 1.170636 -0.015927 -1.077204
C 2.280161 -0.002727 -0.000067
C 1.170741 -0.014456 1.077190
H -3.189098 -0.344891 -0.000102
H -2.139301 -1.724484 0.000624
H 0.101861 -1.604849 0.001135
H 1.310597 -0.647549 -1.953601
H 0.902026 0.991446 -1.392247
H 2.857680 -0.928081 0.000548
H 2.970342 0.839790 -0.000677
H 0.902151 0.993341 1.390886
H 1.310809 -0.644883 1.954429
