17
charge=0, multiplicity=1, basis=def2-TZVP
C -1.522651 -1.476056 0.100108
C -0.890060 -0.209940 -0.437880
C -1.285943 1.166157 0.173404
C 0.204136 1.604487 0.118616
C 0.552374 0.133476 -0.066667
C 1.519601 -0.672700 0.669869
O 1.705532 -0.363502 -0.722820
H -1.440581 -1.521596 1.188529
H -2.582709 -1.525601 -0.158166
H -1.039369 -2.364124 -0.313517
H -0.983198 -0.169682 -1.526986
H -1.998998 1.767139 -0.387513
H -1.641763 1.058438 1.198665
H 0.433518 2.178432 -0.780190
H 0.618218 2.116239 0.986405
H 2.217438 -0.187831 1.346539
H 1.308450 -1.715941 0.884091
