15
charge=0, multiplicity=1, basis=def2-TZVP
C -1.828090 -0.041998 -0.789295
C -1.052914 -0.300021 0.489550
C -0.063642 -1.504815 0.390985
C 1.005991 -0.468199 0.052219
O 1.936468 -0.442941 -0.703229
C 0.186703 0.656434 0.673795
O 0.226211 1.923449 0.092165
H -1.173254 -0.060762 -1.664411
H -2.596338 -0.803135 -0.934700
H -2.310027 0.935426 -0.759028
H -1.714386 -0.321587 1.353786
H 0.117714 -1.991990 1.349686
H -0.250542 -2.258023 -0.372900
H 0.407583 0.743679 1.742424
H 0.729529 1.863922 -0.729865
