17
charge=0, multiplicity=1, basis=def2-TZVP
C -2.129712 0.659153 0.303984
C -1.241717 -0.169418 -0.619016
C 0.195482 -0.277837 -0.130050
C 0.514649 -1.338118 0.906925
C 0.991050 -1.512887 -0.502278
C 0.914195 0.965302 -0.046416
C 1.499730 2.012805 0.013893
H -2.163754 0.225646 1.305690
H -1.751792 1.678418 0.394753
H -3.150765 0.709128 -0.077795
H -1.644179 -1.181581 -0.713462
H -1.239972 0.262895 -1.623319
H 1.243204 -1.093561 1.666238
H -0.313544 -1.945244 1.248049
H 0.491880 -2.240847 -1.127963
H 2.044674 -1.384286 -0.704050
H 2.022185 2.935429 0.069603
