17
charge=0, multiplicity=1, basis=def2-TZVP
C 2.508643 0.172063 -0.186127
O 1.279448 -0.462613 -0.456927
C 0.278922 -0.225943 0.526808
C -0.363152 1.178174 0.378825
C -1.676682 0.902817 -0.301281
C -1.948332 -0.395733 -0.356938
C -0.864729 -1.227713 0.271291
H 3.199568 -0.114542 -0.977614
H 2.421534 1.265101 -0.176123
H 2.916875 -0.150608 0.780903
H 0.726215 -0.361026 1.518287
H -0.512878 1.655925 1.352982
H 0.280378 1.844342 -0.200493
H -2.315443 1.689344 -0.681406
H -2.843324 -0.826566 -0.786087
H -0.509136 -2.033846 -0.373599
H -1.207386 -1.689212 1.203097
