17
charge=0, multiplicity=1, basis=def2-TZVP
C 2.024056 -0.781545 0.173704
C 0.630896 -0.505281 -0.368216
C -0.502401 -1.409927 0.129472
C -1.781142 -0.591879 -0.123451
C -1.371671 0.845793 0.214414
C 0.126414 0.907610 -0.065872
O 0.806313 1.901573 -0.039509
H 2.022861 -0.760047 1.265706
H 2.382028 -1.761794 -0.144862
H 2.726183 -0.024193 -0.174485
H 0.655281 -0.559252 -1.466175
H -0.516430 -2.383151 -0.361092
H -0.379460 -1.586928 1.202864
H -2.061675 -0.663439 -1.177404
H -2.629239 -0.943884 0.462810
H -1.902413 1.624820 -0.332231
H -1.504547 1.056654 1.280631
