16
charge=0, multiplicity=1, basis=def2-TZVP
C 2.582329 -0.328256 -0.060076
C 1.392616 0.570941 -0.378057
C 0.181736 0.311943 0.497944
C -1.063500 1.159779 0.145473
N -2.071790 0.195624 -0.322526
C -1.547649 -0.945539 -0.195018
O -0.289254 -1.059425 0.291766
H 2.320045 -1.378415 -0.189656
H 3.427077 -0.105727 -0.713574
H 2.912951 -0.190361 0.972192
H 1.669675 1.622615 -0.251885
H 1.091224 0.450771 -1.423229
H 0.451572 0.385177 1.553045
H -1.455160 1.709461 1.003058
H -0.851688 1.885302 -0.643222
H -2.022325 -1.885994 -0.444770
