17
charge=0, multiplicity=1, basis=def2-TZVP
C 3.215525 0.264789 0.146192
C 1.833695 -0.136784 -0.070689
C 0.692374 -0.472441 -0.250045
C -0.669373 -0.865567 -0.468768
C -1.637870 -0.963454 0.697284
C -1.806153 0.132827 -0.307179
C -1.528552 1.566540 0.058845
H 3.864497 -0.128597 -0.639654
H 3.315835 1.352753 0.144594
H 3.591497 -0.104112 1.103464
H -0.803828 -1.601966 -1.252359
H -2.335174 -1.790210 0.700030
H -1.248082 -0.693637 1.669635
H -2.612909 -0.003993 -1.018324
H -0.688181 1.638029 0.749680
H -1.280321 2.156873 -0.825858
H -2.401205 2.019397 0.534947
