17
charge=0, multiplicity=1, basis=def2-TZVP
C -2.411114 0.079752 -0.157734
C -1.103385 -0.365673 0.470331
C -0.076686 -1.159023 -0.409319
C 0.969663 -0.091606 -0.096305
O 2.293545 -0.373075 0.217944
C 0.519044 1.257962 -0.550072
C -0.019468 0.685064 0.743680
H -2.244155 0.648270 -1.074806
H -3.035424 -0.780325 -0.410755
H -2.977226 0.714162 0.528197
H -1.309085 -0.928315 1.382381
H 0.179157 -2.124160 0.024995
H -0.331002 -1.292348 -1.464011
H 2.822637 -0.310674 -0.585712
H 1.250875 2.042957 -0.408353
H -0.114941 1.380544 -1.421838
H 0.142472 1.195626 1.682862
