17
charge=0, multiplicity=1, basis=def2-TZVP
C -1.331462 1.093617 -0.000000
C -0.029491 1.051203 0.753125
C 0.363671 -0.201765 1.507204
C 0.363671 -1.443161 0.664458
C 0.363671 -1.443161 -0.664458
C 0.363671 -0.201765 -1.507204
C -0.029491 1.051203 -0.753125
H -1.933858 0.193735 -0.000000
H -1.896917 2.015614 -0.000000
H 0.269140 1.974878 1.233842
H 1.367458 -0.065490 1.928362
H -0.297523 -0.342967 2.369687
H 0.383597 -2.389608 1.194178
H 0.383597 -2.389608 -1.194178
H 1.367458 -0.065490 -1.928362
H -0.297523 -0.342967 -2.369687
H 0.269140 1.974878 -1.233842
