17
charge=0, multiplicity=1, basis=def2-TZVP
C 0.011048 1.458936 -1.262528
C 0.305506 0.659371 -0.000000
C 0.011048 1.458936 1.262528
N -0.513576 -0.553052 0.000000
C 0.011048 -1.688148 -0.742680
C 0.011048 -1.688148 0.742680
H 0.618406 2.364969 -1.296357
H 0.225651 0.871418 -2.156820
H -1.041975 1.744665 -1.288905
H 1.376011 0.387716 0.000000
H 0.225651 0.871418 2.156820
H 0.618406 2.364969 1.296357
H -1.041975 1.744665 1.288905
H -0.714146 -2.273238 -1.294744
H 0.972479 -1.568827 -1.234631
H 0.972479 -1.568827 1.234631
H -0.714146 -2.273238 1.294744
