17
charge=0, multiplicity=1, basis=def2-TZVP
C -1.111756 1.035869 -0.000000
C -0.045901 0.643181 -1.050293
C 1.027715 1.033220 0.000000
C -0.045901 0.643181 1.050293
C -0.045901 -0.874490 1.208548
O 0.323198 -1.535184 -0.000000
C -0.045901 -0.874490 -1.208548
H -1.316778 2.106418 -0.000000
H -2.053394 0.481895 -0.000000
H -0.054071 1.138951 -2.021216
H 1.967789 0.481929 0.000000
H 1.220728 2.105248 0.000000
H -0.054071 1.138951 2.021216
H 0.690751 -1.190609 1.950341
H -1.035712 -1.214767 1.543282
H -1.035712 -1.214767 -1.543282
H 0.690751 -1.190609 -1.950341
