16
charge=0, multiplicity=1, basis=def2-TZVP
C 2.671220 0.587368 0.150846
C 1.633847 -0.431244 -0.267044
O 0.367464 -0.019271 0.219318
C -0.690207 -0.894671 -0.129820
C -1.978259 -0.254967 0.338719
O -2.200523 0.997263 -0.289073
H 3.658400 0.290178 -0.207370
H 2.435310 1.568524 -0.263649
H 2.708932 0.672911 1.237559
H 1.596732 -0.523678 -1.361183
H 1.878907 -1.423008 0.137602
H -0.715797 -1.038528 -1.218347
H -0.553938 -1.875881 0.346746
H -2.823163 -0.894997 0.079958
H -1.951613 -0.146381 1.430351
H -1.388898 1.508006 -0.179824
