16
charge=0, multiplicity=1, basis=def2-TZVP
C 3.346441 0.253176 0.000074
C 2.082009 -0.576099 -0.000003
O 0.964011 0.301063 -0.000079
C -0.270472 -0.372489 -0.000065
C -1.362149 0.696205 -0.000017
C -2.695126 0.108986 0.000015
N -3.736918 -0.377187 0.000071
H 4.222806 -0.397033 0.000127
H 3.387985 0.889595 -0.884600
H 3.387877 0.889596 0.884753
H 2.040571 -1.224651 -0.885539
H 2.040450 -1.224637 0.885535
H -0.369681 -1.012483 -0.886355
H -0.369638 -1.012519 0.886205
H -1.249095 1.332615 0.879914
H -1.249163 1.332644 -0.879935
