17
charge=0, multiplicity=1, basis=def2-TZVP
C -0.441816 1.597058 -0.000146
C -0.088283 0.120989 -0.000030
C 0.972211 -0.277437 -1.079554
C 2.076526 -0.225098 0.000007
C 0.972233 -0.277116 1.079610
C -1.305183 -0.759269 0.000214
O -2.448292 -0.381785 -0.000021
H 0.461501 2.209171 0.000049
H -1.032194 1.853739 -0.880405
H -1.032516 1.853691 0.879906
H 0.813000 -1.290310 -1.453549
H 1.052105 0.399623 -1.929182
H 2.807683 -1.032071 0.000124
H 2.611297 0.723920 -0.000178
H 1.052056 0.400223 1.929022
H 0.813018 -1.289889 1.453890
H -1.073743 -1.848576 -0.000116
