15
charge=0, multiplicity=1, basis=def2-TZVP
O 1.579741 -1.070812 -0.576587
C 0.506465 -0.933146 0.317387
C 0.213779 0.332198 1.080629
C 0.600852 1.553947 0.246995
C -0.341287 1.072800 -0.895633
C -0.694892 -0.154227 -0.059906
O -1.978722 -0.674343 0.039363
H 2.401078 -1.082508 -0.072507
H 0.266445 -1.834740 0.875698
H 0.051155 0.315259 2.149696
H 0.272012 2.490011 0.694062
H 1.657052 1.633078 -0.010733
H -1.205025 1.725046 -1.011197
H 0.111360 0.879922 -1.868180
H -2.071734 -1.394261 -0.595882
