15
charge=0, multiplicity=1, basis=def2-TZVP
C -3.022507 -0.458315 -0.066002
C -1.798527 0.427462 0.086553
N -0.579921 -0.355960 -0.011975
C 0.648055 0.234237 -0.003887
N 0.812835 1.498911 -0.028797
C 1.793537 -0.753849 0.003064
O 2.945792 -0.419258 -0.006840
H -3.024623 -0.962465 -1.034135
H -3.062789 -1.219165 0.718080
H -3.931686 0.138346 0.008214
H -1.766248 1.191574 -0.691783
H -1.820885 0.965342 1.040960
H -0.632884 -1.333036 0.224409
H 1.810600 1.703540 -0.061628
H 1.508421 -1.827938 0.017635
