19
charge=0, multiplicity=1, basis=def2-TZVP
C -2.250419 -0.241820 0.145925
C -0.921541 0.186306 -0.465510
C -0.208439 1.308472 0.319348
C 1.288366 1.160583 -0.011280
C 1.477386 -0.321453 -0.285047
C 0.866806 -1.288695 0.693096
C 0.121243 -0.917635 -0.561772
H -2.101529 -0.633737 1.154857
H -2.945511 0.598517 0.211008
H -2.727312 -1.023945 -0.448534
H -1.106515 0.543004 -1.485422
H -0.598053 2.295713 0.069504
H -0.375607 1.168080 1.389689
H 1.535353 1.724100 -0.915343
H 1.929381 1.536484 0.789747
H 2.350587 -0.639085 -0.839570
H 1.292946 -2.281861 0.735285
H 0.515616 -0.921750 1.649283
H -0.009775 -1.680069 -1.319061
