16
charge=0, multiplicity=1, basis=def2-TZVP
C 2.418681 0.292668 0.021942
C 1.227828 -0.608605 -0.293861
C -0.024223 -0.214785 0.468550
C -0.746134 1.071538 0.020028
O -1.958097 0.342947 -0.278756
C -1.340067 -0.913623 0.080090
H 3.301785 0.001110 -0.548541
H 2.198598 1.335397 -0.218933
H 2.675306 0.245886 1.082866
H 1.013392 -0.578219 -1.367268
H 1.478812 -1.648084 -0.059435
H 0.167864 -0.238065 1.542704
H -0.910604 1.832836 0.786292
H -0.329308 1.544737 -0.875162
H -1.266308 -1.587696 -0.779415
H -1.881268 -1.414634 0.886453
