17
charge=0, multiplicity=1, basis=def2-TZVP
C 0.903774 -0.084657 1.149002
C -0.608728 0.077567 1.133583
C -0.951159 0.862440 -0.115169
C 0.362775 1.155102 -0.823744
C 1.105010 -0.122759 -0.380243
C 0.107442 -1.223176 -0.797835
C -1.112846 -0.642966 -0.098976
H 1.417469 0.757843 1.617111
H 1.228158 -1.006686 1.636296
H -1.201347 0.150880 2.032886
H -1.801417 1.526326 -0.155505
H 0.255805 1.220850 -1.908671
H 0.846811 2.065713 -0.464146
H 2.127202 -0.236338 -0.731897
H -0.013384 -1.288313 -1.881319
H 0.387882 -2.207739 -0.417265
H -2.084787 -1.111847 -0.127202
