16
charge=0, multiplicity=1, basis=def2-TZVP
C -1.963877 -0.718631 -0.000018
C -0.659616 0.023326 -0.000043
C -0.375057 1.518598 -0.000028
N 1.045842 0.976254 0.000067
C 0.588102 -0.186437 0.917444
C 1.229971 -1.223685 0.000015
C 0.588233 -0.186434 -0.917434
H -2.554721 -0.466196 0.883615
H -2.555102 -0.465606 -0.883220
H -1.803755 -1.799368 -0.000400
H -0.622577 2.089392 -0.898423
H -0.622668 2.089366 0.898365
H 0.638356 -0.081708 2.001087
H 2.319792 -1.255458 0.000040
H 0.794677 -2.222979 -0.000073
H 0.638563 -0.081649 -2.001071
