16
charge=0, multiplicity=1, basis=def2-TZVP
C 2.352839 0.014648 -0.075280
C 0.904213 0.076069 0.353456
C 0.111606 1.211487 -0.272890
C -1.354195 1.086801 0.131060
N -1.871793 -0.267346 -0.026800
C -1.048152 -1.218504 -0.100272
O 0.304513 -1.191891 -0.006103
H 2.425491 -0.068496 -1.160818
H 2.875093 0.919336 0.240494
H 2.849976 -0.846652 0.371409
H 0.841865 0.152488 1.445050
H 0.528542 2.171189 0.039828
H 0.206223 1.149355 -1.360774
H -1.492705 1.388991 1.174328
H -1.978217 1.754672 -0.465799
H -1.387682 -2.237331 -0.263743
