16
charge=0, multiplicity=1, basis=def2-TZVP
O 2.449762 0.253666 -0.318890
C 1.460739 0.068043 0.690034
C 0.085848 0.010072 0.111613
C -0.800702 1.185687 -0.317622
C -2.054026 0.344673 0.084771
C -1.120462 -0.800655 0.485745
N -0.271130 -1.198525 -0.629624
H 2.367139 -0.488231 -0.930315
H 1.650305 -0.848434 1.260314
H 1.557948 0.919036 1.365813
H -0.675091 2.065080 0.313015
H -0.708195 1.486611 -1.362580
H -2.588225 0.779109 0.928755
H -2.773129 0.108396 -0.702537
H -1.265077 -1.507838 1.291642
H -0.694237 -1.000303 -1.532863
