20
charge=0, multiplicity=1, basis=def2-TZVP
C -0.270223 3.203304 -0.000000
C -0.821898 1.780513 0.000000
C 0.270223 0.713569 -0.000000
C -0.270223 -0.713569 -0.000000
C 0.821898 -1.780513 0.000000
C 0.270223 -3.203304 0.000000
H -1.071582 3.944535 0.000000
H 0.350111 3.383690 0.881306
H 0.350111 3.383690 -0.881306
H -1.464323 1.636618 0.874850
H -1.464323 1.636618 -0.874850
H 0.913945 0.856880 -0.875278
H 0.913945 0.856880 0.875278
H -0.913945 -0.856880 0.875278
H -0.913945 -0.856880 -0.875278
H 1.464323 -1.636618 -0.874850
H 1.464323 -1.636618 0.874850
H 1.071582 -3.944535 0.000000
H -0.350111 -3.383690 0.881306
H -0.350111 -3.383690 -0.881306
