17
charge=0, multiplicity=1, basis=def2-TZVP
C -0.823810 -0.368693 -1.510021
C 0.357300 0.518402 -1.229499
C 0.351109 1.426491 -0.000000
C 0.357300 0.518402 1.229499
C -0.823810 -0.368693 1.510021
C 0.357300 -0.919138 0.756632
C 0.357300 -0.919138 -0.756632
H -1.755651 -0.194302 -0.990583
H -0.953367 -0.701996 -2.531639
H 0.960636 0.824565 -2.074338
H 1.260376 2.030864 -0.000000
H -0.492813 2.121957 0.000000
H 0.960636 0.824565 2.074338
H -0.953367 -0.701996 2.531639
H -1.755651 -0.194302 0.990583
H 0.966530 -1.667580 1.244565
H 0.966530 -1.667580 -1.244565
