15
charge=0, multiplicity=1, basis=def2-TZVP
C 1.923995 -0.725776 -0.000001
C 0.609865 -0.028166 -0.000002
O 0.578270 1.441054 -0.000012
C -0.824097 1.038628 0.000003
C -0.618674 -0.165944 -0.957612
C -1.337612 -1.133404 0.000007
C -0.618649 -0.165924 0.957620
H 2.498954 -0.453745 -0.886512
H 2.498805 -0.454110 0.886716
H 1.774516 -1.807112 -0.000225
H -1.592540 1.807284 0.000020
H -0.597449 -0.136525 -2.044980
H -2.427532 -1.096111 0.000009
H -0.992488 -2.168072 -0.000015
H -0.597397 -0.136524 2.044990
