15
charge=0, multiplicity=1, basis=def2-TZVP
C 0.000171 -2.376695 -0.411357
C -0.000054 -1.181972 0.517450
O 0.000000 -0.000000 -0.260116
C 0.000054 1.181972 0.517450
C -0.000171 2.376695 -0.411357
H -0.883841 -2.364859 -1.050225
H 0.884506 -2.364903 -1.049779
H -0.000000 -3.304529 0.163618
H -0.885147 -1.199102 1.169983
H 0.884795 -1.199010 1.170318
H -0.884795 1.199010 1.170318
H 0.885147 1.199102 1.169983
H 0.883841 2.364859 -1.050225
H -0.884506 2.364903 -1.049779
H 0.000000 3.304529 0.163618
