16
charge=0, multiplicity=1, basis=def2-TZVP
C -2.409622 0.000597 0.662916
C -1.563726 -0.000798 -0.606256
N -0.137368 -0.000351 -0.336197
C 0.630043 1.116481 -0.123685
C 1.899232 0.710326 0.216066
C 1.899565 -0.709632 0.216645
C 0.630625 -1.116653 -0.122995
H -3.472150 0.000136 0.411865
H -2.198351 -0.881611 1.268362
H -2.198644 0.884315 1.266258
H -1.789026 -0.878973 -1.213525
H -1.789267 0.875865 -1.215631
H 0.211122 2.102132 -0.236878
H 2.734174 1.357854 0.425629
H 2.734813 -1.356599 0.426724
H 0.212201 -2.102586 -0.235566
