17
charge=0, multiplicity=1, basis=def2-TZVP
C 0.127719 1.070615 1.262846
C -0.113189 0.223143 0.000030
C 0.127348 1.071327 -1.262375
C 0.820542 -1.001577 -0.000410
O 2.168824 -0.546406 -0.000205
C -1.488382 -0.281481 0.000022
C -2.613103 -0.700885 0.000063
H -0.539856 1.932187 1.271788
H -0.058697 0.484268 2.163375
H 1.159012 1.419995 1.280554
H 1.158173 1.422112 -1.279544
H -0.057908 0.485049 -2.163187
H -0.541317 1.932052 -1.271338
H 0.611141 -1.608018 0.887547
H 0.611210 -1.607316 -0.888864
H 2.752622 -1.310559 0.000512
H -3.610585 -1.065374 -0.000258
