18
charge=0, multiplicity=1, basis=def2-TZVP
C -0.443095 -0.023800 -2.565123
C -0.443095 -0.842112 -1.279250
C -0.344609 0.009356 -0.000000
C -0.443095 -0.842112 1.279250
C -0.443095 -0.023800 2.565123
C 0.892270 0.792916 0.000000
N 1.877914 1.386000 0.000000
H -1.278907 0.679461 -2.584020
H 0.479251 0.549544 -2.669285
H -0.534394 -0.673431 -3.436482
H -1.363500 -1.426770 -1.207005
H 0.384275 -1.556136 -1.287028
H -1.170534 0.729985 -0.000000
H -1.363500 -1.426770 1.207005
H 0.384275 -1.556136 1.287028
H 0.479251 0.549544 2.669285
H -1.278907 0.679461 2.584020
H -0.534394 -0.673431 3.436482
