15
charge=0, multiplicity=1, basis=def2-TZVP
O 1.967750 0.608292 0.000000
C 0.769564 0.657479 0.000000
C -0.260279 1.798534 -0.000000
C -1.389506 0.720035 -0.000000
C -0.313602 -0.374612 -0.000000
C -0.260279 -1.684549 -0.745162
C -0.260279 -1.684549 0.745162
H -0.209300 2.431715 0.886292
H -0.209300 2.431715 -0.886292
H -2.020627 0.734311 0.887452
H -2.020627 0.734311 -0.887452
H -1.162970 -1.986084 -1.259992
H 0.665036 -1.910121 -1.258665
H 0.665036 -1.910121 1.258665
H -1.162970 -1.986084 1.259992
