18
charge=0, multiplicity=1, basis=def2-TZVP
C -2.160893 -0.178326 0.293513
C -0.972074 -0.431191 -0.632420
C 0.342298 0.123315 -0.114692
C 0.405916 1.628213 0.023291
C 1.092960 -0.705427 0.892386
C 1.601868 -0.588709 -0.524041
H -1.971964 -0.586219 1.289008
H -2.365620 0.887685 0.404800
H -3.066330 -0.647425 -0.095730
H -0.860842 -1.508138 -0.787323
H -1.176041 0.000015 -1.618769
H -0.323181 1.997042 0.747860
H 1.393718 1.948745 0.358262
H 0.203297 2.115580 -0.934585
H 1.640111 -0.193331 1.673189
H 0.662308 -1.650253 1.198460
H 1.513308 -1.455084 -1.166834
H 2.490791 0.004138 -0.696558
