15
charge=0, multiplicity=1, basis=def2-TZVP
C -2.532510 -0.516893 -0.000086
C -1.559356 0.187767 0.000090
C -0.383490 1.008830 -0.000018
C 0.874850 0.649865 0.760184
C 1.083659 -0.863749 0.780643
C 1.083663 -0.863793 -0.780603
C 0.874832 0.649810 -0.760230
H -3.398542 -1.131264 0.000185
H -0.585426 2.074218 -0.000066
H 1.312723 1.362576 1.445356
H 2.051812 -1.145188 1.190917
H 0.302490 -1.444263 1.272163
H 2.051837 -1.145214 -1.190840
H 0.302542 -1.444373 -1.272129
H 1.312671 1.362480 -1.445467
