15
charge=0, multiplicity=1, basis=def2-TZVP
C -0.679473 1.259668 -0.517143
C 0.005940 -0.000024 0.013095
C -0.682880 -1.257812 -0.517246
C 1.487653 -0.001954 -0.340984
O -0.032818 -0.000030 1.451450
H -1.735015 1.273652 -0.232637
H -0.201916 2.149666 -0.106047
H -0.627828 1.308207 -1.606547
H -0.631388 -1.306409 -1.606660
H -0.207717 -2.149126 -0.106241
H -1.738448 -1.268943 -0.232711
H 1.975021 0.881356 0.072901
H 1.972787 -0.886504 0.072890
H 1.625102 -0.002121 -1.423105
H -0.955496 0.001194 1.730231
