16
charge=0, multiplicity=1, basis=def2-TZVP
O -1.375346 1.349603 0.000000
C 0.037413 1.210475 0.000000
C 0.535146 0.401304 1.221888
C 0.535146 -1.031963 0.740356
N -0.699080 -1.383990 0.000000
C 0.535146 -1.031963 -0.740356
C 0.535146 0.401304 -1.221888
H -1.722656 0.442743 0.000000
H 0.434537 2.224539 0.000000
H 1.555628 0.690654 1.488820
H -0.107963 0.575877 2.084898
H 1.028340 -1.807728 1.311928
H -0.835536 -2.388735 0.000000
H 1.028340 -1.807728 -1.311928
H -0.107963 0.575877 -2.084898
H 1.555628 0.690654 -1.488820
