17
charge=0, multiplicity=1, basis=def2-TZVP
C 3.510221 -0.255536 -0.310902
C 2.415243 0.136180 -0.013863
C 1.072583 0.577924 0.335832
C 0.009386 -0.516764 0.142987
C -1.372404 -0.032734 0.500542
C -2.178226 0.743701 -0.504694
C -2.581522 -0.658814 -0.131988
H 4.482187 -0.595405 -0.570542
H 1.063719 0.914297 1.377333
H 0.806790 1.449071 -0.270077
H 0.025849 -0.847980 -0.898617
H 0.276603 -1.385435 0.750354
H -1.487315 0.275155 1.534703
H -2.792103 1.563460 -0.157359
H -1.742001 0.897484 -1.483720
H -2.416855 -1.441320 -0.861451
H -3.468561 -0.793061 0.471896
