15
charge=0, multiplicity=1, basis=def2-TZVP
C 2.397346 -0.904162 0.001976
C 1.270194 0.090625 0.000910
N 1.487520 1.335162 0.016846
N -0.001304 -0.532983 -0.020770
C -1.233483 0.083094 -0.015074
C -2.415468 -0.862032 0.015182
O -1.375081 1.289491 -0.011405
H 3.340609 -0.366597 0.019843
H 2.341051 -1.557937 0.876596
H 2.361897 -1.535443 -0.890075
H 0.614677 1.860424 0.012175
H -0.001835 -1.539566 -0.027134
H -2.796261 -0.911087 1.037319
H -3.203363 -0.453769 -0.614387
H -2.171169 -1.872360 -0.313589
