15
charge=0, multiplicity=1, basis=def2-TZVP
C 1.023644 1.605422 0.095203
C 0.701027 0.148531 -0.088630
C 1.716877 -0.805066 -0.614265
C 1.256890 -0.905893 0.823143
O -0.613145 -0.068187 -0.607204
C -1.628968 -0.035841 0.277028
O -2.770552 -0.150864 -0.050941
H 2.055988 1.727496 0.423144
H 0.893600 2.141946 -0.846075
H 0.374051 2.063990 0.843989
H 1.365113 -1.562687 -1.299999
H 2.708120 -0.424313 -0.818191
H 1.928568 -0.590890 1.610166
H 0.620534 -1.741789 1.078473
H -1.293228 0.095738 1.318776
