16
charge=0, multiplicity=1, basis=def2-TZVP
O -1.365031 2.729663 -0.001520
C -1.433664 1.305565 0.006738
C -0.018711 0.762776 -0.003845
C 0.018711 -0.762776 0.003845
C 1.433664 -1.305565 -0.006738
O 1.365031 -2.729663 0.001520
H -2.259487 3.084258 0.005260
H -1.962307 0.948450 0.899897
H -1.979182 0.938984 -0.872325
H 0.494193 1.150675 -0.888641
H 0.510894 1.159944 0.866887
H -0.494193 -1.150675 0.888641
H -0.510894 -1.159944 -0.866887
H 1.962307 -0.948450 -0.899897
H 1.979182 -0.938984 0.872325
H 2.259487 -3.084258 -0.005260
