16
charge=0, multiplicity=1, basis=def2-TZVP
C -2.129999 0.219446 -0.327434
C -0.934368 -0.382164 0.385906
C 0.168245 -1.095924 -0.370200
C 1.203931 -0.101160 -0.775554
C 0.793925 1.268924 -0.282401
C 0.221460 0.494168 0.912703
N 1.219501 -0.674312 0.613386
H -1.829263 0.842020 -1.170583
H -2.782321 -0.566777 -0.713802
H -2.722548 0.834799 0.353992
H -1.262536 -1.030868 1.201962
H 0.154298 -2.099378 -0.775298
H 1.980450 -0.346317 -1.487519
H 1.669947 1.844809 0.015543
H 0.128467 1.892032 -0.882594
H 0.187835 0.930125 1.906485
