16
charge=0, multiplicity=1, basis=def2-TZVP
C 2.997643 0.000006 0.127576
C 1.554832 -0.000011 -0.066270
C 0.364166 -0.000002 -0.231831
C -1.088409 0.000004 -0.405150
C -1.716179 -1.267622 0.193432
C -1.716184 1.267619 0.193433
H 3.523656 -0.003789 -0.829840
H 3.320662 0.884284 0.681641
H 3.319814 -0.880464 0.688163
H -1.294765 0.000008 -1.481632
H -1.287196 -2.165058 -0.252428
H -1.541030 -1.306816 1.270015
H -2.794052 -1.274690 0.019682
H -1.287282 2.165060 -0.252497
H -2.794071 1.274635 0.019762
H -1.540951 1.306871 1.269998
