17
charge=0, multiplicity=1, basis=def2-TZVP
C 1.742986 -0.010265 0.833586
C 1.895183 -0.002973 -0.662348
C 0.520257 0.010350 -0.055311
C -0.430213 -1.186454 -0.168598
C -1.837614 -0.611401 0.127151
C -1.643368 0.878578 -0.009133
C -0.357140 1.205618 -0.098991
H 1.958153 -0.929146 1.363747
H 1.991544 0.891378 1.378201
H 2.253539 0.901962 -1.136164
H 2.216808 -0.917573 -1.144650
H -0.399748 -1.578936 -1.187422
H -0.158337 -1.999973 0.504158
H -2.594940 -1.002485 -0.556107
H -2.175929 -0.861317 1.138879
H -2.465061 1.582165 0.008221
H 0.033424 2.213202 -0.167000
