16
charge=0, multiplicity=1, basis=def2-TZVP
C 2.069839 -0.723056 0.037684
C 0.715943 -0.110365 -0.123921
C 0.451750 1.272410 -0.637328
C -0.000149 0.905831 0.752201
C -1.259282 0.000989 0.744283
N -1.716708 -0.189102 -0.652427
C -0.581342 -0.977392 -0.119352
H 2.075623 -1.468912 0.837628
H 2.393052 -1.218287 -0.882945
H 2.812703 0.037271 0.285559
H 1.328194 1.908431 -0.661523
H -0.271809 1.451122 -1.418861
H 0.371348 1.398998 1.638800
H -1.927661 -0.153328 1.578121
H -2.541397 -0.784418 -0.627429
H -0.603643 -2.057663 -0.103767
