15
charge=0, multiplicity=1, basis=def2-TZVP
O 1.912251 0.572651 0.035746
C 0.801078 -0.035978 -0.583451
C 0.186011 -1.335584 0.010487
C -0.243220 -0.505440 1.250756
C -0.569391 0.370092 -0.000852
O -1.169691 1.614976 -0.051920
C -1.142849 -0.893056 -0.666217
H 2.719971 0.200756 -0.331868
H 0.881438 -0.002533 -1.673978
H 0.618885 -2.330719 0.004612
H -1.105154 -0.879160 1.802196
H 0.551044 -0.155175 1.904045
H -0.566967 2.257943 0.340905
H -1.175031 -0.901754 -1.756266
H -2.054440 -1.290576 -0.224588
