15
charge=0, multiplicity=1, basis=def2-TZVP
C -2.067343 -0.760143 -0.155808
N -0.948632 0.165571 -0.214443
C -1.252971 1.501645 0.275588
C 0.304514 -0.368635 -0.010768
N 0.486182 -1.606435 0.241873
C 1.478002 0.557944 -0.265843
O 2.599057 0.280360 0.067639
H -2.947514 -0.268575 -0.570663
H -1.832295 -1.650578 -0.732501
H -2.284259 -1.074645 0.871783
H -1.567128 1.481916 1.326952
H -0.389818 2.158454 0.199094
H -2.061281 1.932369 -0.316198
H 1.486368 -1.800825 0.267239
H 1.267401 1.480189 -0.837834
