19
charge=0, multiplicity=1, basis=def2-TZVP
C -0.013152 -1.537513 -1.596342
C -0.013152 -0.368667 -0.668435
C -0.013152 -0.368667 0.668435
C -0.013152 -1.537513 1.596342
C -0.078689 1.036383 1.221331
C 0.219639 1.927909 -0.000000
C -0.078689 1.036383 -1.221331
H 0.849222 -1.501175 -2.269491
H 0.011201 -2.491115 -1.070367
H -0.904015 -1.527367 -2.233082
H 0.011201 -2.491115 1.070367
H 0.849222 -1.501175 2.269491
H -0.904015 -1.527367 2.233082
H -1.075708 1.231447 1.636681
H 0.628624 1.195837 2.040403
H -0.353317 2.855191 -0.000000
H 1.276747 2.199665 -0.000000
H 0.628624 1.195837 -2.040403
H -1.075708 1.231447 -1.636681
