18
charge=0, multiplicity=1, basis=def2-TZVP
C -0.031583 1.526660 1.262719
C -0.316436 0.712176 -0.000000
C -0.031583 1.526660 -1.262719
C 0.470074 -0.580340 0.000000
C -0.031583 -1.778079 0.753675
C -0.031583 -1.778079 -0.753675
H 1.022348 1.814678 1.304847
H -0.627029 2.441758 1.286712
H -0.255849 0.950095 2.161760
H -1.380709 0.447065 -0.000000
H 1.022348 1.814678 -1.304847
H -0.255849 0.950095 -2.161760
H -0.627029 2.441758 -1.286712
H 1.547022 -0.439875 0.000000
H 0.682460 -2.407768 1.266872
H -0.987005 -1.689354 1.255336
H -0.987005 -1.689354 -1.255336
H 0.682460 -2.407768 -1.266872
