15
charge=0, multiplicity=1, basis=def2-TZVP
C 2.365183 0.100140 0.618613
C 1.479665 -0.133783 -0.598351
N 0.048893 -0.071006 -0.286079
C -0.522592 1.201002 -0.189280
N -1.691386 1.440738 0.225869
C -0.623318 -1.265657 -0.055994
O -1.776382 -1.405957 0.243386
H 2.175440 1.080450 1.058921
H 2.176084 -0.653954 1.384116
H 3.419047 0.050643 0.338968
H 1.692839 0.601395 -1.376396
H 1.682089 -1.112849 -1.032096
H 0.182814 1.966296 -0.528525
H -1.874833 2.440095 0.180340
H 0.061398 -2.122752 -0.200875
