17
charge=0, multiplicity=1, basis=def2-TZVP
C -2.323352 -0.117442 0.400958
C -1.052915 0.026636 -0.404345
C -0.181776 1.249282 -0.061226
C 1.236949 0.746794 -0.290434
C 1.841563 -0.136807 0.778664
C 1.124544 -0.744890 -0.387276
O -0.211885 -1.119196 -0.163808
H -2.093921 -0.151727 1.467477
H -2.987421 0.728793 0.213642
H -2.850236 -1.033225 0.131333
H -1.293944 0.050382 -1.476050
H -0.418682 2.097911 -0.703410
H -0.341325 1.559533 0.974753
H 1.897937 1.303218 -0.939680
H 2.920603 -0.217189 0.811689
H 1.344248 -0.186923 1.738840
H 1.647744 -1.338643 -1.126182
