19
charge=0, multiplicity=1, basis=def2-TZVP
C -1.249922 0.779782 -0.491920
C -1.249922 -0.779782 -0.491920
C -0.000000 -1.129162 0.339037
C 1.249922 -0.779782 -0.491920
C 1.249922 0.779782 -0.491920
C 0.000000 1.129162 0.339037
C 0.000000 0.000000 1.384914
H -1.199891 1.200312 -1.497287
H -2.152124 1.171739 -0.019483
H -2.152124 -1.171739 -0.019483
H -1.199891 -1.200312 -1.497287
H -0.000000 -2.146408 0.728708
H 2.152124 -1.171739 -0.019483
H 1.199891 -1.200312 -1.497287
H 2.152124 1.171739 -0.019483
H 1.199891 1.200312 -1.497287
H 0.000000 2.146408 0.728708
H -0.888842 0.000000 2.018899
H 0.888842 0.000000 2.018899
