15
charge=0, multiplicity=1, basis=def2-TZVP
O -3.442170 0.278652 0.352304
C -2.481777 0.241668 -0.370707
C -1.264608 -0.612936 -0.138952
C 0.000011 0.243026 0.000025
C 1.264613 -0.612987 0.138848
C 2.481791 0.241559 0.370773
O 3.442139 0.278757 -0.352287
H -2.438679 0.878165 -1.281825
H -1.427715 -1.226360 0.748167
H -1.153508 -1.278032 -1.003452
H 0.101613 0.895911 -0.871573
H -0.101584 0.895756 0.871740
H 1.153493 -1.278254 1.003213
H 1.427713 -1.226234 -0.748394
H 2.438740 0.877802 1.282069
