16
charge=0, multiplicity=1, basis=def2-TZVP
C 1.707009 1.193902 -0.452745
C 1.429471 -0.287568 -0.462913
C 1.147752 -1.043785 0.789814
C 0.035681 -0.859591 -0.213915
C -1.092181 0.051498 0.136571
N -2.217525 -0.120274 -0.615534
O -1.035062 0.890860 1.019610
H 1.120623 1.699623 0.311872
H 2.765797 1.373729 -0.252850
H 1.468467 1.644114 -1.419190
H 1.973902 -0.836629 -1.223426
H 1.551571 -2.039327 0.912404
H 1.039163 -0.466081 1.698081
H -0.231917 -1.717234 -0.818562
H -2.252880 -0.762557 -1.385582
H -2.997954 0.492661 -0.451761
