17
charge=0, multiplicity=1, basis=def2-TZVP
C 1.364733 1.286437 0.292988
C 0.636065 -0.004354 -0.025653
O 1.519059 -0.934549 -0.649933
C -0.206949 -0.682279 1.109490
C -1.430515 -0.650685 0.192254
C -1.742922 0.761913 -0.187424
C -0.622608 0.057298 -0.890673
H 0.694984 2.027241 0.730243
H 2.169343 1.105516 1.012488
H 1.802393 1.703909 -0.615304
H 2.279738 -1.064624 -0.071683
H 0.164279 -1.687091 1.302278
H -0.303354 -0.137283 2.052030
H -2.150846 -1.447994 0.078935
H -2.635447 0.901469 -0.783514
H -1.546051 1.571944 0.507012
H -0.614335 -0.106683 -1.958907
