16
charge=0, multiplicity=1, basis=def2-TZVP
C -2.657252 0.030377 0.176021
O -1.378168 0.397321 -0.287089
C -0.381341 -0.550375 0.051244
C 0.935226 -0.112190 -0.510759
C 1.764119 0.891799 0.236099
C 2.204091 -0.545165 0.170915
H -2.981555 -0.927571 -0.252194
H -2.679517 -0.055808 1.270779
H -3.352314 0.810087 -0.132023
H -0.309530 -0.646332 1.145601
H -0.660195 -1.538276 -0.345156
H 0.959521 -0.052939 -1.592258
H 2.316766 1.624549 -0.335441
H 1.372043 1.260447 1.174876
H 2.116691 -1.142797 1.069250
H 3.054386 -0.796605 -0.447845
