18
charge=0, multiplicity=1, basis=def2-TZVP
C 2.166946 -0.802196 0.133277
C 1.383658 0.464860 -0.192635
C -0.069974 0.412013 0.258877
C -0.791302 1.734928 0.027289
O -0.689837 -0.654288 -0.458232
C -1.888509 -1.131043 0.108540
H 3.198609 -0.726861 -0.214645
H 2.191670 -0.981177 1.211339
H 1.709415 -1.670216 -0.340588
H 1.856322 1.330908 0.279073
H 1.395810 0.647512 -1.271383
H -0.098373 0.168788 1.332633
H -1.832186 1.689156 0.349269
H -0.306471 2.536549 0.587657
H -0.771030 1.991792 -1.033580
H -2.195860 -1.998494 -0.474291
H -1.741335 -1.437992 1.152328
H -2.692787 -0.387036 0.075946
