15
charge=0, multiplicity=1, basis=def2-TZVP
C 2.836570 -0.434967 -0.304750
N 1.654746 0.154173 0.316088
C 0.425921 -0.590021 0.087112
C -0.758491 0.342350 0.392486
O -0.627406 1.554930 -0.315167
C -2.023348 -0.305167 0.029551
N -2.996264 -0.857153 -0.233057
H 3.028524 -1.470014 0.009571
H 2.714598 -0.428275 -1.388791
H 3.710831 0.168315 -0.061147
H 1.809840 0.270916 1.311188
H 0.383780 -0.861955 -0.969074
H 0.339249 -1.513337 0.674912
H -0.793670 0.530461 1.476213
H 0.332804 1.712137 -0.339150
