17
charge=0, multiplicity=1, basis=def2-TZVP
C -3.105164 0.763979 0.086296
C -2.386878 -0.591576 0.119002
C -0.951665 -0.486021 -0.116466
C 0.229609 -0.371362 -0.316720
C 1.639048 -0.236825 -0.547229
C 2.384883 0.967780 -0.009096
C 2.614716 -0.377923 0.603824
H -2.705332 1.430845 0.850892
H -2.973815 1.246594 -0.882603
H -4.173843 0.634729 0.266259
H -2.560160 -1.075207 1.085466
H -2.823438 -1.255802 -0.633312
H 1.983362 -0.613165 -1.503357
H 3.159896 1.390808 -0.633481
H 1.805708 1.688627 0.550112
H 2.191714 -0.570882 1.579322
H 3.548614 -0.884854 0.403040
