15
charge=0, multiplicity=1, basis=def2-TZVP
C -0.380615 1.949005 0.046701
C -0.289007 0.479986 0.467174
C -1.452446 -0.290887 0.043167
C -2.409677 -0.908117 -0.334277
C 1.027365 -0.178688 -0.006607
C 1.159710 -1.665552 0.202742
O 1.905001 0.486610 -0.495801
H -0.415043 2.031884 -1.038669
H -1.281358 2.400544 0.460474
H 0.492440 2.494218 0.400066
H -0.241094 0.426616 1.564202
H -3.259702 -1.453156 -0.663871
H 0.779794 -1.962555 1.181825
H 0.552418 -2.185518 -0.541137
H 2.200553 -1.959393 0.090119
