16
charge=0, multiplicity=1, basis=def2-TZVP
O -2.533169 0.000880 -0.858427
C -2.180734 -0.000290 0.301833
N -0.894897 -0.000805 0.737122
C 0.253041 0.000025 -0.131885
C 1.343394 1.081085 0.058202
C 2.397546 0.000356 -0.288912
C 1.343590 -1.081132 0.056436
H -2.901215 -0.001119 1.139999
H -0.742408 -0.001830 1.733165
H -0.128928 0.000818 -1.150174
H 1.282418 1.973435 -0.563144
H 1.415457 1.383189 1.105320
H 2.641268 0.001256 -1.351152
H 3.323550 -0.000023 0.282786
H 1.415692 -1.384910 1.103070
H 1.282772 -1.972488 -0.566353
