16
charge=0, multiplicity=1, basis=def2-TZVP
C -0.291647 0.637505 2.186004
C -0.291647 -0.402329 1.084818
N -1.300349 -0.218768 -0.000000
C -0.291647 -0.402329 -1.084818
C -0.291647 0.637505 -2.186004
C 0.786652 -0.305268 0.000000
O 1.969123 -0.139312 0.000000
H -0.277665 1.641006 1.760317
H -1.183215 0.541301 2.807893
H 0.587762 0.512823 2.820303
H -0.290535 -1.414875 1.510941
H -2.043606 -0.905131 -0.000000
H -0.290535 -1.414875 -1.510941
H -0.277665 1.641006 -1.760317
H 0.587762 0.512823 -2.820303
H -1.183215 0.541301 -2.807893
