15
charge=0, multiplicity=1, basis=def2-TZVP
C -2.444770 -0.527608 0.033956
N -1.075251 -0.077521 -0.033912
C -0.658750 1.219785 -0.007462
C 0.718809 1.239068 0.005432
C 1.158061 -0.113079 -0.003185
N 2.495996 -0.536277 -0.078664
C 0.030335 -0.906994 -0.021203
H -2.691635 -0.915008 1.026250
H -3.106233 0.307692 -0.188557
H -2.622356 -1.313446 -0.701972
H -1.368915 2.029199 -0.000902
H 1.343110 2.117419 -0.003113
H 3.125660 0.071312 0.425479
H 2.629291 -1.489427 0.226675
H -0.076240 -1.978183 -0.041052
