16
charge=0, multiplicity=1, basis=def2-TZVP
C 2.360751 -0.244601 -0.016163
C 0.915417 0.106994 0.079003
C 0.334674 1.284517 -0.161075
C -1.165500 1.249294 0.020458
C -1.435170 -0.208984 0.355850
N -1.064365 -1.149868 -0.719023
C -0.128794 -0.907868 0.414108
H 2.523387 -1.006210 -0.784758
H 2.969334 0.625778 -0.261737
H 2.727979 -0.662254 0.926275
H 0.860169 2.171343 -0.492211
H -1.493103 1.908715 0.830849
H -1.697391 1.558544 -0.883868
H -2.254063 -0.473187 1.011816
H -1.552699 -2.028507 -0.564905
H 0.078683 -1.721259 1.098614
