19
charge=0, multiplicity=1, basis=def2-TZVP
C 0.072886 -1.538570 -0.775062
C 0.072886 -1.538570 0.775062
C -0.718524 -0.203443 0.784781
C 0.072886 1.037371 1.206583
C 0.970640 1.352307 -0.000000
C 0.072886 1.037371 -1.206583
C -0.718524 -0.203443 -0.784781
H 1.060318 -1.478342 -1.236118
H -0.459076 -2.376691 -1.224368
H -0.459076 -2.376691 1.224368
H 1.060318 -1.478342 1.236118
H -1.691132 -0.264346 1.271414
H -0.613613 1.871578 1.378426
H 0.635302 0.881981 2.129844
H 1.340830 2.378175 -0.000000
H 1.844760 0.695328 -0.000000
H -0.613613 1.871578 -1.378426
H 0.635302 0.881981 -2.129844
H -1.691132 -0.264346 -1.271414
