16
charge=0, multiplicity=1, basis=def2-TZVP
C 0.189223 1.546277 -0.001222
C 0.327775 0.026697 -0.000026
C 1.069529 -0.461811 -1.256119
C 1.069650 -0.459766 1.256809
C -1.035435 -0.641257 0.000611
O -2.097263 -0.077324 0.000120
H -0.355794 1.889105 -0.880770
H -0.356285 1.890373 0.877522
H 1.175689 2.013529 -0.001292
H 2.087714 -0.068657 -1.261298
H 1.131981 -1.551894 -1.284743
H 0.570096 -0.123951 -2.165702
H 0.570522 -0.120065 2.165872
H 1.131663 -1.549828 1.287408
H 2.087966 -0.066938 1.261034
H -0.989899 -1.753919 0.000692
