16
charge=0, multiplicity=1, basis=def2-TZVP
C -1.927540 0.116319 0.604609
N -1.707978 0.033575 -0.850952
C -0.559463 0.054067 0.059132
C 0.403014 1.234941 -0.046476
C 1.779779 0.572499 0.106974
O 1.594038 -0.792889 -0.268144
C 0.329273 -1.166652 0.253994
H -2.330801 1.059962 0.953006
H -2.311447 -0.757026 1.122511
H -1.888240 -0.909217 -1.182618
H 0.288035 1.699950 -1.024777
H 0.223348 1.991494 0.717490
H 2.546840 0.992770 -0.540575
H 2.128737 0.626200 1.146890
H 0.417415 -1.413352 1.322478
H -0.020723 -2.049744 -0.281988
