16
charge=0, multiplicity=1, basis=def2-TZVP
O 2.698563 -0.151509 -0.275809
C 1.492907 0.392442 0.257505
C 0.365268 -0.580703 -0.031527
C -0.959805 -0.097838 0.503276
C -1.786057 0.873547 -0.295437
C -2.243014 -0.551641 -0.130713
H 3.419135 0.462745 -0.104925
H 1.582931 0.545106 1.340953
H 1.268076 1.364303 -0.198538
H 0.297810 -0.726054 -1.113530
H 0.619780 -1.552120 0.402016
H -0.991124 0.034512 1.579744
H -2.327307 1.649543 0.228530
H -1.407708 1.171241 -1.265146
H -2.172064 -1.206616 -0.989413
H -3.093831 -0.745434 0.508161
