16
charge=0, multiplicity=1, basis=def2-TZVP
C 2.301349 -0.442172 -0.022061
N 0.932494 -0.145545 -0.367868
C 0.479982 1.259611 -0.215818
C -0.768380 0.777803 0.531867
O -1.841242 0.317521 -0.315735
C -1.387104 -1.062338 -0.221101
C -0.131977 -0.628969 0.538163
H 2.472849 -1.518791 -0.076389
H 2.970649 0.038190 -0.738208
H 2.582380 -0.097706 0.989260
H 1.136540 1.847627 0.440455
H 0.318219 1.796455 -1.152046
H -1.124907 1.343706 1.390674
H -2.094003 -1.660800 0.361293
H -1.214023 -1.511369 -1.200075
H 0.191548 -1.182278 1.419688
