17
charge=0, multiplicity=1, basis=def2-TZVP
O -2.572896 0.386952 0.132202
C -1.573616 -0.521750 -0.324714
C -0.275409 -0.211813 0.399666
C 0.864414 -1.190319 0.028255
C 2.151500 -0.336127 -0.019470
C 1.621339 1.066663 -0.168304
C 0.314863 1.135437 0.063289
H -3.385721 0.228732 -0.357573
H -1.870461 -1.558611 -0.119984
H -1.418373 -0.419307 -1.406503
H -0.492262 -0.255716 1.474398
H 0.936365 -2.029639 0.719300
H 0.669665 -1.603071 -0.965369
H 2.733768 -0.429716 0.904388
H 2.817450 -0.629314 -0.834426
H 2.257063 1.912157 -0.398381
H -0.282878 2.036321 0.054196
