15
charge=0, multiplicity=1, basis=def2-TZVP
C 2.169105 -0.312265 -0.673685
C 0.834004 -0.762888 -0.146418
C 0.420020 -0.495550 1.266434
C -0.263080 0.267122 0.152584
N -0.064918 1.683446 0.036825
C -1.606327 -0.153717 -0.181406
N -2.660136 -0.517085 -0.469197
H 2.472638 0.640914 -0.239797
H 2.940738 -1.046105 -0.433285
H 2.145248 -0.196153 -1.759338
H 0.465367 -1.689014 -0.570403
H -0.157657 -1.236651 1.799537
H 1.090076 0.087430 1.886571
H 0.571315 2.050453 0.727180
H 0.225329 1.968380 -0.888915
