15
charge=0, multiplicity=1, basis=def2-TZVP
C 2.952220 -0.591091 0.000124
C 1.763012 0.364357 -0.000090
C 0.431593 -0.372936 -0.000155
C -0.769617 0.527141 -0.000064
O -0.737162 1.735347 0.000080
C -2.152685 -0.140345 0.000038
O -2.317419 -1.329739 0.000042
H 2.942165 -1.236372 0.881787
H 2.942208 -1.236716 -0.881286
H 3.895741 -0.043514 0.000039
H 1.808302 1.021866 0.870915
H 1.808480 1.021695 -0.871219
H 0.339587 -1.041529 -0.864254
H 0.339562 -1.041628 0.863873
H -2.986526 0.588585 0.000048
