17
charge=0, multiplicity=1, basis=def2-TZVP
C -1.909254 -0.721947 -0.435214
C -0.746414 0.044945 0.108286
C 0.020398 -0.384324 1.340276
C 0.743888 -0.236125 0.036785
O 1.367272 -1.306000 -0.593526
C 1.053625 1.226339 -0.257993
C -0.473420 1.532995 -0.134918
H -1.744355 -1.796704 -0.341878
H -2.831333 -0.475418 0.098692
H -2.064450 -0.498121 -1.493507
H 0.191906 0.304993 2.162344
H -0.157431 -1.411122 1.635799
H 2.062438 -1.646267 -0.018956
H 1.728322 1.735965 0.434264
H 1.412892 1.363205 -1.277070
H -0.901499 1.895691 -1.069235
H -0.767604 2.204485 0.674420
