15
charge=0, multiplicity=1, basis=def2-TZVP
C -3.233468 0.126409 0.015511
N -1.967312 -0.573187 -0.007286
C -0.912012 0.117663 -0.004226
N 0.331312 -0.496461 -0.025792
C 1.529980 0.187755 -0.013793
C 2.756900 -0.694689 0.018467
O 1.585999 1.399368 -0.003925
H -3.804520 -0.185600 0.893032
H -3.131537 1.219521 0.033642
H -3.819174 -0.155121 -0.862661
H -0.858254 1.207173 0.013819
H 0.325608 -1.504986 -0.039101
H 2.610932 -1.634299 -0.515649
H 3.592351 -0.150019 -0.413865
H 3.000207 -0.926905 1.057972
