15
charge=0, multiplicity=1, basis=def2-TZVP
C -2.438240 -0.261974 -0.132054
C -1.067727 -0.852526 0.188575
C 0.075124 0.006704 -0.335267
C 0.201044 1.341446 0.383270
O 0.765604 2.299530 -0.071793
C 1.439784 -0.673470 -0.247208
O 1.617642 -1.768094 0.211061
H -3.236565 -0.896347 0.254627
H -2.566056 0.731220 0.305327
H -2.581054 -0.165666 -1.210775
H -0.950319 -0.977482 1.268546
H -0.975916 -1.853425 -0.234397
H -0.052434 0.252052 -1.397116
H -0.238777 1.363738 1.401961
H 2.275249 -0.066650 -0.646215
