15
charge=0, multiplicity=1, basis=def2-TZVP
C -0.312546 1.421246 0.000000
C -0.331587 0.501138 -1.216615
N 0.867299 -0.333338 -1.385825
C -0.331587 -0.911990 -0.755177
C -0.331587 -0.911990 0.755177
N 0.867299 -0.333338 1.385825
C -0.331587 0.501138 1.216615
H 0.557808 2.079441 0.000000
H -1.211847 2.041239 0.000000
H -0.873851 0.813202 -2.101168
H 0.926606 -0.650545 -2.348845
H -0.880142 -1.688263 -1.272334
H -0.880142 -1.688263 1.272334
H 0.926606 -0.650545 2.348845
H -0.873851 0.813202 2.101168
