16
charge=0, multiplicity=1, basis=def2-TZVP
C -2.554699 -0.531222 0.000011
C -1.111573 -0.164734 0.000023
C 0.020053 -0.946794 0.000010
C 1.161959 -0.090066 0.000038
C 2.596908 -0.509169 0.000014
C 0.684000 1.197032 0.000021
N -0.692033 1.141694 -0.000206
H -3.074960 -0.147315 -0.882721
H -2.660629 -1.615087 0.000285
H -3.075107 -0.146880 0.882473
H 0.030265 -2.025370 -0.000116
H 2.839681 -1.111880 -0.879137
H 3.258919 0.357912 -0.000532
H 2.839975 -1.110990 0.879699
H 1.207619 2.137959 -0.000084
H -1.301421 1.939511 0.000872
