16
charge=0, multiplicity=1, basis=def2-TZVP
C -2.537107 -0.660572 0.153574
C -1.058695 -0.737315 -0.190706
N -0.554433 0.595176 -0.511514
C -0.060279 1.392500 0.591733
C 0.893664 0.837332 -0.418702
C 1.809896 -0.205788 -0.048917
C 2.588131 -1.079460 0.222257
H -2.932748 -1.655934 0.362773
H -2.699521 -0.040510 1.037781
H -3.103188 -0.227248 -0.671728
H -0.500182 -1.198073 0.634594
H -0.905045 -1.365111 -1.070973
H -0.302149 2.448429 0.572932
H -0.034290 0.936778 1.577260
H 1.267524 1.503946 -1.188164
H 3.276968 -1.848693 0.470679
