17
charge=0, multiplicity=1, basis=def2-TZVP
C -0.533936 -0.861370 -1.064147
C -1.199628 0.052543 0.000000
C -0.533936 -0.861370 1.064147
C 0.573572 -1.112624 0.000000
C 1.504409 0.077119 -0.000000
C 0.968034 1.294382 -0.000000
C -0.533936 1.435023 -0.000000
H -1.130553 -1.755107 -1.248282
H -0.227371 -0.414632 -2.010092
H -2.286647 0.132352 0.000000
H -0.227371 -0.414632 2.010092
H -1.130553 -1.755107 1.248282
H 1.096269 -2.066962 0.000000
H 2.576772 -0.076645 -0.000000
H 1.578888 2.189389 -0.000000
H -0.858456 2.009564 -0.875212
H -0.858456 2.009564 0.875212
