15
charge=0, multiplicity=1, basis=def2-TZVP
C -0.000000 -2.306286 0.000000
C -0.577589 -0.919801 0.000000
O -0.129170 -0.185082 1.137513
C -0.131121 1.169172 0.745325
C 1.092093 1.636883 -0.000000
C -0.131121 1.169172 -0.745325
O -0.129170 -0.185082 -1.137513
H 1.088193 -2.251535 0.000000
H -0.333343 -2.845782 0.886520
H -0.333343 -2.845782 -0.886520
H -1.677986 -0.933975 -0.000000
H -0.722190 1.832519 1.362172
H 1.303607 2.698902 -0.000000
H 1.950488 0.979621 0.000000
H -0.722190 1.832519 -1.362172
