16
charge=0, multiplicity=1, basis=def2-TZVP
C 0.000000 2.547880 0.124510
C -0.037917 1.288398 -0.727290
C 0.000000 -0.000000 0.075816
O 0.000000 -0.000000 1.285151
C 0.037917 -1.288398 -0.727290
C -0.000000 -2.547880 0.124510
H -0.842147 2.575704 0.815480
H 0.910304 2.586370 0.722869
H -0.037898 3.438550 -0.504019
H -0.941397 1.260058 -1.347043
H 0.794802 1.264960 -1.438660
H -0.794802 -1.264960 -1.438660
H 0.941397 -1.260058 -1.347043
H 0.842147 -2.575704 0.815480
H -0.910304 -2.586370 0.722869
H 0.037898 -3.438550 -0.504019
