15
charge=0, multiplicity=1, basis=def2-TZVP
O -1.585050 1.269933 -0.057113
C -1.562440 -0.098970 0.211004
C -0.935352 -1.076167 -0.735304
C -0.291416 -0.807207 0.610369
C 0.984233 -0.041084 0.702234
C 2.103244 -0.242308 -0.221010
O 1.251173 0.902406 -0.353226
H -0.746720 1.515700 -0.470387
H -2.475354 -0.390043 0.712867
H -1.405312 -2.035784 -0.903597
H -0.445267 -0.650022 -1.601827
H -0.380105 -1.578636 1.367352
H 1.213489 0.352578 1.689308
H 3.116364 -0.017167 0.095003
H 2.004317 -0.980917 -1.009761
