17
charge=0, multiplicity=1, basis=def2-TZVP
C -2.404113 -0.217007 0.187033
O -1.319000 -0.026363 -0.708578
C -0.097119 0.031689 -0.069037
C 0.369047 1.266836 0.639061
C 1.151710 0.737737 -0.541756
C 2.004612 -0.451089 -0.095307
C 0.708390 -1.195010 0.361945
H -2.313205 -1.165500 0.727521
H -2.461627 0.599804 0.914460
H -3.312523 -0.234078 -0.412261
H -0.223523 2.146948 0.424989
H 0.790283 1.227673 1.639206
H 1.302822 1.334762 -1.429677
H 2.505217 -0.958861 -0.917847
H 2.735668 -0.234970 0.686204
H 0.639076 -1.485951 1.411859
H 0.494655 -2.057869 -0.267472
