15
charge=0, multiplicity=1, basis=def2-TZVP
C 2.078509 -0.668541 0.056307
C 0.708009 -0.096798 -0.114336
C 0.395597 1.276627 -0.623535
C -0.052724 0.889509 0.761165
C -1.282929 -0.059845 0.717272
O -1.693392 -0.261142 -0.644445
C -0.572221 -0.997502 -0.135625
H 2.100725 -1.420598 0.849788
H 2.425322 -1.144941 -0.865358
H 2.795076 0.111882 0.318240
H 1.245417 1.947506 -0.643612
H -0.330609 1.430121 -1.408447
H 0.289492 1.389448 1.655277
H -2.022698 -0.208814 1.490520
H -0.601038 -2.076173 -0.208333
