17
charge=0, multiplicity=1, basis=def2-TZVP
C 1.259858 -0.777527 -0.462736
C 1.259858 0.777527 -0.462736
C 0.000000 1.074362 0.369836
C -1.259858 0.777527 -0.462736
C -1.259858 -0.777527 -0.462736
C -0.000000 -1.074362 0.369836
O -0.000000 -0.000000 1.326801
H 1.206941 -1.206696 -1.463220
H 2.147110 -1.172875 0.029982
H 2.147110 1.172875 0.029982
H 1.206941 1.206696 -1.463220
H 0.000000 2.027004 0.893082
H -2.147110 1.172875 0.029982
H -1.206941 1.206696 -1.463220
H -2.147110 -1.172875 0.029982
H -1.206941 -1.206696 -1.463220
H -0.000000 -2.027004 0.893082
