15
charge=0, multiplicity=1, basis=def2-TZVP
C 0.092920 1.869425 -0.296462
C 0.041204 0.377841 0.005576
C -1.065134 -0.072859 0.998712
O -1.665096 -0.919587 0.004375
C -0.697979 -0.521581 -0.997978
C 1.405954 -0.108607 0.419774
O 2.036597 -0.974878 -0.125210
H -0.907567 2.245385 -0.513739
H 0.487585 2.431005 0.553847
H 0.729471 2.071748 -1.160254
H -0.729941 -0.639396 1.872691
H -1.736009 0.729077 1.320651
H -1.172057 0.008839 -1.827328
H -0.121529 -1.368482 -1.370433
H 1.816252 0.412218 1.313515
