16
charge=0, multiplicity=1, basis=def2-TZVP
C 2.371049 -0.020580 -0.175299
C 0.954290 0.052085 0.378353
C 0.149911 1.203586 -0.224494
C -1.303769 1.066348 0.183092
O -1.820001 -0.226472 -0.178219
C -0.941444 -1.255935 -0.102026
N 0.290990 -1.236386 0.161918
H 2.347868 -0.185464 -1.254306
H 2.914449 0.905882 0.022134
H 2.911024 -0.850008 0.280689
H 1.020031 0.200077 1.462965
H 0.537558 2.170553 0.102866
H 0.227723 1.169157 -1.314895
H -1.418073 1.184984 1.264671
H -1.947332 1.789861 -0.314355
H -1.450394 -2.191584 -0.315195
