17
charge=0, multiplicity=1, basis=def2-TZVP
C -0.000000 -0.764931 1.768633
C 0.000000 0.764931 1.768633
C -0.000000 -0.000000 0.499608
C 0.942568 0.000000 -0.714498
C -0.000000 -1.073250 -1.332647
C -0.942568 0.000000 -0.714498
C 0.000000 1.073250 -1.332647
H 0.909682 -1.264547 2.077994
H -0.909682 -1.264547 2.077994
H -0.909682 1.264547 2.077994
H 0.909682 1.264547 2.077994
H 2.031293 0.000000 -0.705491
H -0.000000 -1.145724 -2.420886
H -0.000000 -2.053611 -0.857366
H -2.031293 0.000000 -0.705491
H 0.000000 2.053611 -0.857366
H 0.000000 1.145724 -2.420886
