16
charge=0, multiplicity=1, basis=def2-TZVP
C -1.228961 -1.258904 -0.002398
C -0.385322 0.000002 0.034696
C -1.228354 1.259307 -0.002370
C 0.764184 -0.000218 1.071122
C 1.697578 -0.000048 -0.145835
O 0.584152 -0.000215 -1.063788
H -0.595201 -2.146373 -0.000757
H -1.892646 -1.302942 0.864442
H -1.840801 -1.276580 -0.906317
H -1.891959 1.303606 0.864508
H -0.594136 2.146452 -0.000706
H -1.840184 1.277285 -0.906283
H 0.812962 0.887893 1.698584
H 0.812912 -0.888596 1.698197
H 2.320370 0.890014 -0.266306
H 2.320714 -0.889866 -0.266346
