15
charge=0, multiplicity=1, basis=def2-TZVP
O -1.982680 -0.947229 -0.306900
C -1.249146 0.235400 -0.467593
C -0.926633 1.098981 0.741425
C 0.118112 0.246742 0.100929
C 0.911516 -0.922034 0.652782
C 2.063186 -0.326585 -0.178206
O 1.235290 0.789925 -0.603269
H -2.900246 -0.717744 -0.121275
H -1.386887 0.750382 -1.414610
H -0.872285 2.169246 0.588404
H -1.302155 0.778957 1.705755
H 1.064800 -0.905434 1.730136
H 0.553668 -1.901550 0.344818
H 2.933788 0.017200 0.382555
H 2.386229 -0.927646 -1.030454
