15
charge=0, multiplicity=1, basis=def2-TZVP
C 2.414356 0.000029 0.009310
C 0.909892 0.000066 -0.011713
C 0.193927 -1.197035 -0.008994
C -1.195438 -1.200075 0.002062
C -1.896312 -0.000045 0.008618
C -1.195550 1.200015 0.002061
C 0.193849 1.197080 -0.008992
H 2.790950 -0.003740 1.036206
H 2.818872 -0.881690 -0.489202
H 2.818817 0.885334 -0.482805
H 0.732107 -2.137637 -0.017945
H -1.731149 -2.140951 0.001687
H -2.978570 -0.000095 0.014213
H -1.731325 2.140854 0.001683
H 0.731955 2.137719 -0.017940
