17
charge=0, multiplicity=1, basis=def2-TZVP
C -3.445034 0.000060 -0.235641
C -2.019750 -0.000142 0.059147
C -0.842861 -0.000185 0.308331
C 0.580692 -0.000117 0.569907
C 1.478791 -1.080908 -0.105269
C 2.567906 0.000148 -0.298917
C 1.478580 1.080961 -0.105108
H -4.037161 -0.081240 0.678750
H -3.741513 0.920451 -0.744046
H -3.713452 -0.838425 -0.882452
H 0.761064 -0.000163 1.648140
H 1.722733 -1.961792 0.487088
H 1.047549 -1.397314 -1.054640
H 3.287617 0.000136 0.520723
H 3.113646 0.000275 -1.241203
H 1.047229 1.397360 -1.054428
H 1.722342 1.961817 0.487364
