17
charge=0, multiplicity=1, basis=def2-TZVP
C -2.117022 0.000010 0.272793
C -0.642831 0.000023 -0.001172
C 0.052082 -1.215606 -0.672609
C 1.316591 -0.766107 0.042583
C 1.316715 0.765940 0.042450
C 0.052156 1.215651 -0.672581
C 0.529858 0.000080 1.072145
H -2.680702 -0.000020 -0.664784
H -2.414934 -0.883785 0.841666
H -2.414977 0.883779 0.841677
H -0.319468 -2.157099 -0.264548
H 0.042383 -1.255272 -1.766115
H 2.232005 -1.318939 0.195189
H 2.232211 1.318660 0.194962
H 0.042350 1.255418 -1.766080
H -0.319267 2.157149 -0.264404
H 0.555102 0.000163 2.150778
