15
charge=0, multiplicity=1, basis=def2-TZVP
O -1.794548 -1.262177 -0.000000
C -0.766376 -0.654071 -0.000000
C 0.250821 -0.182533 1.051267
C 1.294800 -0.682473 0.000000
C 0.250821 -0.182533 -1.051267
C 0.250821 1.335337 -0.784639
C 0.250821 1.335337 0.784639
H 0.230371 -0.533202 2.078156
H 2.256905 -0.170738 0.000000
H 1.425428 -1.762528 0.000000
H 0.230371 -0.533202 -2.078156
H 1.138242 1.813562 -1.198639
H -0.626708 1.827789 -1.202551
H -0.626708 1.827789 1.202551
H 1.138242 1.813562 1.198639
