16
charge=0, multiplicity=1, basis=def2-TZVP
C 0.043218 -0.863663 0.090821
C -1.212290 -0.280196 -0.489693
C -2.454390 -0.214123 0.278038
O -1.662850 0.959019 0.075769
N 1.216777 -0.266897 -0.527338
C 1.679303 0.982883 0.065421
C 2.436117 -0.278170 0.268345
H 0.026613 -0.724410 1.183431
H 0.065559 -1.939518 -0.109261
H -1.274505 -0.313653 -1.574156
H -3.408639 -0.225804 -0.239182
H -2.472666 -0.588033 1.297875
H 2.035787 1.728311 -0.634089
H 1.117613 1.374787 0.906338
H 2.391045 -0.731909 1.254210
H 3.352812 -0.464033 -0.277543
