15
charge=0, multiplicity=1, basis=def2-TZVP
N 2.506424 -0.069230 -0.719127
C 1.590519 0.075356 -0.037317
C 0.392149 0.197474 0.821292
C -0.569756 1.279354 0.288241
C -1.522338 0.512267 -0.661141
C -1.157769 -0.973791 -0.482626
N -0.441765 -0.998862 0.798620
H 0.731722 0.412208 1.835609
H -1.116092 1.694837 1.133050
H -0.036480 2.090367 -0.202951
H -2.559470 0.696795 -0.385977
H -1.396551 0.821911 -1.697181
H -2.031595 -1.622936 -0.432994
H -0.529480 -1.310907 -1.316951
H 0.088495 -1.849593 0.940253
