15
charge=0, multiplicity=1, basis=def2-TZVP
O 0.191271 1.600890 0.350716
C 0.418199 0.474723 -0.496599
C 1.684555 -0.186251 -0.172631
C 2.707717 -0.737623 0.125656
C -0.733453 -0.522010 -0.475048
C -1.486818 -0.807140 0.788691
C -2.143801 -0.038769 -0.329628
H 0.472798 1.367838 1.242468
H 0.490450 0.893442 -1.504573
H 3.618218 -1.221225 0.382001
H -0.567185 -1.362704 -1.137859
H -1.797813 -1.825493 0.975734
H -1.224916 -0.250519 1.678466
H -2.286617 1.021316 -0.173458
H -2.913501 -0.527366 -0.911149
