15
charge=0, multiplicity=1, basis=def2-TZVP
C -0.093234 1.718294 0.064694
C 0.202916 0.233949 0.156899
C -0.537753 -0.593446 1.205292
C -0.867168 -0.757494 -0.244984
O -2.055985 -0.226582 -0.754978
C 1.561701 -0.140812 -0.127611
C 2.699403 -0.445416 -0.364238
H -1.149690 1.908823 0.240389
H 0.496128 2.264881 0.802024
H 0.161011 2.096104 -0.926235
H 0.002925 -1.380862 1.710877
H -1.249568 -0.048335 1.811375
H -0.519629 -1.655909 -0.744603
H -2.793047 -0.748223 -0.418509
H 3.704569 -0.714275 -0.575799
