16
charge=0, multiplicity=1, basis=def2-TZVP
C 2.534813 0.019759 0.106723
C 1.298697 -0.816889 -0.201151
C 0.013959 -0.148141 0.286067
O -0.160143 1.062484 -0.413904
C -1.212475 1.876485 0.080778
C -1.149410 -1.041160 0.095388
N -2.058551 -1.727777 -0.059073
H 2.474688 0.995545 -0.373420
H 2.646419 0.176073 1.182353
H 3.433862 -0.482695 -0.251689
H 1.202396 -0.985223 -1.275609
H 1.369191 -1.798266 0.272707
H 0.091331 0.050075 1.365630
H -1.205748 2.788225 -0.512120
H -2.183383 1.382627 -0.025428
H -1.051256 2.127885 1.135492
