17
charge=0, multiplicity=1, basis=def2-TZVP
C -0.851670 1.562745 -0.035491
C -0.730923 0.058526 -0.016511
C -2.049792 -0.683452 -0.018837
C 0.366742 -0.679935 -0.763291
C 1.691713 0.051439 -0.640942
O 1.558987 0.139645 0.806536
C 0.354225 -0.630870 0.750413
H 0.112047 2.046954 0.111182
H -1.273717 1.906059 -0.983379
H -1.513462 1.897861 0.766799
H -2.612310 -0.471614 -0.931552
H -1.903968 -1.764322 0.037607
H -2.664277 -0.381617 0.832437
H 0.161400 -1.499379 -1.436569
H 2.553340 -0.567157 -0.899333
H 1.784191 1.034053 -1.110207
H 0.203097 -1.388717 1.508681
