15
charge=0, multiplicity=1, basis=def2-TZVP
O -2.123641 -0.387915 0.161524
C -0.952885 0.098177 -0.476423
C -0.307250 1.287858 0.273323
O 1.099270 1.220846 0.046872
C 1.423861 -0.113501 -0.269029
C 0.966170 -1.193268 0.662818
C 0.190220 -0.883385 -0.609285
H -1.856134 -0.871322 0.952217
H -1.282024 0.403480 -1.470478
H -0.660517 2.258245 -0.072042
H -0.535325 1.200858 1.342010
H 2.358431 -0.193833 -0.804699
H 1.530624 -2.115416 0.677822
H 0.557082 -0.905674 1.623458
H 0.162148 -1.615067 -1.403881
