15
charge=0, multiplicity=1, basis=def2-TZVP
C -0.000000 -1.271090 0.967757
C 0.000000 -0.000000 0.149771
C 0.000000 1.271090 0.967757
C 0.754953 0.000000 -1.151253
C -0.754953 -0.000000 -1.151253
H -0.000000 -2.155387 0.328264
H 0.883266 -1.322293 1.610359
H -0.883266 -1.322293 1.610359
H 0.883266 1.322293 1.610359
H 0.000000 2.155387 0.328264
H -0.883266 1.322293 1.610359
H 1.261699 0.908935 -1.448659
H 1.261699 -0.908935 -1.448659
H -1.261699 -0.908935 -1.448659
H -1.261699 0.908935 -1.448659
