19
charge=0, multiplicity=1, basis=def2-TZVP
C -2.111184 -0.285537 -0.053017
C -0.950077 -0.652709 0.902833
C -0.000025 0.173272 0.000031
C -1.236933 0.871297 -0.597350
C 1.236981 0.871425 0.597172
C 2.111186 -0.285558 0.053035
C 0.950030 -0.652910 -0.902664
H -2.276398 -1.056537 -0.805932
H -3.069482 -0.027312 0.396234
H -1.072935 -0.186136 1.882405
H -0.717055 -1.709210 1.043273
H -1.233359 1.047947 -1.674044
H -1.448904 1.813526 -0.087156
H 1.448921 1.813502 0.086684
H 1.233567 1.048397 1.673816
H 3.069450 -0.027421 -0.396337
H 2.276441 -1.056425 0.806074
H 0.717050 -1.709450 -1.042912
H 1.072839 -0.186555 -1.882347
