17
charge=0, multiplicity=1, basis=def2-TZVP
O -2.069635 -0.368605 0.162508
C -0.915236 0.085214 -0.536625
C -0.203783 1.310624 0.120124
C 1.142419 0.653910 0.461666
C 1.441794 -0.124282 -0.848878
C 0.203327 -0.948547 -0.406115
C 0.695940 -0.712114 1.047144
H -2.747566 0.313119 0.112466
H -1.166914 0.269124 -1.586520
H -0.097271 2.154511 -0.563506
H -0.746421 1.643385 1.006479
H 1.892807 1.271942 0.950347
H 1.389960 0.420821 -1.793856
H 2.362470 -0.703559 -0.797539
H -0.009243 -1.940614 -0.796761
H 1.540299 -1.350994 1.302453
H -0.047807 -0.717719 1.842476
