15
charge=0, multiplicity=1, basis=def2-TZVP
C -1.841466 0.818163 0.000004
N -1.177769 -0.483386 0.000002
C -0.060788 -0.949739 -0.752902
C 1.205122 -0.019598 -0.735257
N 0.883011 1.221915 0.000009
C 1.205148 -0.019607 0.735240
C -0.060784 -0.949738 0.752910
H -1.570831 1.400322 -0.878808
H -2.922093 0.650506 -0.000125
H -1.571040 1.400213 0.878949
H -0.171226 -1.774432 -1.445932
H 2.034886 -0.077253 -1.423517
H 1.716479 1.805803 0.000002
H 2.034933 -0.077282 1.423473
H -0.171192 -1.774461 1.445909
