15
charge=0, multiplicity=1, basis=def2-TZVP
C 1.951807 0.713024 0.447637
C 0.840320 0.247550 -0.455316
O 0.727992 -1.211927 -0.564818
C -0.673996 -1.140812 -0.291639
C -0.910969 -0.627777 1.101354
C -0.622664 0.330193 -0.026522
O -1.484955 1.334764 -0.428433
H 1.831050 0.326369 1.459793
H 2.918297 0.378798 0.066439
H 1.963596 1.805082 0.486423
H 0.945702 0.662308 -1.462156
H -1.349625 -1.768330 -0.854790
H -1.950951 -0.631270 1.405072
H -0.190800 -0.832077 1.884837
H -1.618556 1.943360 0.307302
