15
charge=0, multiplicity=1, basis=def2-TZVP
C -1.958230 -0.871680 -0.361034
C -0.850946 -0.743963 0.684770
C 0.390193 -0.095251 0.132844
C 1.741970 -0.604998 0.437920
O 1.154215 -0.855269 -0.827060
C 0.331209 1.357371 -0.221948
O -0.530470 2.110957 0.147765
H -2.276886 0.108216 -0.716838
H -1.614203 -1.455194 -1.216202
H -2.828703 -1.373389 0.063091
H -1.197844 -0.142610 1.528065
H -0.584012 -1.729007 1.072155
H 2.597772 0.064384 0.430457
H 1.817751 -1.459510 1.103258
H 1.170979 1.692730 -0.864933
