15
charge=0, multiplicity=1, basis=def2-TZVP
C 1.324813 -0.280484 -1.268077
C 0.554724 0.033478 -0.000002
C 1.325035 -0.280358 1.267971
O 0.049872 1.412458 -0.000032
C -1.336812 1.013436 -0.000025
C -0.903108 -0.446506 0.000181
O -1.445417 -1.508393 0.000070
H 0.739784 -0.030271 -2.153146
H 2.249612 0.298609 -1.290012
H 1.574818 -1.341819 -1.303054
H 2.249698 0.298947 1.289785
H 0.740063 -0.030301 2.153123
H 1.575267 -1.341641 1.302890
H -1.876435 1.338393 0.894259
H -1.876357 1.338176 -0.894436
