15
charge=0, multiplicity=1, basis=def2-TZVP
C -2.152191 0.221347 -0.363554
C -0.710965 0.072268 0.011724
C 0.190337 1.281161 0.131883
O 1.526534 0.786153 0.153662
C 1.567789 -0.516251 -0.429092
C 0.164608 -1.048491 -0.327183
O -0.384104 -0.930003 0.992486
H -2.626641 -0.755766 -0.445215
H -2.687485 0.797868 0.394239
H -2.251813 0.742458 -1.317767
H 0.027622 1.945857 -0.727515
H 0.026023 1.845595 1.052064
H 1.870651 -0.472973 -1.484442
H 2.299311 -1.106358 0.125798
H -0.154577 -1.906081 -0.909017
