16
charge=0, multiplicity=1, basis=def2-TZVP
C 1.896669 -0.611652 -0.691729
N 1.143638 -0.209641 0.491055
C 0.716729 1.202943 0.438013
C -0.610729 1.226590 -0.334695
C -1.197581 -0.151653 -0.049329
O -2.309533 -0.531824 -0.304968
C -0.099104 -0.963268 0.646006
H 1.344508 -0.505234 -1.640224
H 2.805043 -0.012477 -0.760110
H 2.192376 -1.656334 -0.592985
H 0.562355 1.558097 1.460436
H 1.497190 1.814403 -0.010807
H -1.306497 2.011379 -0.040342
H -0.456643 1.312548 -1.413529
H -0.032856 -1.973372 0.244692
H -0.370583 -1.044690 1.705630
