15
charge=0, multiplicity=1, basis=def2-TZVP
C -1.876774 -0.798640 -0.000009
C -1.156797 0.543101 -0.000011
C 0.071756 0.953370 0.766221
C 1.225062 -0.088058 0.726396
O 0.808836 -1.253921 0.000003
C 1.225027 -0.088058 -0.726426
C 0.071745 0.953428 -0.766201
H -1.625051 -1.392721 0.876188
H -2.956143 -0.633327 0.000245
H -1.625518 -1.392664 -0.876381
H -1.850963 1.378893 0.000051
H 0.090171 1.810249 1.424024
H 2.023259 -0.200146 1.445928
H 2.023213 -0.200143 -1.445971
H 0.090237 1.810369 -1.423922
