15
charge=0, multiplicity=1, basis=def2-TZVP
C -0.000000 1.396271 -0.521213
O -1.241048 0.651407 -0.471215
C -0.949655 -0.526944 0.300823
C 0.000000 -1.396271 -0.521213
O 1.241048 -0.651407 -0.471215
C 0.949655 0.526944 0.300823
C 0.000000 -0.000000 1.379286
H 0.336375 1.489353 -1.554850
H -0.152107 2.390614 -0.091845
H -1.883126 -0.991405 0.605160
H 0.152107 -2.390614 -0.091845
H -0.336375 -1.489353 -1.554850
H 1.883126 0.991405 0.605160
H -0.455334 0.772781 1.995734
H 0.455334 -0.772781 1.995734
