19
charge=0, multiplicity=1, basis=def2-TZVP
C 1.792057 -0.000477 1.010356
C 1.309611 0.000328 -0.420174
C 0.111145 -0.755717 -0.936516
C -0.953151 -1.241963 0.031454
C -1.436416 -0.000583 0.820310
C -0.953554 1.241767 0.032860
C 0.111008 0.756913 -0.935666
H 0.982768 0.001212 1.736739
H 2.405829 -0.883011 1.206994
H 2.409152 0.879788 1.206722
H 2.134075 0.000657 -1.126396
H 0.231410 -1.307067 -1.860422
H -1.775582 -1.672792 -0.544067
H -0.591795 -2.027603 0.699744
H -2.520734 -0.000778 0.936969
H -1.022111 -0.001029 1.827500
H -1.776004 1.672919 -0.542397
H -0.592415 2.026876 0.701878
H 0.231196 1.309226 -1.859002
