17
charge=0, multiplicity=1, basis=def2-TZVP
C -2.071440 -0.462448 -0.407041
C -0.703161 -0.085016 0.065068
C -0.442764 1.116297 0.931677
C 0.134466 1.034481 -0.471792
C 1.536530 0.478981 -0.608850
C 1.485380 -0.798536 0.248671
O 0.119204 -1.216867 0.276823
H -2.010290 -1.042648 -1.329733
H -2.583491 -1.066745 0.344504
H -2.669951 0.429519 -0.593766
H -1.265499 1.801929 1.085100
H 0.224178 1.023564 1.779061
H -0.242301 1.704070 -1.233186
H 1.730517 0.239243 -1.656398
H 2.318693 1.159514 -0.267531
H 2.077599 -1.618728 -0.156069
H 1.832846 -0.597343 1.267031
