16
charge=0, multiplicity=1, basis=def2-TZVP
C 2.110177 -0.785082 -0.488615
C 1.153050 -0.117591 0.476086
C 0.733531 1.318129 0.078070
N -0.689283 1.222273 -0.262119
C -1.049158 0.034073 -0.008604
C -2.410938 -0.535780 -0.175465
O -0.114442 -0.835513 0.472377
H 1.716054 -0.739741 -1.505782
H 3.074896 -0.273296 -0.470931
H 2.269361 -1.830448 -0.222597
H 1.536448 -0.169637 1.495775
H 0.868943 2.034757 0.891131
H 1.301845 1.684674 -0.780078
H -3.083706 0.228397 -0.554375
H -2.383173 -1.379380 -0.867500
H -2.780123 -0.909628 0.781344
