15
charge=0, multiplicity=1, basis=def2-TZVP
C 2.751013 0.187556 0.151407
O 1.445417 0.241689 -0.386136
C 0.567922 -0.684700 0.199375
C -0.829857 -0.450971 -0.372318
N -1.737666 -1.482310 0.118890
C -1.291842 0.919270 -0.073577
N -1.710627 1.954650 0.201777
H 2.746996 0.410283 1.225185
H 3.205445 -0.798966 -0.002622
H 3.342754 0.939117 -0.367118
H 0.856772 -1.717371 -0.029270
H 0.545819 -0.569352 1.292756
H -0.758877 -0.543376 -1.458253
H -1.916669 -1.358609 1.109317
H -2.630942 -1.428552 -0.354897
