17
charge=0, multiplicity=1, basis=def2-TZVP
C 0.341061 -2.568189 0.000000
C 0.933409 -1.167882 0.000000
C 0.341061 -0.228585 -1.083665
C -0.585713 0.401051 -0.000000
C 0.341061 -0.228585 1.083665
C -0.775176 1.834501 -0.000000
C -0.900683 3.029319 -0.000000
H -0.751752 -2.537998 0.000000
H 0.656833 -3.127484 -0.883608
H 0.656833 -3.127484 0.883608
H 2.022294 -1.229702 0.000000
H 1.065862 0.497778 -1.448016
H -0.154460 -0.696832 -1.934219
H -1.558798 -0.093663 -0.000000
H -0.154460 -0.696832 1.934219
H 1.065862 0.497778 1.448016
H -1.018336 4.084657 -0.000000
