17
charge=0, multiplicity=1, basis=def2-TZVP
C 2.368835 -0.841307 -0.305641
C 1.677963 0.327608 0.352728
C 0.819233 1.274484 -0.444757
C 0.189274 0.375902 0.582493
C -0.726760 -0.758037 0.160112
C -2.102947 -0.316041 -0.037299
C -3.229493 0.068060 -0.189966
H 1.792963 -1.239905 -1.141478
H 3.340845 -0.537235 -0.700319
H 2.537691 -1.656271 0.402673
H 2.263746 0.787391 1.141113
H 0.874556 2.335865 -0.245214
H 0.647472 1.026339 -1.485329
H -0.128983 0.856833 1.499638
H -0.366932 -1.212155 -0.765715
H -0.710904 -1.549741 0.916370
H -4.227085 0.404870 -0.327751
