16
charge=0, multiplicity=1, basis=def2-TZVP
C -0.325619 2.543943 -0.000000
C -0.916737 1.143548 -0.000000
C -0.325619 0.204731 -1.085885
C 0.595060 -0.426588 0.000000
C -0.325619 0.204731 1.085885
C 0.755096 -1.866344 0.000000
N 0.849322 -3.013564 0.000000
H 0.767333 2.516116 -0.000000
H -0.642739 3.102092 -0.883394
H -0.642739 3.102092 0.883394
H -2.005235 1.201788 -0.000000
H -1.051376 -0.516008 -1.458133
H 0.179626 0.672510 -1.929896
H 1.582245 0.035734 0.000000
H 0.179626 0.672510 1.929896
H -1.051376 -0.516008 1.458133
