15
charge=0, multiplicity=1, basis=def2-TZVP
C -0.586666 1.606960 0.158501
C -0.669361 0.104296 0.153841
C 0.520564 -0.639953 0.745864
C 1.790480 -0.293005 0.120553
C 2.829236 0.004314 -0.399935
C -1.969730 -0.569376 0.150762
O -1.191074 -0.477247 -1.047674
H -1.482277 2.037182 -0.287532
H -0.486168 1.983014 1.179186
H 0.282302 1.938404 -0.411052
H 0.574255 -0.421640 1.817608
H 0.346339 -1.713418 0.644821
H 3.749718 0.260096 -0.863876
H -2.063684 -1.569242 0.565238
H -2.879036 0.024161 0.159489
