15
charge=0, multiplicity=1, basis=def2-TZVP
C -0.822116 1.806572 -0.154396
C -0.926846 0.438915 0.471474
O -1.662546 -0.510691 -0.339180
C -0.658372 -1.522429 -0.126927
C 0.308427 -0.514092 0.520459
C 1.455822 -0.104188 -0.352938
O 2.546119 0.198535 0.057768
H -0.403025 1.759134 -1.159224
H -1.813927 2.256594 -0.220474
H -0.192307 2.454346 0.459286
H -1.383913 0.514541 1.464194
H -1.001672 -2.305444 0.554186
H -0.333636 -1.974610 -1.067430
H 0.677340 -0.743295 1.517465
H 1.241071 -0.092683 -1.442745
