15
charge=0, multiplicity=1, basis=def2-TZVP
O -2.744070 0.170526 -0.341482
C -1.676694 -0.635928 0.116368
C -0.328587 -0.029273 -0.227951
O -0.299974 1.243050 0.411261
C 0.833177 -0.917261 0.243416
C 2.120583 -0.291377 -0.020345
C 3.148452 0.283769 -0.251962
H -2.568594 1.067663 -0.030473
H -1.730305 -0.784372 1.203428
H -1.782094 -1.607698 -0.368458
H -0.263760 0.098870 -1.314894
H 0.534493 1.676878 0.195472
H 0.728498 -1.102386 1.316383
H 0.779859 -1.884783 -0.264259
H 4.072673 0.767637 -0.452584
