15
charge=0, multiplicity=1, basis=def2-TZVP
O 2.135364 -0.910359 -0.348142
C 1.703000 0.245339 0.319892
C 0.853826 1.249389 -0.408599
C 0.243652 0.341214 0.631517
C -0.698960 -0.767465 0.205060
C -2.053189 -0.284055 -0.037839
C -3.162098 0.132357 -0.230384
H 2.803393 -0.658236 -0.994733
H 2.397098 0.612492 1.070227
H 0.973877 2.301006 -0.186540
H 0.615950 1.024328 -1.440593
H -0.010470 0.798120 1.579914
H -0.310699 -1.248370 -0.694524
H -0.724611 -1.542550 0.976982
H -4.144844 0.495406 -0.403480
