17
charge=0, multiplicity=1, basis=def2-TZVP
C 2.540485 -0.208524 0.098473
C 1.228840 -0.926572 -0.196883
C 0.007944 -0.145077 0.289858
O -0.027567 1.086664 -0.416234
C -0.980658 2.007902 0.077418
C -1.230951 -0.912292 0.110452
C -2.240881 -1.541543 -0.043603
H 2.671120 -0.054855 1.172648
H 3.388894 -0.793820 -0.259282
H 2.568482 0.766043 -0.387365
H 1.112378 -1.092590 -1.270050
H 1.211168 -1.907723 0.282186
H 0.125218 0.063783 1.364900
H -2.000997 1.625153 -0.025729
H -0.795103 2.240817 1.133574
H -0.875516 2.916477 -0.512623
H -3.133787 -2.099962 -0.182680
