15
charge=0, multiplicity=1, basis=def2-TZVP
C 1.057418 1.553846 0.256691
N 1.291755 0.374368 -0.560633
C 1.828775 -0.815592 0.078336
C 0.432468 -0.790480 -0.430641
C -0.727806 -0.845337 0.549889
C -1.890714 -0.099156 0.075096
N -2.795125 0.496725 -0.310333
H 0.815003 1.338542 1.305932
H 1.960534 2.164546 0.242917
H 0.243010 2.135344 -0.175796
H 2.606597 -1.344583 -0.459330
H 1.954578 -0.795733 1.158751
H 0.211345 -1.270773 -1.378240
H -1.023174 -1.887162 0.697518
H -0.445147 -0.457512 1.528789
