17
charge=0, multiplicity=1, basis=def2-TZVP
C 1.846507 -1.162775 -0.069849
C 1.573774 0.287397 0.246534
C 0.812914 1.158149 -0.717715
C 0.190784 0.777935 0.597407
C -0.982744 -0.143011 0.653633
C -2.224837 0.140266 -0.070433
O -1.326909 -0.873396 -0.529719
H 1.025330 -1.609206 -0.629164
H 2.754767 -1.259835 -0.669111
H 1.988155 -1.745682 0.843757
H 2.375312 0.782740 0.783792
H 1.127380 2.182780 -0.862207
H 0.411932 0.672857 -1.597937
H 0.142513 1.552501 1.355919
H -1.061098 -0.740006 1.560328
H -3.173948 -0.222956 0.311170
H -2.273461 1.026213 -0.696263
