15
charge=0, multiplicity=1, basis=def2-TZVP
C -1.209333 0.605188 -0.557719
O -1.018586 -0.815543 -0.638634
C 0.135130 -1.107944 0.213502
C -0.080812 -0.125694 1.366524
C -0.076084 1.080422 0.394971
C 1.211611 0.819695 -0.361842
C 1.345970 -0.504058 -0.472811
H -1.135611 1.048401 -1.552633
H -2.198047 0.812582 -0.140317
H 0.136664 -2.173353 0.417972
H -1.030274 -0.280966 1.879235
H 0.742060 -0.095407 2.076995
H -0.218772 2.073664 0.811793
H 1.816832 1.583752 -0.828905
H 2.076953 -1.049976 -1.050827
