15
charge=0, multiplicity=1, basis=def2-TZVP
O 2.317470 -0.392775 -0.002370
C 1.431585 0.705641 0.129713
C 0.004767 0.264692 0.124640
C -0.709370 -0.816459 0.968717
C -1.626987 -0.399926 -0.195146
C -1.305790 1.083262 0.081278
O -0.455197 -0.455815 -1.108206
H 2.014357 -0.918208 -0.753496
H 1.663111 1.191484 1.079528
H 1.579118 1.438170 -0.674281
H -0.286429 -1.815049 0.899707
H -1.011649 -0.544607 1.979937
H -2.550283 -0.852725 -0.546571
H -1.661657 1.516105 1.016004
H -1.409986 1.750286 -0.771431
