18
charge=0, multiplicity=1, basis=def2-TZVP
C 0.444595 1.691421 -0.708216
C -0.671221 0.855745 -0.129597
C -0.805569 -0.626057 -0.398547
C 0.165419 -1.388182 -1.267198
C -0.451712 -0.138464 0.988243
C 0.900865 -0.374732 1.614997
H 1.391001 1.155713 -0.760019
H 0.199069 2.016577 -1.722103
H 0.610542 2.587063 -0.104672
H -1.612878 1.391799 -0.077859
H -1.827335 -0.973821 -0.507191
H 1.191705 -1.041242 -1.159133
H 0.154088 -2.452269 -1.019097
H -0.101006 -1.291689 -2.322512
H -1.262402 -0.195439 1.706770
H 1.715818 -0.318468 0.895283
H 1.102034 0.366045 2.392656
H 0.945101 -1.362657 2.079786
