15
charge=0, multiplicity=1, basis=def2-TZVP
C -0.000000 -0.000000 1.353886
C -0.000000 1.119815 0.272489
C 1.239428 0.664659 -0.519875
C 1.239428 -0.664659 -0.519875
C -0.000000 -1.119815 0.272489
C -1.239428 -0.664659 -0.519875
C -1.239428 0.664659 -0.519875
H 0.897853 -0.000000 1.971743
H -0.897853 -0.000000 1.971743
H -0.000000 2.152802 0.609408
H 1.925182 1.332112 -1.019623
H 1.925182 -1.332112 -1.019623
H -0.000000 -2.152802 0.609408
H -1.925182 -1.332112 -1.019623
H -1.925182 1.332112 -1.019623
