18
charge=0, multiplicity=1, basis=def2-TZVP
C 1.204539 1.412463 0.285368
C 0.631194 0.033816 0.006098
C 1.695009 -0.931921 -0.496054
C -0.242495 -0.609542 1.151301
C -1.418833 -0.656238 0.181882
N -1.690189 0.746331 -0.206043
C -0.621857 -0.010851 -0.889439
H 0.416617 2.099243 0.591832
H 1.952974 1.365907 1.080631
H 1.690229 1.818693 -0.606012
H 2.476602 -1.069113 0.254802
H 1.267291 -1.911422 -0.721647
H 2.166442 -0.552471 -1.406461
H 0.124772 -1.592223 1.445239
H -0.405492 0.005290 2.036676
H -2.193179 -1.406940 0.110222
H -2.504238 0.750057 -0.816318
H -0.646042 -0.157703 -1.961599
