15
charge=0, multiplicity=1, basis=def2-TZVP
C 2.461466 -0.101345 0.546033
N 1.552850 0.071955 -0.592262
C 0.185741 0.129564 -0.273673
C -0.677032 1.174869 -0.027404
C -1.962800 0.616656 0.223184
C -1.845920 -0.748075 0.135947
N -0.536492 -1.032901 -0.167551
H 3.487889 -0.145623 0.179941
H 2.380858 0.700874 1.290602
H 2.242166 -1.045896 1.044163
H 1.816310 0.880758 -1.137510
H -0.409164 2.218698 -0.015719
H -2.866331 1.157063 0.451153
H -2.574198 -1.529706 0.263384
H -0.160758 -1.939548 -0.381852
