15
charge=0, multiplicity=1, basis=def2-TZVP
C 2.469975 -0.501478 0.000240
N 1.084006 -0.088514 -0.000399
C 0.610541 1.186944 -0.000046
N -0.700682 1.226052 0.000088
C -1.116226 -0.087039 0.000028
C -2.560308 -0.450972 0.000086
C -0.021779 -0.913445 -0.000112
H 2.698912 -1.094187 -0.886646
H 3.101417 0.384718 -0.001248
H 2.699027 -1.091344 0.889001
H 1.271341 2.039686 -0.000114
H -3.063431 -0.043399 -0.879159
H -2.691478 -1.533293 0.000158
H -3.063372 -0.043291 0.879314
H 0.071096 -1.985716 -0.000305
