15
charge=0, multiplicity=1, basis=def2-TZVP
C 0.878952 2.378060 -0.000000
N -0.180466 1.397322 0.000000
C -0.180466 0.367542 1.050270
C -0.717576 -0.640877 0.000000
C -0.180466 0.367542 -1.050270
C -0.179308 -1.983403 -0.000000
N 0.263849 -3.045239 -0.000000
H 0.790996 3.013976 -0.882450
H 0.790996 3.013976 0.882450
H 1.882530 1.920204 -0.000000
H 0.827367 0.089771 1.387342
H -0.811962 0.575630 1.914075
H -1.805829 -0.676731 0.000000
H -0.811962 0.575630 -1.914075
H 0.827367 0.089771 -1.387342
