17
charge=0, multiplicity=1, basis=def2-TZVP
C -1.940754 -0.718128 -0.000004
C -0.645714 0.035045 -0.000010
C -0.423024 1.558814 -0.000002
C 0.995139 0.972025 0.000014
C 0.591234 -0.207891 0.941210
C 1.195599 -1.261916 0.000001
C 0.591261 -0.207879 -0.941209
H -2.534213 -0.471705 0.883815
H -2.535104 -0.470118 -0.882779
H -1.770662 -1.797469 -0.001062
H -0.733975 2.097640 -0.898609
H -0.733985 2.097653 0.898594
H 1.955395 1.485024 0.000029
H 0.576391 -0.180441 2.030641
H 2.284086 -1.349533 0.000009
H 0.733158 -2.251059 -0.000010
H 0.576464 -0.180411 -2.030639
