17
charge=0, multiplicity=1, basis=def2-TZVP
C 2.084513 0.595141 0.000182
C 0.905024 -0.350028 0.000554
O 1.072581 -1.552538 -0.000448
C -0.472217 0.243996 0.000098
C -0.625721 1.748116 -0.000366
C -1.512695 -0.579636 -0.742929
C -1.512920 -0.579300 0.743169
H 2.055320 1.246002 -0.876639
H 2.055914 1.245717 0.877233
H 3.006302 0.019232 -0.000237
H -0.172938 2.202935 -0.883780
H -1.682518 2.017207 -0.000793
H -0.173475 2.203531 0.883016
H -2.280279 -0.023864 -1.264566
H -1.151901 -1.468699 -1.239975
H -1.152317 -1.468152 1.240723
H -2.280666 -0.023340 1.264351
