17
charge=0, multiplicity=1, basis=def2-TZVP
C 2.918951 -0.586697 -0.169690
C 1.736050 0.255201 0.280983
N 0.482683 -0.385597 -0.100437
C -0.725215 0.291104 0.355197
C -0.999296 1.678962 -0.251790
C -1.877653 -0.588902 0.110981
N -2.791753 -1.249729 -0.110422
H 2.861947 -1.588393 0.256856
H 2.937845 -0.682209 -1.258240
H 3.858542 -0.125588 0.138181
H 1.739313 0.345058 1.371415
H 1.841210 1.274462 -0.119465
H 0.443789 -0.536749 -1.102470
H -0.637817 0.397901 1.441487
H -1.098576 1.605072 -1.335696
H -1.920537 2.102590 0.149192
H -0.179246 2.357131 -0.019330
