16
charge=0, multiplicity=1, basis=def2-TZVP
C 2.672828 -0.331384 -0.360611
C 1.426028 -0.048511 0.451965
C 0.588409 1.211569 0.052452
C -0.622909 0.314126 -0.015507
C 0.179074 -0.949334 0.180330
N -1.845434 0.607099 -0.117189
O -2.646140 -0.560513 -0.096806
H 2.443155 -0.351743 -1.429236
H 3.433993 0.435061 -0.197130
H 3.107303 -1.297598 -0.093998
H 1.663849 -0.030884 1.516395
H 0.542446 2.026793 0.774241
H 0.871790 1.620582 -0.920463
H 0.259321 -1.547866 -0.730616
H -0.158182 -1.598526 0.988356
H -3.537103 -0.200205 -0.164560
