15
charge=0, multiplicity=1, basis=def2-TZVP
C 2.280702 0.643648 -0.328042
C 1.252539 -0.447648 -0.347585
O 0.758158 -0.901424 0.934065
C -0.127334 -0.229802 0.063639
C -0.887270 1.041817 0.401973
O -2.082820 0.487967 -0.202178
C -1.444904 -0.791908 -0.440944
H 2.007038 1.423198 0.383304
H 3.257054 0.247120 -0.043372
H 2.374174 1.093025 -1.319499
H 1.441656 -1.263529 -1.042704
H -1.009897 1.219057 1.473979
H -0.564238 1.959470 -0.095976
H -1.490183 -1.083195 -1.492974
H -1.860706 -1.584138 0.187895
