15
charge=0, multiplicity=1, basis=def2-TZVP
C -2.509930 -0.294539 0.000014
C -1.224240 0.527711 -0.000007
C 0.031832 -0.340125 -0.000018
C 1.309218 0.474968 0.000001
O 2.416188 -0.424204 -0.000002
H -3.393628 0.346011 -0.000014
H -2.563774 -0.937910 -0.881274
H -2.563787 -0.937853 0.881341
H -1.212603 1.185345 -0.875367
H -1.212575 1.185357 0.875342
H 0.034517 -0.993672 0.877313
H 0.034517 -0.993649 -0.877364
H 1.337454 1.122699 -0.886120
H 1.337437 1.122676 0.886139
H 3.231659 0.086535 0.000083
