16
charge=0, multiplicity=1, basis=def2-TZVP
O -1.162224 -1.678865 0.030923
C -0.841673 -0.391314 -0.437490
C -1.508044 0.864061 0.181382
C -0.145683 1.603430 0.064934
C 0.512281 0.236184 -0.098481
C 1.548011 -0.386139 0.746636
N 1.817097 -0.041746 -0.664233
H -1.073994 -1.682557 0.991116
H -0.993671 -0.425966 -1.518468
H -2.365373 1.283822 -0.341159
H -1.779296 0.682502 1.223058
H -0.068474 2.198681 -0.845361
H 0.169075 2.207445 0.914100
H 2.084518 0.213856 1.472330
H 1.436270 -1.433664 1.005119
H 1.779705 -0.878305 -1.240368
