15
charge=0, multiplicity=1, basis=def2-TZVP
C -2.889279 -0.000012 -0.280306
C -1.744329 -0.000065 0.081000
C -0.353115 -0.000069 0.499529
C 0.464331 -1.232541 0.015550
C 1.846734 -0.664218 -0.162618
C 1.846659 0.664359 -0.162598
C 0.464200 1.232503 0.015598
H -3.903110 0.000240 -0.596138
H -0.323532 -0.000103 1.592963
H 0.416506 -2.054138 0.732294
H 0.072615 -1.614801 -0.932459
H 2.718869 -1.285890 -0.316808
H 2.718733 1.286120 -0.316772
H 0.072419 1.614764 -0.932384
H 0.416293 2.054071 0.732368
