16
charge=0, multiplicity=1, basis=def2-TZVP
O -2.399092 -0.427118 -0.171297
C -1.457239 0.426628 0.461574
C -0.221077 0.591590 -0.389010
C 1.051240 1.270882 0.171687
C 1.771778 -0.034089 -0.141833
C 1.143468 -1.159509 0.558313
N 0.521953 -0.694419 -0.697956
H -1.914366 -1.187384 -0.516985
H -1.945458 1.394710 0.595090
H -1.202471 0.050659 1.460519
H -0.512424 1.016902 -1.349229
H 1.376959 2.116637 -0.429334
H 1.045114 1.564561 1.223145
H 2.724529 -0.118959 -0.648447
H 1.593074 -2.137835 0.450031
H 0.645089 -0.994425 1.506893
