16
charge=0, multiplicity=1, basis=def2-TZVP
C -1.535142 1.201837 0.341716
C -1.281159 -0.078429 -0.412494
C -0.006580 -0.519808 -1.010136
C 1.211411 -0.186417 -0.178305
O 1.576009 1.183492 -0.163766
C 0.480579 -0.820036 1.030024
N -0.652687 -1.282206 0.157214
H -0.640761 1.614545 0.798584
H -1.921422 1.952243 -0.350591
H -2.291494 1.039139 1.113901
H -2.135393 -0.389235 -1.007217
H 0.041798 -0.940339 -2.006922
H 2.062329 -0.802070 -0.480125
H 2.449514 1.269699 0.232352
H 0.992763 -1.680713 1.455785
H 0.188750 -0.138645 1.829029
