15
charge=0, multiplicity=1, basis=def2-TZVP
O -2.048234 0.139178 -0.083655
C -0.658461 0.052047 -0.007168
C 0.102739 -0.782776 1.079953
C 1.239306 -0.654684 0.012084
C 0.100072 -0.806848 -1.053869
C 1.438668 0.865205 -0.005835
C 0.192264 1.333875 -0.020675
H -2.366305 0.712287 0.623051
H 0.272172 -0.317705 2.050579
H -0.288168 -1.796101 1.178691
H 2.110127 -1.301668 0.018899
H -0.290592 -1.822328 -1.127464
H 0.264869 -0.366410 -2.035691
H 2.380144 1.392324 -0.012558
H -0.183897 2.345261 -0.053206
