15
charge=0, multiplicity=1, basis=def2-TZVP
C -2.842286 -0.463883 0.000023
C -1.645514 0.482292 -0.000042
C -0.311884 -0.258812 -0.000016
C 0.883201 0.706093 -0.000000
C 2.165390 0.011969 0.000127
N 3.164040 -0.558211 -0.000070
H -3.783332 0.088031 0.000060
H -2.833494 -1.108590 -0.881639
H -2.833408 -1.108566 0.881701
H -1.694805 1.137446 -0.875763
H -1.694786 1.137529 0.875619
H -0.245720 -0.908991 0.875791
H -0.245697 -0.909022 -0.875799
H 0.844783 1.356823 -0.877608
H 0.844736 1.356860 0.877569
