16
charge=0, multiplicity=1, basis=def2-TZVP
C -1.982589 1.053572 0.017275
C -1.163321 -0.219851 -0.024763
O -1.656150 -1.335043 0.042991
N 0.173142 -0.041571 -0.140911
C 1.056567 1.118866 0.000441
C 2.255906 0.136391 0.061473
C 1.238302 -1.034163 -0.011206
H -3.027726 0.801263 -0.139529
H -1.879377 1.531240 0.994924
H -1.657747 1.770808 -0.738167
H 1.043431 1.798824 -0.854132
H 0.887262 1.695335 0.913627
H 2.925597 0.200411 -0.792573
H 2.837993 0.182957 0.978217
H 1.150038 -1.640264 0.892409
H 1.328542 -1.698119 -0.871643
