17
charge=0, multiplicity=1, basis=def2-TZVP
C 2.061197 0.458518 -0.475025
C 0.700180 0.135272 0.080478
C 0.483064 -1.095280 0.933627
C -0.175041 -1.003580 -0.416585
C -1.611994 -0.502043 -0.483419
C -1.522387 0.893704 0.090144
C -0.266453 1.236963 0.368411
H 1.983058 1.049843 -1.390623
H 2.654027 1.030400 0.244037
H 2.614645 -0.452555 -0.708503
H 1.312526 -1.785787 1.024182
H -0.129513 -1.001233 1.821581
H 0.185443 -1.663074 -1.194496
H -1.982917 -0.483611 -1.513609
H -2.302072 -1.134996 0.083877
H -2.392827 1.511517 0.266979
H 0.046229 2.188176 0.780792
