15
charge=0, multiplicity=1, basis=def2-TZVP
C -1.954452 -0.113497 0.085718
O -0.699650 -0.582786 -0.352434
C 0.421802 -0.007078 0.315217
C 1.614500 -0.887624 -0.011143
C 0.649491 1.442932 -0.100022
H -2.712629 -0.722747 -0.404663
H -2.062566 -0.219677 1.173386
H -2.126174 0.935956 -0.179204
H 0.232847 -0.042193 1.398975
H 1.802109 -0.881663 -1.086606
H 2.509717 -0.527331 0.498161
H 1.425163 -1.915622 0.298046
H 1.526956 1.848696 0.406980
H 0.814398 1.501520 -1.177819
H -0.200658 2.076948 0.153601
