16
charge=0, multiplicity=1, basis=def2-TZVP
C 2.526090 -0.311346 -0.569566
C 1.446653 -0.019081 0.452624
C 0.513277 1.187905 0.139253
N -0.614942 0.255472 0.135032
C 0.188367 -0.933719 0.406101
C -1.912022 0.374408 -0.192382
O -2.701528 -0.549779 -0.238884
H 2.102729 -0.374805 -1.574921
H 3.288055 0.471117 -0.573665
H 3.021904 -1.260258 -0.354620
H 1.873458 0.043868 1.453001
H 0.456341 1.954783 0.914318
H 0.699590 1.664243 -0.827015
H 0.172475 -1.660544 -0.409359
H -0.076580 -1.438832 1.336037
H -2.195341 1.421354 -0.414110
