16
charge=0, multiplicity=1, basis=def2-TZVP
C -2.045035 0.123020 -0.265311
N -0.897891 -0.424680 0.439105
C 0.140295 -1.099718 -0.325330
C 1.162660 -0.050158 -0.835325
C 0.688106 1.295580 -0.304526
C 0.170263 0.495090 0.925051
C 1.224871 -0.618417 0.568581
H -1.794327 0.701752 -1.163928
H -2.696572 -0.699768 -0.565774
H -2.608468 0.764646 0.415238
H 0.005810 -2.062706 -0.797420
H 1.828309 -0.253685 -1.661571
H 1.534968 1.917367 -0.014551
H -0.024780 1.890537 -0.879030
H 0.002649 0.972630 1.886092
H 1.990684 -1.130399 1.128366
