15
charge=0, multiplicity=1, basis=def2-TZVP
C -1.491994 0.699400 -0.358231
C -0.953794 -0.770420 -0.499816
C 0.577677 -1.066839 -0.238629
C 1.674656 0.008950 -0.253985
C 0.836732 1.210478 0.157959
C -0.342625 0.793418 0.652675
C -0.344006 -0.730860 0.868963
H -1.451338 1.376471 -1.212283
H -2.503807 0.661247 0.052150
H -1.550769 -1.580478 -0.904544
H 0.834922 -2.102612 -0.438600
H 2.502147 -0.283737 0.402829
H 2.102238 0.209050 -1.240213
H 0.921151 2.139220 -0.395424
H -0.594426 -1.283927 1.762470
