15
charge=0, multiplicity=1, basis=def2-QZVPP
C -2.091264 0.302078 0.033733
H -1.888447 1.309260 -0.336348
H -2.986271 -0.069150 -0.469139
H -2.316835 0.381330 1.099854
C -0.895003 -0.617131 -0.205089
H -1.130750 -1.627446 0.144964
H -0.705815 -0.702942 -1.280058
C 0.361668 -0.130557 0.474763
H 0.282696 -0.050244 1.554231
C 1.714039 -0.512674 -0.053870
H 1.748757 -1.123590 -0.946966
H 2.509294 -0.711875 0.651747
C 1.223000 0.905491 -0.192340
H 1.686014 1.670005 0.416740
H 0.926708 1.241411 -1.178210
