15
charge=0, multiplicity=1, basis=def2-QZVPP
C 2.519795 -0.269954 0.052625
H 2.897867 -0.693191 0.988015
H 2.501765 -1.063356 -0.696077
H 3.246894 0.482644 -0.266753
C 1.163700 0.333512 0.241182
H 1.091715 1.134574 0.974285
C 0.064792 -0.029645 -0.410577
H 0.132071 -0.834083 -1.141796
C -1.296589 0.563278 -0.213249
H -1.235186 1.388862 0.500665
H -1.645809 0.993263 -1.158931
C -2.324263 -0.466336 0.268276
H -2.406009 -1.297114 -0.436354
H -2.034090 -0.879715 1.235940
H -3.313834 -0.017011 0.371466
