15
charge=0, multiplicity=1, basis=def2-QZVPP
C -2.141606 -0.000062 -0.161125
H -3.054207 -0.000194 0.421119
H -2.250020 0.000256 -1.240255
C -0.946274 -0.000245 0.413489
H -0.880202 -0.000576 1.500334
C 0.369210 0.000005 -0.309460
H 0.163579 0.000030 -1.384823
C 1.172341 -1.262093 0.028255
H 2.127299 -1.267637 -0.501514
H 0.622382 -2.163572 -0.245201
H 1.384812 -1.309863 1.099598
C 1.171910 1.262332 0.028397
H 1.384273 1.310099 1.099761
H 0.621679 2.163638 -0.245069
H 2.126919 1.268195 -0.501288
