16
charge=0, multiplicity=1, basis=def2-QZVPP
C -2.566075 0.019941 -0.278915
H -3.442474 -0.627905 -0.228130
H -2.772037 0.917376 0.306610
H -2.427203 0.324002 -1.317581
C -1.323597 -0.696167 0.246374
H -1.138172 -1.611634 -0.326275
H -1.480097 -1.029301 1.278723
C -0.107749 0.137771 0.204033
C 1.369296 0.168458 0.476797
H 1.692822 0.251153 1.517764
C 2.358929 -0.578341 -0.396052
H 1.988109 -0.657309 -1.420584
H 3.325198 -0.066862 -0.426810
H 2.536547 -1.590365 -0.020804
C 0.482561 1.253222 -0.072001
H 0.437121 2.261534 -0.444329
