16
charge=0, multiplicity=1, basis=def2-QZVPP
C 2.242509 -0.819119 0.000046
H 3.324218 -0.817578 -0.000055
H 1.760149 -1.787671 0.000265
C 1.555111 0.323672 -0.000136
H 2.104995 1.260238 -0.000406
C 0.096841 0.461676 -0.000009
C -0.730091 -0.800004 0.000107
H -0.438613 -1.397680 0.870230
H -0.438427 -1.398037 -0.869698
C -2.242192 -0.614337 -0.000119
H -2.579091 -0.067802 -0.882716
H -2.579472 -0.068072 0.882503
H -2.740825 -1.584559 -0.000369
C -0.438803 1.687698 0.000093
H -1.505804 1.856307 0.000331
H 0.192617 2.567336 0.000019
