16
charge=0, multiplicity=1, basis=def2-QZVPP
C 1.940175 -1.099942 -0.134215
H 2.526666 -1.145330 0.787899
H 2.532343 -0.535164 -0.859398
H 1.810162 -2.115522 -0.511607
C 0.644325 -0.439304 0.107109
C 0.002549 0.844283 0.556765
H 0.002513 1.069250 1.628332
C 0.007570 2.089809 -0.310200
H -0.871412 2.712883 -0.120685
H 0.007407 1.822375 -1.369904
H 0.890599 2.706751 -0.119414
C -0.647557 -0.434722 0.106001
C -1.947644 -1.087352 -0.134289
H -1.824201 -2.103922 -0.511235
H -2.536930 -0.519387 -0.859337
H -2.533655 -1.128569 0.788324
