16
charge=0, multiplicity=1, basis=def2-QZVPP
C -2.612852 0.444115 -0.419160
H -3.558900 -0.101454 -0.365623
H -2.240885 0.388881 -1.441464
H -2.831351 1.489986 -0.186669
C -1.613319 -0.120960 0.553331
H -1.895371 -0.111918 1.604169
C -0.452442 -0.613585 0.226785
C 0.711176 -1.094305 -0.108982
H 0.785930 -2.155144 -0.339080
C 1.991003 -0.300075 -0.207662
H 2.397505 -0.427922 -1.217105
H 2.729884 -0.752702 0.463109
C 1.843473 1.182279 0.108180
H 1.471219 1.331776 1.122938
H 2.802691 1.694164 0.017972
H 1.137042 1.659525 -0.573198
