16
charge=0, multiplicity=1, basis=def2-QZVPP
C 2.574830 -1.023586 -0.121619
H 3.219158 -1.858786 -0.243908
C 1.853066 -0.075295 0.021165
C 0.956481 1.063487 0.175823
H 0.908113 1.338142 1.234600
H 1.384765 1.923485 -0.346717
C -0.464214 0.797081 -0.349031
H -0.407292 0.536009 -1.409462
H -1.031083 1.730633 -0.283987
C -1.199972 -0.302021 0.410757
H -1.257085 -0.028786 1.469774
H -0.614236 -1.223479 0.363191
C -2.603825 -0.553602 -0.130951
H -3.218970 0.347717 -0.070967
H -3.111449 -1.340459 0.429569
H -2.570116 -0.860864 -1.178955
