16
charge=0, multiplicity=1, basis=def2-QZVPP
C 1.972841 -0.742411 -0.036862
H 2.983205 -0.329484 -0.085141
H 1.780882 -1.043835 0.994588
H 1.949997 -1.643366 -0.655251
C 0.946818 0.261199 -0.498275
H 1.074916 0.610908 -1.518059
C -0.446726 0.188437 -0.010032
C -1.798882 0.017663 -0.577879
H -2.547233 0.772013 -0.367912
H -1.897813 -0.457557 -1.546212
C -1.319008 -0.844723 0.585613
H -1.100118 -1.885701 0.380394
H -1.752576 -0.660423 1.560714
C 0.400679 1.299659 0.476727
H 0.764057 1.259876 1.497209
H 0.210350 2.298625 0.103920
