16
charge=0, multiplicity=1, basis=def2-QZVPP
C -2.393941 -0.409740 0.000253
H -2.290860 -1.044144 0.882577
H -2.289980 -1.045981 -0.880653
H -3.402940 0.004813 -0.000691
C -1.344212 0.697865 -0.000420
H -1.485895 1.350606 0.869529
H -1.485464 1.349120 -0.871563
C 0.055413 0.197234 0.000172
C 1.377623 0.945323 0.000319
H 1.578542 1.549311 0.888521
H 1.578615 1.550493 -0.887052
C 2.049112 -0.471164 -0.000161
H 2.646794 -0.693325 0.886717
H 2.645924 -0.692629 -0.887812
C 0.633302 -1.010880 -0.000119
H 0.241478 -2.020092 0.000164
