16
charge=0, multiplicity=1, basis=def2-QZVPP
C -2.155676 -0.835724 0.000006
H -1.836564 -1.394679 -0.881281
H -1.838176 -1.393624 0.882550
H -3.245967 -0.794315 -0.001015
C -1.551833 0.567960 -0.000232
H -1.901194 1.132894 -0.871929
H -1.903236 1.134020 0.869877
C -0.076438 0.563447 0.001024
C 1.146970 1.439709 -0.000123
H 1.437481 1.965234 -0.912175
H 1.438725 1.965525 0.911334
C 1.051391 -0.063240 -0.000082
C 1.854696 -1.298468 -0.000126
H 1.222783 -2.187708 -0.000082
H 2.505654 -1.334789 0.877977
H 2.505828 -1.334663 -0.878053
