16
charge=0, multiplicity=1, basis=def2-QZVPP
C 1.139649 -1.439187 -0.000549
H 2.112379 -0.969248 -0.001073
H 1.126746 -2.521328 -0.000626
C 0.000000 -0.737979 0.000070
C -0.000000 0.737979 0.000070
C 1.324480 1.454295 0.000484
H 1.176872 2.533159 0.001342
H 1.917728 1.191042 0.879237
H 1.917432 1.192476 -0.878926
C -1.139649 1.439187 -0.000549
H -1.126746 2.521328 -0.000626
H -2.112379 0.969248 -0.001073
C -1.324480 -1.454295 0.000484
H -1.917728 -1.191042 0.879237
H -1.176872 -2.533159 0.001342
H -1.917432 -1.192476 -0.878926
