18
charge=0, multiplicity=1, basis=def2-QZVPP
C -1.070482 1.548758 0.123637
H -2.109991 1.608050 -0.207982
H -0.442353 1.761808 -0.739781
H -0.908578 2.349519 0.849346
C -0.781961 0.201585 0.740067
H -1.411781 -0.010451 1.597486
C 0.613090 -0.375028 0.826613
H 0.815730 -0.931312 1.735623
C 1.828920 0.350550 0.303770
H 1.626760 0.913122 -0.606250
H 2.206414 1.057904 1.046207
H 2.633454 -0.353875 0.078872
C -0.412671 -1.011020 -0.084033
H -0.822154 -1.946636 0.281695
C -0.302819 -0.971321 -1.588922
H 0.114004 -0.035577 -1.957916
H -1.284545 -1.095450 -2.052487
H 0.338582 -1.778245 -1.951603
