18
charge=0, multiplicity=1, basis=def2-QZVPP
C 2.221359 -0.000050 0.051521
H 2.743383 0.879675 -0.331466
H 2.311856 0.006580 1.141389
H 2.742790 -0.884688 -0.320800
C 0.757717 -0.002131 -0.363248
H 0.700492 -0.008508 -1.459221
C -0.054595 -1.191706 0.162198
H 0.193914 -2.130426 -0.336000
H 0.163939 -1.323326 1.227252
C -1.523879 -0.778158 -0.034689
H -1.894102 -1.146216 -0.993283
H -2.172181 -1.199749 0.734018
C -1.526605 0.776777 -0.019493
H -1.927216 1.163673 -0.957989
H -2.153670 1.178384 0.777039
C -0.053225 1.194277 0.150022
H 0.187540 2.124112 -0.368111
H 0.178630 1.346433 1.209311
