16
charge=0, multiplicity=1, basis=def2-QZVPP
C 2.364595 0.284953 0.004779
H 2.634034 0.208026 1.060859
H 2.144575 1.334379 -0.203915
H 3.240220 0.005646 -0.583799
C 1.166554 -0.603182 -0.320944
H 1.415831 -1.648755 -0.112564
H 0.938930 -0.548728 -1.390457
C -0.079737 -0.224039 0.465401
H 0.141789 -0.238690 1.538097
C -0.817227 1.096927 0.029782
H -0.952814 1.840148 0.818668
H -0.375582 1.586865 -0.841260
C -2.004933 0.201071 -0.255370
H -3.002876 0.413642 -0.616999
C -1.380574 -0.920788 0.107879
H -1.676172 -1.962181 0.142205
