16
charge=0, multiplicity=1, basis=def2-QZVPP
C -1.519159 -1.086200 -0.229629
H -2.591590 -0.881503 -0.269708
H -1.165875 -1.196010 -1.255735
H -1.383590 -2.041879 0.282200
C -0.793179 0.035275 0.495696
H -1.192486 0.126877 1.511284
C 0.793216 0.035985 0.495544
H 1.192466 0.128323 1.511099
C 1.520129 -1.085054 -0.229418
H 2.592532 -0.880058 -0.268565
H 1.384350 -2.040902 0.282027
H 1.167745 -1.194663 -1.255864
C 0.666371 1.370144 -0.215532
H 1.411043 2.070919 -0.573261
C -0.667645 1.369668 -0.215176
H -1.412989 2.069996 -0.572382
