16
charge=0, multiplicity=1, basis=def2-QZVPP
C 2.245244 0.031173 -0.038046
H 2.642910 -0.450938 0.860934
H 2.676841 1.029999 -0.107792
H 2.601469 -0.556936 -0.889521
C 0.754925 0.074941 -0.003477
C -0.069238 -1.186137 0.123690
H 0.038655 -1.602496 1.133044
H 0.256322 -1.969261 -0.566637
C -1.511003 -0.711324 -0.154729
H -1.759575 -0.907009 -1.199337
H -2.252569 -1.225157 0.456729
C -1.488608 0.816492 0.085899
H -1.871322 1.075782 1.080455
H -2.108716 1.358602 -0.632280
C -0.025458 1.154010 -0.024275
H 0.340808 2.172481 -0.069977
