16
charge=0, multiplicity=1, basis=def2-QZVPP
C 2.425711 -0.061474 0.278054
H 2.824490 -1.076458 0.311445
H 2.624275 0.418194 1.241253
H 2.984259 0.502305 -0.475431
C 0.973307 -0.059932 -0.027460
C -0.008441 1.089067 -0.175591
H -0.199889 1.664617 0.733988
H 0.191154 1.784199 -0.995437
C -1.084779 -0.015206 -0.475945
H -1.448092 0.032858 -1.507343
C -2.259594 -0.099347 0.484525
H -1.911118 -0.118222 1.520049
H -2.928740 0.756460 0.365416
H -2.843965 -1.006405 0.312181
C 0.055500 -0.999169 -0.279810
H 0.097395 -2.081180 -0.328765
