16
charge=0, multiplicity=1, basis=def2-QZVPP
C -1.542349 -1.277946 0.000012
H -2.194431 -1.333536 -0.877568
H -2.194047 -1.333575 0.877880
H -0.889278 -2.149704 -0.000151
C -0.753002 0.000004 -0.000108
C 0.567046 0.000008 -0.000319
C 1.808113 0.769937 0.000044
H 2.120938 1.270416 -0.910126
H 2.120254 1.270741 0.910267
C 1.808109 -0.769930 0.000132
H 2.120253 -1.270603 0.910428
H 2.120913 -1.270548 -0.909969
C -1.542375 1.277933 0.000050
H -2.194989 1.333226 -0.877152
H -0.889340 2.149718 -0.000777
H -2.193528 1.333828 0.878309
