16
charge=0, multiplicity=1, basis=def2-QZVPP
C -1.237195 0.820278 -0.306143
H -2.074141 1.364548 0.130115
H -1.068900 1.207865 -1.312370
C 0.035472 0.784423 0.579292
H 0.010514 1.385180 1.486741
C -0.035460 -0.784513 0.579169
H -0.010521 -1.385364 1.486560
C 1.237227 -0.820234 -0.306169
H 1.069266 -1.208043 -1.312375
H 2.074158 -1.364317 0.130365
C 1.365422 0.726437 -0.200553
H 2.222386 1.032856 0.399756
H 1.389385 1.282692 -1.139452
C -1.365483 -0.726394 -0.200550
H -2.222384 -1.032794 0.399863
H -1.389659 -1.282605 -1.139478
