18
charge=0, multiplicity=1, basis=def2-QZVPP
C -0.975828 1.513874 1.066052
H -1.999228 1.175928 0.883488
H -0.751957 1.346503 2.122866
H -0.943847 2.591680 0.887511
C -0.000000 0.776327 0.172697
H 1.019404 1.128110 0.362535
C 0.000000 -0.776327 0.172697
H -1.019404 -1.128110 0.362535
C 0.975828 -1.513874 1.066052
H 0.943847 -2.591680 0.887511
H 1.999228 -1.175928 0.883488
H 0.751957 -1.346503 2.122866
C 0.251212 -0.731635 -1.355105
H 1.318363 -0.790643 -1.579549
H -0.276138 -1.453465 -1.978651
C -0.251212 0.731635 -1.355105
H -1.318363 0.790643 -1.579549
H 0.276138 1.453465 -1.978651
