16
charge=0, multiplicity=1, basis=def2-QZVPP
C 1.756026 0.875279 -0.000786
H 1.647785 1.510353 0.882073
H 2.773758 0.476981 0.002114
H 1.651169 1.506142 -0.887041
C 0.738266 -0.212610 -0.000081
C 0.000179 -0.863812 1.128728
H 0.000200 -1.948988 1.233228
H 0.000393 -0.327599 2.073982
C -0.738264 -0.212606 0.000211
C -1.756026 0.875279 -0.000583
H -1.648234 1.510061 0.882539
H -1.650720 1.506437 -0.886578
H -2.773758 0.476977 0.001682
C -0.000180 -0.866058 -1.127280
H -0.000205 -1.951444 -1.229632
H -0.000396 -0.331753 -2.073616
