16
charge=0, multiplicity=1, basis=def2-QZVPP
C -2.684466 -0.000097 0.459170
H -3.324965 -0.879579 0.349210
H -3.325303 0.879142 0.349270
H -2.270024 -0.000067 1.466640
C -1.592411 0.000133 -0.577114
H -1.911612 0.000234 -1.617842
C -0.315563 -0.000210 -0.316616
C 0.961422 -0.000020 -0.047071
C 1.741054 1.281069 0.115458
H 1.107423 2.156095 -0.016726
H 2.556068 1.328384 -0.613249
H 2.197688 1.328546 1.108767
C 1.741364 -1.280927 0.115405
H 2.556150 -1.328156 -0.613563
H 2.198303 -1.328191 1.108582
H 1.107875 -2.156099 -0.016484
