16
charge=0, multiplicity=1, basis=def2-QZVPP
C -2.127101 0.000025 -0.332321
H -2.646274 -0.924742 -0.557137
H -2.646235 0.924807 -0.557149
C -0.920347 0.000007 0.193899
C 0.253821 0.772328 0.604699
H 0.212863 1.206475 1.600388
C 1.049528 1.589394 -0.387657
H 2.089351 1.693762 -0.068779
H 1.040597 1.135932 -1.378346
H 0.626130 2.591413 -0.483614
C 0.253866 -0.772179 0.604749
H 0.212974 -1.206243 1.600479
C 1.049405 -1.589506 -0.387586
H 0.625625 -2.591363 -0.483567
H 2.089158 -1.694299 -0.068624
H 1.040782 -1.136153 -1.378348
