16
charge=0, multiplicity=1, basis=def2-QZVPP
C 2.622828 -0.490779 -0.120372
H 3.551966 -0.442095 0.431458
H 2.635742 -1.036966 -1.056613
C 1.516110 0.093145 0.328520
H 1.549576 0.632889 1.272451
C 0.212066 0.075562 -0.348291
H 0.193001 -0.458966 -1.291578
C -1.066224 0.013825 0.460648
H -0.923112 0.024602 1.535774
C -2.215055 -0.838410 -0.013122
H -2.084703 -1.880886 0.286090
H -2.296450 -0.811279 -1.101922
H -3.163790 -0.485726 0.398816
C -0.707547 1.278590 -0.251831
H -0.361894 2.124091 0.328181
H -1.273402 1.542738 -1.135963
