18
charge=0, multiplicity=1, basis=def2-QZVPP
C 2.450443 0.342871 0.078967
H 2.618058 0.392587 1.157648
H 3.386655 0.035128 -0.390175
H 2.222060 1.353875 -0.266044
C 1.312949 -0.619479 -0.254354
H 1.572698 -1.629791 0.079518
H 1.187070 -0.678274 -1.341073
C -0.007878 -0.210859 0.368717
H 0.098155 -0.165690 1.457335
C -1.290919 -0.998815 0.001431
H -1.626778 -1.773883 0.690499
H -1.210535 -1.432022 -0.998047
C -2.066382 0.340670 -0.019225
H -2.551722 0.540382 0.936923
H -2.794600 0.491587 -0.815626
C -0.710372 1.077781 -0.137034
H -0.451908 1.279007 -1.179419
H -0.576200 1.994080 0.437444
