16
charge=0, multiplicity=1, basis=def2-QZVPP
C 1.593055 -1.739746 -0.130114
H 2.144970 -2.624687 -0.330092
C 0.970807 -0.740144 0.104172
C 0.216885 0.485563 0.358340
H 0.031424 0.539127 1.437916
C -1.151934 0.460684 -0.348846
H -0.982934 0.395558 -1.427256
H -1.637150 1.423085 -0.163316
C -2.060490 -0.674293 0.107393
H -3.018911 -0.640414 -0.413156
H -2.260761 -0.609846 1.179742
H -1.603038 -1.644928 -0.088496
C 1.034693 1.720389 -0.047742
H 1.991683 1.745480 0.473069
H 1.232738 1.710600 -1.120667
H 0.483879 2.631300 0.193035
