16
charge=0, multiplicity=1, basis=def2-QZVPP
C -2.443761 -0.484153 -0.029822
H -3.260339 -0.769326 0.621037
H -2.650021 -0.464596 -1.094311
C -1.247526 -0.171575 0.449284
H -1.071520 -0.204851 1.521838
C -0.056078 0.233138 -0.381825
H -0.381405 0.249866 -1.428971
C 1.009883 -0.829816 -0.265672
H 0.694004 -1.815582 -0.595650
C 2.239853 -0.674949 0.207392
H 2.611247 0.279774 0.556881
H 2.927122 -1.509580 0.258392
C 0.418750 1.636509 -0.000911
H -0.384408 2.357950 -0.151941
H 0.715115 1.680842 1.049188
H 1.273478 1.940586 -0.607141
