16
charge=0, multiplicity=1, basis=def2-QZVPP
C -2.780186 0.002543 -0.227048
H -3.582625 0.719682 -0.343750
H -3.003274 -1.027336 -0.483698
C -1.580739 0.362016 0.211266
H -1.394026 1.405662 0.451553
C -0.414198 -0.562428 0.387590
H -0.711881 -1.585044 0.138411
H -0.112132 -0.569525 1.441775
C 0.780145 -0.150192 -0.446824
H 0.592237 -0.141873 -1.514495
C 1.722631 0.904900 0.061454
H 2.137480 1.612658 -0.643134
H 1.531851 1.315985 1.044795
C 2.168934 -0.531518 -0.021689
H 2.276566 -1.080966 0.904821
H 2.886288 -0.801164 -0.784774
