18
charge=0, multiplicity=1, basis=def2-QZVPP
C 2.879227 -0.000083 0.173977
H 3.448997 -0.877088 -0.147355
H 3.448706 0.877620 -0.145982
H 2.841333 -0.000934 1.264331
C 1.505719 0.000139 -0.419809
H 1.451992 0.000685 -1.506725
C 0.371445 -0.000283 0.270360
H 0.417340 -0.000800 1.359346
C -1.009601 0.000015 -0.318516
H -0.911554 0.000127 -1.409079
C -1.778011 -1.261533 0.094010
H -2.781083 -1.266586 -0.338319
H -1.258072 -2.162974 -0.233366
H -1.883254 -1.311074 1.181152
C -1.777658 1.261705 0.094258
H -1.257420 2.163067 -0.232861
H -1.883046 1.311045 1.181394
H -2.780665 1.267150 -0.338210
