18
charge=0, multiplicity=1, basis=def2-QZVPP
C 2.557452 -0.159852 0.523766
H 3.510689 0.331822 0.319192
H 2.740041 -1.235271 0.580953
H 2.206785 0.168086 1.504093
C 1.521820 0.164723 -0.559423
H 1.369015 1.243492 -0.604364
H 1.929778 -0.126487 -1.533778
C 0.226644 -0.556940 -0.341247
H 0.297579 -1.640337 -0.415294
C -0.970040 -0.044880 -0.047347
C -1.259559 1.421213 0.110010
H -1.677594 1.622033 1.101334
H -2.013764 1.742975 -0.615106
H -0.380972 2.049346 -0.017236
C -2.163932 -0.936561 0.155467
H -1.908394 -1.988755 0.031131
H -2.587039 -0.802042 1.156179
H -2.960435 -0.691078 -0.554453
