18
charge=0, multiplicity=1, basis=def2-QZVPP
C -2.161169 -0.178339 0.293336
H -3.066450 -0.647578 -0.096081
H -2.365729 0.887817 0.403517
H -1.973038 -0.585293 1.289337
C -0.971895 -0.432352 -0.631714
H -1.175685 -0.002579 -1.618730
H -0.860485 -1.509497 -0.785040
C 0.342167 0.123133 -0.114584
C 1.602183 -0.588086 -0.524172
H 2.490453 0.005512 -0.697479
H 1.514093 -1.454835 -1.166507
C 1.094003 -0.704629 0.892497
H 0.664268 -1.649720 1.199082
H 1.641003 -0.191943 1.673012
C 0.404937 1.628093 0.022847
H -0.323860 1.996882 0.747739
H 1.392772 1.949356 0.356964
H 0.201301 2.114964 -0.935068
