16
charge=0, multiplicity=1, basis=def2-QZVPP
C -0.955656 0.141553 -0.428298
C -2.257737 0.137764 -0.434422
C 0.348208 0.146986 -0.426209
C 1.134695 0.561928 -1.645073
C 1.162297 -0.257869 0.783177
C 0.358774 -0.674121 2.007400
H -2.822306 -0.739532 -0.732934
H -2.830102 1.012000 -0.141718
H 0.480757 0.835731 -2.470812
H 1.787811 -0.251779 -1.973918
H 1.777410 1.416167 -1.412676
H 1.823557 0.578724 1.038123
H 1.830063 -1.073214 0.480736
H -0.286710 0.136522 2.348500
H 1.023623 -0.948120 2.827942
H -0.279728 -1.530575 1.786179
