16
charge=0, multiplicity=1, basis=def2-QZVPP
C 0.003594 2.128728 -0.000016
H 0.757494 2.692938 -0.537192
H -0.748077 2.695729 0.537351
C 0.000872 0.812551 -0.000480
C 0.629433 -0.435441 -0.439652
H 0.455692 -0.716194 -1.476067
C 1.962156 -0.876283 0.120058
H 2.060666 -0.573193 1.163880
H 2.071386 -1.962075 0.067733
H 2.789060 -0.426576 -0.433953
C -0.631041 -0.433366 0.439750
H -0.458390 -0.713424 1.476540
C -1.964725 -0.871496 -0.119878
H -2.790642 -0.419889 0.434059
H -2.076283 -1.957038 -0.067277
H -2.062637 -0.568446 -1.163768
