16
charge=0, multiplicity=1, basis=def2-QZVPP
C -2.178087 -0.000007 -0.559779
H -3.051537 -0.001586 0.093851
H -2.229158 0.879013 -1.208063
H -2.227736 -0.877246 -1.210559
C -0.922489 -0.000041 0.210616
C 0.577880 -0.000002 0.093421
C 1.303450 -1.268529 -0.326580
H 2.299047 -1.319118 0.125142
H 0.749055 -2.157293 -0.022146
H 1.440042 -1.306070 -1.411894
C 1.303480 1.268506 -0.326610
H 1.440877 1.305627 -1.411836
H 0.748674 2.157281 -0.022957
H 2.298737 1.319495 0.125813
C -0.279842 0.000057 1.331357
H -0.294355 -0.000012 2.408100
