16
charge=0, multiplicity=1, basis=def2-QZVPP
C 1.820737 0.618008 -0.088352
H 2.764681 0.635515 -0.615989
H 1.539502 1.560266 0.363286
C 0.707513 -0.242633 -0.620951
H 0.957474 -0.836948 -1.493507
C -0.707475 0.241676 -0.621216
H -0.957375 0.834938 -1.494508
C -1.425300 0.640576 0.637226
H -2.091922 1.490718 0.588640
H -0.913974 0.536965 1.584332
C -1.820953 -0.617980 -0.087578
H -2.764889 -0.635739 -0.615219
H -1.540214 -1.559842 0.365200
C 1.425495 -0.639794 0.637949
H 0.914257 -0.535195 1.584979
H 2.092360 -1.489790 0.590320
