16
charge=0, multiplicity=1, basis=def2-QZVPP
C -1.829532 0.000026 0.173200
H -2.731469 -0.000019 -0.437115
H -2.118199 0.000137 1.223857
C -0.770559 1.092025 -0.142170
H -0.678340 1.913232 0.569465
H -0.886704 1.507084 -1.145455
C 0.300242 -0.000027 -0.081854
C 1.673273 -0.000119 -0.663961
H 2.029233 -0.910680 -1.129767
H 2.029288 0.910267 -1.130065
C 1.481398 0.000130 0.835590
H 1.707985 -0.910543 1.376013
H 1.707918 0.911058 1.375620
C -0.770583 -1.092054 -0.141983
H -0.678419 -1.913203 0.569731
H -0.886726 -1.507223 -1.145223
