16
charge=0, multiplicity=1, basis=def2-QZVPP
C 2.897302 0.002979 0.234484
H 3.484694 -0.878657 -0.039545
H 3.485544 0.875937 -0.064344
H 2.797884 0.018383 1.321036
C 1.559683 -0.005862 -0.435068
H 1.564079 -0.020912 -1.522668
C 0.389208 0.003220 0.196504
H 0.378726 0.018316 1.285392
C -0.929503 -0.005619 -0.457164
H -0.901085 -0.019636 -1.540292
C -2.082366 -0.746784 0.183000
H -2.768021 -1.272025 -0.467963
H -1.889890 -1.244356 1.124407
C -2.082961 0.750725 0.163668
H -1.891010 1.272522 1.091974
H -2.769100 1.258472 -0.500533
