18
charge=0, multiplicity=1, basis=def2-QZVPP
C 0.051705 -2.749088 0.780178
H -0.282226 -2.245982 1.689494
H 1.133940 -2.879708 0.851520
H -0.403502 -3.740918 0.751546
C -0.322459 -1.932455 -0.461235
H -0.018416 -2.490139 -1.354359
H -1.408225 -1.819529 -0.518589
C 0.322459 -0.580592 -0.476852
H 1.411634 -0.572931 -0.472154
C -0.322459 0.580592 -0.476852
H -1.411634 0.572931 -0.472154
C 0.322459 1.932455 -0.461235
H 1.408225 1.819529 -0.518589
H 0.018416 2.490139 -1.354359
C -0.051705 2.749088 0.780178
H 0.403502 3.740918 0.751546
H 0.282226 2.245982 1.689494
H -1.133940 2.879708 0.851520
