16
charge=0, multiplicity=1, basis=def2-QZVPP
C -0.932031 2.268931 0.000000
H -1.171343 2.780770 -0.924576
H -1.171343 2.780770 0.924576
C -0.375081 1.069825 0.000000
C -0.018302 0.076358 -1.088071
H 0.985982 0.244494 -1.488627
H -0.712818 -0.024598 -1.922710
C -0.018302 -1.040218 -0.000000
H -0.980118 -1.556942 -0.000000
C 1.117563 -2.041892 -0.000000
H 2.084178 -1.531227 -0.000000
H 1.079519 -2.684664 -0.882859
H 1.079519 -2.684664 0.882859
C -0.018302 0.076358 1.088071
H 0.985982 0.244494 1.488627
H -0.712818 -0.024598 1.922710
