16
charge=0, multiplicity=1, basis=def2-QZVPP
C -2.601854 -0.888979 0.000270
H -2.972431 -1.318016 -0.924418
H -2.973416 -1.316526 0.925235
C -1.753298 0.097830 -0.000207
C -0.902264 1.082934 -0.000469
H -1.297243 2.096376 -0.001057
C 0.600076 0.949541 0.000505
H 0.993809 1.483885 0.873318
H 0.995112 1.485582 -0.870657
C 1.122660 -0.482160 -0.000372
H 0.727746 -1.007678 -0.873939
H 0.727200 -1.009003 0.872160
C 2.646770 -0.547077 0.000072
H 3.063154 -0.054366 0.882179
H 2.999832 -1.579687 -0.000550
H 3.063700 -0.053103 -0.881071
