16
charge=0, multiplicity=1, basis=def2-QZVPP
C -2.427728 -0.465639 0.025082
H -3.389425 -0.097075 -0.336152
H -2.164369 -1.350935 -0.556885
H -2.559699 -0.779659 1.062924
C -1.344306 0.606298 -0.087523
H -1.231865 0.913214 -1.131977
H -1.654038 1.497705 0.466050
C -0.007985 0.138531 0.437412
H -0.023348 -0.159444 1.488733
C 0.906395 -0.627062 -0.468202
H 0.718449 -1.020305 -1.453067
C 2.203949 -0.346772 0.215788
H 3.099626 -0.393838 -0.393913
H 2.345592 -0.675156 1.244835
C 1.250397 0.766575 -0.071397
H 1.374744 1.633906 -0.697515
