18
charge=0, multiplicity=1, basis=def2-QZVPP
C 1.743845 -1.059470 -0.142882
H 2.800529 -0.823343 -0.107868
H 1.479867 -2.100498 -0.285215
C 0.812562 -0.117540 -0.017379
C -0.660690 -0.469250 -0.067017
H -0.720846 -1.550134 -0.222822
C -1.375386 0.208810 -1.242861
H -2.407226 -0.141172 -1.313098
H -1.404957 1.293325 -1.120163
H -0.875822 -0.012055 -2.187510
C -1.371741 -0.151897 1.254933
H -0.870229 -0.632176 2.096601
H -1.399916 0.922879 1.445120
H -2.404023 -0.506404 1.225635
C 1.181630 1.326682 0.178478
H 0.767913 1.721259 1.109840
H 0.790242 1.950577 -0.628992
H 2.263151 1.453731 0.208847
