16
charge=0, multiplicity=1, basis=def2-QZVPP
C -3.174798 -0.139853 -0.000089
H -3.740387 0.189996 0.876989
H -3.740624 0.190669 -0.876751
H -3.154898 -1.230617 -0.000488
C -1.795247 0.431724 -0.000058
H -1.720461 1.516741 -0.000156
C -0.666648 -0.283742 0.000157
H -0.731714 -1.369709 0.000278
C 0.666648 0.283741 0.000158
H 0.731714 1.369709 0.000336
C 1.795247 -0.431724 -0.000022
H 1.720462 -1.516741 -0.000174
C 3.174798 0.139854 -0.000094
H 3.740572 -0.190371 0.876719
H 3.740438 -0.190294 -0.877021
H 3.154899 1.230617 -0.000048
