17
charge=0, multiplicity=1, basis=def2-QZVPP
C 2.543688 -1.005344 -0.000715
H 3.164141 -1.867204 -0.001092
C 1.852909 -0.023805 -0.000202
C 0.989802 1.150338 0.000622
H 1.224027 1.764015 -0.875473
H 1.224308 1.762964 0.877380
C -0.505111 0.819701 0.000704
H -1.056570 1.762796 0.001799
C -1.077507 -0.130375 1.080803
H -0.325544 -0.850243 1.405910
H -1.537440 0.323688 1.958446
C -2.008191 -0.732719 -0.000375
H -2.991169 -0.260194 0.000419
H -2.140922 -1.813906 -0.001429
C -1.078202 -0.128171 -1.080925
H -1.538717 0.327688 -1.957333
H -0.326443 -0.847349 -1.408097
