17
charge=0, multiplicity=1, basis=def2-QZVPP
C -1.795667 -1.276593 0.000059
H -1.137022 -2.144308 -0.000531
H -2.446943 -1.342538 0.877902
H -2.447962 -1.342060 -0.877059
C -1.026703 0.011770 0.000002
C 0.305272 0.033647 0.000051
C 1.401409 -1.051171 -0.000099
H 1.431134 -1.683919 -0.890533
H 1.431229 -1.684171 0.890150
C 2.356408 0.138108 0.000021
H 3.434710 0.205331 0.000050
C 1.365977 1.050303 0.000064
H 1.355488 2.132096 0.000110
C -1.842131 1.272046 -0.000060
H -1.217426 2.164302 0.001095
H -2.496193 1.312784 0.877030
H -2.494401 1.313817 -0.878445
