17
charge=0, multiplicity=1, basis=def2-QZVPP
C 2.721710 0.326111 0.000499
H 2.368941 1.350612 0.001698
H 3.793532 0.181290 -0.000101
C 1.887957 -0.709330 -0.000150
H 2.302819 -1.711789 -0.001293
C 0.403821 -0.639508 0.000279
H -0.076050 -1.613635 0.000947
C -0.263130 0.485581 0.743399
H 0.206736 1.179212 1.420972
C -1.557177 0.580662 -0.000421
H -1.977048 1.584851 -0.001162
C -2.618213 -0.499275 0.000565
H -2.187700 -1.499997 0.001647
H -3.254252 -0.409263 0.884073
H -3.254192 -0.411047 -0.883165
C -0.263210 0.484507 -0.744310
H 0.206664 1.177276 -1.422781
