19
charge=0, multiplicity=1, basis=def2-QZVPP
C 2.163479 -0.897238 -0.449981
H 3.171861 -0.949949 -0.032647
H 1.601204 -1.757560 -0.081577
H 2.244987 -0.995383 -1.535560
C 1.476822 0.389906 -0.069008
H 1.983397 1.293245 -0.395033
C 0.002238 0.458682 -0.005948
C -1.139389 -0.309550 -0.547005
H -0.956828 -0.836183 -1.479130
C -2.120793 -0.981530 0.379171
H -2.253125 -0.395701 1.290727
H -3.099419 -1.097758 -0.092662
H -1.770400 -1.974692 0.671911
C -1.097944 1.211929 -0.646580
H -0.926481 1.654901 -1.620232
H -1.777693 1.768451 -0.011345
C 0.753218 0.500178 1.269013
H 0.814006 1.437950 1.807521
H 0.742697 -0.381580 1.900056
