17
charge=0, multiplicity=1, basis=def2-QZVPP
C -2.292442 -0.643877 -0.614476
H -2.279245 -1.694282 -0.880171
H -3.208280 -0.100009 -0.807706
C -1.226338 -0.054958 -0.072546
C 0.021985 -0.827410 0.177483
H -0.069139 -1.879897 -0.096247
C 1.388328 -0.186940 0.079982
C 2.373255 0.336635 -0.879943
H 2.685033 -0.450979 -1.571083
H 1.931388 1.131844 -1.485455
H 3.256381 0.729554 -0.374405
C 0.993333 -0.456277 1.274941
H 1.163473 -0.456635 2.337240
C -1.228514 1.397540 0.308173
H -1.026169 1.523081 1.375284
H -0.444081 1.947413 -0.219371
H -2.187009 1.861627 0.080224
