17
charge=0, multiplicity=1, basis=def2-QZVPP
C -1.628565 0.359885 -0.776595
H -2.558473 -0.028679 -1.189393
H -1.401821 1.314237 -1.256307
C -0.493123 -0.667579 -0.783164
H -0.399563 -1.503821 -1.463316
C 0.649113 -0.161459 -0.001669
C 1.541764 1.019435 0.011016
H 1.637499 1.605048 -0.894973
H 1.637726 1.585646 0.929228
C 2.103552 -0.401266 -0.004235
H 2.571348 -0.764613 0.902495
H 2.571534 -0.745085 -0.918447
C -0.493216 -0.684499 0.768496
H -0.399583 -1.535377 1.430241
C -1.628977 0.342514 0.784121
H -1.402979 1.286042 1.285109
H -2.558975 -0.055580 1.187549
