19
charge=0, multiplicity=1, basis=def2-QZVPP
C 2.158572 -0.831811 0.360060
H 2.890764 -1.534543 -0.041786
H 2.698807 0.067424 0.661268
H 1.723272 -1.275305 1.258138
C 1.069348 -0.526676 -0.666517
H 1.511429 -0.066493 -1.556103
H 0.623895 -1.463428 -1.002374
C -0.016960 0.401840 -0.138006
C -1.449265 0.239255 -0.557587
H -2.140893 1.004081 -0.871450
C -1.760020 -1.103344 0.018533
H -2.798494 -1.279775 0.278391
H -1.246978 -1.992631 -0.336494
C -1.040682 -0.089063 0.845951
H -1.378471 0.392122 1.749289
C 0.443235 1.833234 0.060096
H -0.372017 2.461331 0.423034
H 1.258102 1.891760 0.783169
H 0.805220 2.254842 -0.880264
