17
charge=0, multiplicity=1, basis=def2-QZVPP
C -3.502271 -0.271822 -0.181060
H -4.046806 -0.502085 0.737612
H -3.673364 -1.091894 -0.882490
H -3.942118 0.631857 -0.609624
C -2.083233 -0.092591 0.087358
C -0.910781 0.055435 0.313357
C 0.488693 0.231134 0.571390
H 0.783674 0.095144 1.606116
C 1.522170 -0.191187 -0.454724
H 1.102210 -0.580379 -1.374358
C 2.797321 -0.852601 -0.001852
H 2.654866 -1.924573 0.151837
H 3.591424 -0.720502 -0.740745
H 3.146594 -0.423121 0.939770
C 1.286667 1.265052 -0.204935
H 2.041104 1.815806 0.342094
H 0.751017 1.839224 -0.947414
