17
charge=0, multiplicity=1, basis=def2-QZVPP
C 3.337455 -0.481189 -0.209874
H 3.699009 -1.447692 0.125626
H 4.001720 0.099866 -0.841176
C 2.162340 -0.038238 0.131047
C 0.982308 0.403290 0.466065
H 0.890717 0.993067 1.376202
C -0.261398 0.164339 -0.297808
H -0.131089 -0.419029 -1.200824
C -1.572017 -0.030543 0.428241
H -1.512594 0.062860 1.507301
C -2.560800 -1.056468 -0.061900
H -2.319097 -2.052208 0.316741
H -2.561437 -1.105498 -1.152988
H -3.576064 -0.810966 0.259287
C -1.333881 1.232768 -0.342308
H -1.150276 2.148027 0.204892
H -1.864922 1.367825 -1.275839
