21
charge=0, multiplicity=1, basis=def2-QZVPP
C 3.297115 0.937437 0.078244
H 3.338782 1.164660 1.145960
H 2.752696 1.746616 -0.411973
H 4.320107 0.933724 -0.302864
C 2.608913 -0.408883 -0.170529
H 2.584135 -0.621106 -1.242574
H 3.208440 -1.201509 0.291448
C 1.216845 -0.453879 0.380531
H 1.125741 -0.305746 1.455765
C 0.111484 -0.637557 -0.332811
H 0.202643 -0.777312 -1.409010
C -1.282052 -0.648051 0.213705
H -1.250766 -0.565126 1.304198
H -1.757577 -1.610342 -0.012510
C -2.158599 0.471917 -0.360142
H -2.164162 0.399048 -1.452317
H -1.700598 1.435904 -0.120959
C -3.590192 0.430488 0.165237
H -3.612253 0.530027 1.253208
H -4.193141 1.237557 -0.254832
H -4.075131 -0.515230 -0.088954
