19
charge=0, multiplicity=1, basis=def2-QZVPP
C 1.733540 -0.734909 0.229183
H 1.840441 -0.785688 1.316710
H 2.539733 -1.325170 -0.208284
C 0.338972 -1.222719 -0.185963
H 0.353692 -1.523044 -1.237886
H -0.000492 -2.083560 0.392186
C -0.566096 0.000796 -0.004143
C -1.869860 0.094060 -0.742339
H -2.165288 -0.747508 -1.356817
H -2.170192 1.058829 -1.131417
C -1.859312 -0.094471 0.752841
H -2.152935 -1.059844 1.145585
H -2.146873 0.746504 1.371793
C 0.339804 1.226108 0.169139
H 0.010196 2.077227 -0.428791
H 0.340106 1.545190 1.215432
C 1.740161 0.730850 -0.219666
H 2.540367 1.318415 0.232128
H 1.867990 0.780358 -1.304955
