21
charge=0, multiplicity=1, basis=def2-QZVPP
C 2.640315 0.210604 0.000005
H 3.212592 -0.084361 -0.883274
H 2.566361 1.301300 0.000609
H 3.212965 -0.085291 0.882726
C 1.262622 -0.420846 -0.000062
H 1.358493 -1.508866 -0.000230
C 0.246703 0.026185 -1.080454
H 0.095404 -0.632360 -1.937310
H 0.472432 1.030104 -1.447340
C -0.873951 0.049364 0.000042
C -1.693462 -1.236902 -0.000144
H -2.334336 -1.288559 -0.884137
H -1.052723 -2.121053 -0.000480
H -2.334052 -1.288999 0.884023
C -1.781223 1.268262 0.000130
H -1.199136 2.192139 0.000330
H -2.425953 1.277373 -0.883150
H -2.426254 1.277146 0.883199
C 0.246710 0.025808 1.080506
H 0.095523 -0.633030 1.937167
H 0.472395 1.029605 1.447731
