17
charge=0, multiplicity=1, basis=def2-QZVPP
C -1.600191 -1.343835 -0.171778
H -1.146824 -2.295728 0.115641
H -1.530026 -1.247738 -1.256825
H -2.657822 -1.386878 0.098119
C -0.911362 -0.178829 0.516554
H -0.963757 -0.291222 1.603912
C 0.523990 0.183344 0.034025
C 1.495844 -0.694816 -0.692025
H 1.258610 -1.747609 -0.778731
H 2.013720 -0.281479 -1.547850
C 1.834222 -0.156090 0.675832
H 1.824014 -0.846786 1.509325
H 2.582780 0.622315 0.749166
C -0.019407 1.514450 -0.360701
H 0.444490 2.386570 -0.803771
C -1.261747 1.227610 0.042798
H -2.193282 1.777549 0.042788
