17
charge=0, multiplicity=1, basis=def2-QZVPP
C 1.310258 1.471435 0.042036
H 0.828086 2.113920 0.783553
H 1.317633 2.008366 -0.910526
H 2.347077 1.321860 0.348905
C 0.578061 0.154655 -0.087074
C 1.357217 -1.046476 -0.555546
H 0.849049 -1.760696 -1.190546
H 2.410541 -0.923227 -0.773188
C 0.907523 -0.942886 0.880159
H 1.656052 -0.747482 1.636987
H 0.103598 -1.589426 1.207708
C -0.844239 0.293460 -0.569286
H -0.898484 0.723277 -1.572342
C -1.988045 0.560106 0.369393
H -2.468371 1.275732 1.012458
C -1.948968 -0.625753 -0.134146
H -2.376022 -1.609569 -0.216226
