17
charge=0, multiplicity=1, basis=def2-QZVPP
C 2.868239 -0.441794 -0.355857
H 3.869333 -0.136388 -0.079733
H 2.754291 -0.938059 -1.313266
C 1.829413 -0.222184 0.438435
H 1.985071 0.284544 1.386930
C 0.421386 -0.629944 0.138936
H 0.069232 -1.289493 0.940442
H 0.395680 -1.230289 -0.776034
C -0.567410 0.508416 0.004542
C -1.989684 0.174237 -0.070156
H -2.655697 1.026488 -0.168020
C -2.518786 -1.049588 -0.040283
H -3.588380 -1.195127 -0.109385
H -1.914592 -1.942712 0.050730
C -0.185409 1.787999 -0.068755
H 0.855239 2.078577 -0.039089
H -0.916668 2.579611 -0.173755
