19
charge=0, multiplicity=1, basis=def2-QZVPP
C -0.953753 1.992407 -0.307453
H -0.243043 2.803943 -0.203502
H -1.846043 2.188970 -0.891038
C -0.745128 0.818017 0.249517
C 0.145417 -0.060030 1.013942
H 0.109894 0.074153 2.090995
C 1.504038 -0.537916 0.499615
H 1.451339 -1.610625 0.289663
H 2.223945 -0.430785 1.314057
C 2.042402 0.195613 -0.726396
H 2.154856 1.262446 -0.525983
H 1.376377 0.097931 -1.583932
H 3.018985 -0.200789 -1.011480
C -1.191081 -0.563055 0.422186
H -1.970084 -0.728575 1.161904
C -1.227071 -1.530483 -0.738119
H -2.182207 -1.465475 -1.263273
H -1.102718 -2.560692 -0.395643
H -0.440246 -1.317826 -1.461524
