19
charge=0, multiplicity=1, basis=def2-QZVPP
C 2.620548 0.710033 -0.154043
H 2.877704 1.192911 0.792762
H 2.312413 1.503260 -0.840195
H 3.513380 0.229585 -0.556402
C 1.526179 -0.255249 0.043625
C 0.106301 -0.402795 0.510506
H -0.085821 -0.381213 1.588836
C -1.071079 0.122207 -0.297230
H -0.776122 0.103933 -1.352647
C -2.294282 -0.779804 -0.124950
H -2.075446 -1.802283 -0.439086
H -3.143178 -0.418744 -0.710125
H -2.603165 -0.812409 0.923768
C -1.392117 1.567405 0.089580
H -0.531450 2.219897 -0.071419
H -1.664187 1.631640 1.146920
H -2.229176 1.960178 -0.491995
C 1.043512 -1.451158 -0.021205
H 1.170679 -2.490587 -0.268119
