19
charge=0, multiplicity=1, basis=def2-QZVPP
C -1.700059 -0.933946 -0.480262
H -1.273301 -1.922032 -0.664248
H -2.154862 -0.585618 -1.411511
H -2.493610 -1.038676 0.263747
C -0.632584 0.041590 -0.000700
C 0.616498 -0.033122 -0.898732
H 0.592784 -0.288831 -1.950439
C 1.411317 -0.695104 0.223351
H 2.082623 -1.540244 0.164165
C 1.798055 0.657079 -0.289774
H 2.682839 0.685854 -0.912837
H 1.671004 1.533463 0.336694
C 0.216314 -0.574356 1.168100
H 0.373492 0.065956 2.039435
H -0.181702 -1.531308 1.503570
C -1.230730 1.420693 0.235463
H -1.679149 1.809996 -0.682226
H -0.479817 2.136636 0.571255
H -2.013166 1.377804 0.997716
