17
charge=0, multiplicity=1, basis=def2-QZVPP
C -1.378306 -0.754989 0.130171
H -2.003207 -0.771597 1.026802
H -1.774277 -1.497824 -0.565476
C 0.078558 -1.028216 0.505878
H 0.234580 -1.911202 1.121028
C 0.628847 0.329152 1.019217
H 0.965902 0.589082 2.011611
C 1.269668 0.557085 -0.336581
H 2.155628 1.131211 -0.573352
C -0.026302 1.250927 0.035741
H 0.055693 2.317500 0.198153
C 1.010388 -0.890739 -0.738421
H 0.563769 -1.084086 -1.718149
H 1.910112 -1.496717 -0.633484
C -1.340694 0.670866 -0.475358
H -1.372514 0.647023 -1.566913
H -2.188646 1.272099 -0.144109
