21
charge=0, multiplicity=1, basis=def2-QZVPP
C 3.369911 0.216954 -0.119749
H 4.140075 -0.421323 0.323485
H 3.413996 0.098816 -1.203490
H 3.642217 1.248825 0.121555
C 2.013231 -0.122436 0.411640
H 1.881164 -0.029875 1.487709
C 0.979798 -0.521234 -0.321228
H 1.108200 -0.609130 -1.399246
C -0.381173 -0.855155 0.203759
H -0.619359 -1.894907 -0.048780
H -0.382485 -0.790193 1.296858
C -1.501989 0.041653 -0.354664
H -1.446804 -0.004955 -1.448996
C -2.871750 -0.483523 0.072683
H -2.968607 -0.467224 1.161944
H -3.676442 0.128138 -0.340349
H -3.025510 -1.512293 -0.260067
C -1.316670 1.497963 0.067823
H -0.347458 1.885113 -0.247958
H -2.094768 2.132846 -0.360735
H -1.372367 1.590832 1.156487
