17
charge=0, multiplicity=1, basis=def2-QZVPP
C -1.516567 0.811636 -0.385951
C -1.492872 -0.735265 -0.278445
C -0.059105 -1.097894 0.091937
C 1.034625 -0.509736 -0.740754
C 2.017387 -0.118875 0.330936
C 0.579673 0.185913 0.508310
C -0.376185 1.335369 0.523809
H -2.488781 1.224767 -0.117425
H -1.314030 1.112058 -1.414909
H -1.835254 -1.210352 -1.199753
H -2.154245 -1.074804 0.522308
H 0.112448 -2.027491 0.631973
H 0.978332 -0.110759 -1.740953
H 2.673352 0.714589 0.098166
H 2.487480 -0.890416 0.939569
H 0.057759 2.264593 0.148257
H -0.737019 1.528375 1.538452
