17
charge=0, multiplicity=1, basis=def2-QZVPP
C 2.446089 0.008971 -0.080287
H 2.865960 -0.443218 0.825166
H 2.894902 0.993964 -0.210242
H 2.758657 -0.625206 -0.915858
C 0.956420 0.086202 0.009362
C 0.204143 -1.193464 0.291361
H 0.747802 -2.051105 -0.111511
H 0.177838 -1.334739 1.381630
C -1.223320 -1.170320 -0.259829
H -1.197573 -1.322655 -1.348513
H -1.796482 -2.004151 0.149802
C -1.903915 0.141350 0.021218
H -2.983735 0.167421 0.100632
C -1.181677 1.263636 0.093304
H -1.665218 2.220867 0.247252
C 0.269669 1.234637 -0.060525
H 0.793393 2.172761 -0.205983
