17
charge=0, multiplicity=1, basis=def2-QZVPP
C 1.206949 2.600527 -0.881747
H 2.130468 3.079034 -1.178721
H 0.284468 3.075606 -1.194869
C 1.204053 1.481058 -0.165332
H 2.152336 1.037329 0.129163
C -0.000000 0.764323 0.276648
H -0.939334 1.223670 -0.008039
C 0.000000 -0.764323 0.276648
H 0.939334 -1.223670 -0.008039
C -1.204053 -1.481058 -0.165332
H -2.152336 -1.037329 0.129163
C -1.206949 -2.600527 -0.881747
H -2.130468 -3.079034 -1.178721
H -0.284468 -3.075606 -1.194869
C 0.000000 0.000000 1.572603
H 0.910275 0.000628 2.157240
H -0.910275 -0.000628 2.157240
