17
charge=0, multiplicity=1, basis=def2-QZVPP
C 1.201776 -1.167733 0.064717
C 1.213704 0.016889 -0.544826
C -0.172579 0.606090 -0.233312
C -0.532039 1.966305 -0.768920
C -1.057369 -0.667908 -0.472723
C -0.189764 -1.217024 0.705171
C -0.279137 0.230254 1.287325
H 1.963055 -1.930469 0.117638
H 1.987372 0.492070 -1.129086
H -0.488478 1.981007 -1.860680
H 0.156486 2.728933 -0.396848
H -1.542196 2.252526 -0.470203
H -0.967431 -1.165581 -1.437979
H -2.104668 -0.513061 -0.204616
H -0.473576 -2.095310 1.278701
H 0.527501 0.559275 1.942298
H -1.255973 0.466411 1.715087
