17
charge=0, multiplicity=1, basis=def2-QZVPP
C 2.782660 -0.062534 0.000081
H 3.175595 0.459314 0.878128
H 3.179979 -1.078619 0.000291
H 3.175803 0.459068 -0.878016
C 1.299642 -0.062838 -0.000067
C 0.302136 1.091732 -0.000089
H 0.313921 1.723880 0.891395
H 0.313905 1.723803 -0.891635
C -0.775577 -0.019101 -0.000047
C -2.067851 -0.051748 0.755690
H -2.336026 -0.968293 1.265364
H -2.384046 0.851273 1.262177
C -2.067975 -0.051771 -0.755542
H -2.384214 0.851251 -1.261999
H -2.336263 -0.968321 -1.265152
C 0.345982 -1.004676 -0.000088
H 0.367239 -2.087753 -0.000179
