19
charge=0, multiplicity=1, basis=def2-QZVPP
C -2.504324 0.067538 0.051646
H -2.859883 -0.428744 0.960729
H -2.917179 -0.495234 -0.791692
H -2.921401 1.074600 0.028633
C -1.005230 0.085334 0.004314
C -0.327526 -1.260546 0.078758
H -0.861907 -1.967074 -0.565077
H -0.436695 -1.655440 1.097263
C 1.150406 -1.210398 -0.308353
H 1.643489 -2.145298 -0.032583
H 1.235014 -1.116865 -1.395972
C 1.840654 -0.018021 0.349023
H 1.750277 -0.107809 1.436503
H 2.908355 -0.012666 0.118668
C 1.193688 1.291320 -0.103764
H 1.524285 2.115883 0.535209
H 1.538659 1.547013 -1.114023
C -0.307494 1.216922 -0.091003
H -0.844059 2.158744 -0.161389
