17
charge=0, multiplicity=1, basis=def2-QZVPP
C 2.472320 -1.251451 -0.064853
H 3.458653 -1.634138 -0.154960
C 1.346996 -0.835906 0.032127
C 0.037503 -0.284430 0.168804
C -0.009016 1.153319 0.637285
H 0.648962 1.254084 1.504098
H -1.013930 1.403459 0.975598
C 0.433632 2.136256 -0.450511
H 1.441844 1.903961 -0.796110
H -0.235650 2.087485 -1.311397
H 0.430989 3.160248 -0.072872
C -1.032020 -1.033966 -0.140332
H -0.842804 -2.049226 -0.473398
C -2.468651 -0.632457 -0.086954
H -3.024705 -1.281036 0.596931
H -2.932574 -0.751132 -1.070769
H -2.615378 0.398104 0.229483
