21
charge=0, multiplicity=1, basis=def2-QZVPP
C 1.992168 0.001439 -0.763151
H 1.828897 0.003870 -1.843254
H 2.587167 0.882739 -0.511042
H 2.586856 -0.881162 -0.514903
C 0.665004 0.000065 -0.009903
C -0.231884 -1.190530 -0.401703
H 0.085440 -2.123278 0.068929
H -0.168009 -1.337618 -1.483510
C -1.662699 -0.776815 -0.010256
H -1.918572 -1.159552 0.978633
H -2.400331 -1.185661 -0.701152
C -1.662980 0.776719 -0.008309
H -2.400026 1.186942 -0.699013
H -1.920149 1.156884 0.981230
C -0.231908 1.192061 -0.397411
H -0.167508 1.343503 -1.478587
H 0.085025 2.122975 0.077078
C 0.930560 -0.002781 1.501034
H 0.004594 -0.003822 2.078237
H 1.503593 0.879756 1.794454
H 1.503452 -0.886528 1.791090
