17
charge=0, multiplicity=1, basis=def2-QZVPP
C -2.715968 0.097945 -0.150518
H -2.859611 -0.010169 -1.219773
H -3.593725 0.326426 0.440243
C -1.518333 -0.043716 0.404612
H -1.409205 0.079685 1.479378
C -0.263747 -0.347037 -0.333088
H -0.476649 -0.482228 -1.398023
C 0.929699 0.586492 -0.144972
C 1.019910 1.889390 0.056810
H 0.140893 2.521875 0.022892
H 1.970110 2.366627 0.264606
C 1.895274 -0.576502 -0.045637
H 2.647363 -0.533259 0.742078
H 2.396682 -0.782966 -0.994316
C 0.663793 -1.498400 0.179470
H 0.494617 -1.700201 1.237068
H 0.625755 -2.434821 -0.374219
