19
charge=0, multiplicity=1, basis=def2-QZVPP
C -1.808544 -1.241601 0.001985
H -2.724748 -1.269312 -0.591345
H -1.248710 -2.155880 -0.202840
H -2.095291 -1.255005 1.057158
C -0.983392 0.005637 -0.315435
H -0.731284 -0.007899 -1.382706
C 0.330308 -0.001690 0.461549
H 0.112898 -0.051186 1.534940
C 1.411787 -1.056376 0.022559
H 1.129621 -1.648166 -0.851151
H 1.750919 -1.733307 0.809842
C 2.297541 0.139859 -0.256224
H 3.316211 0.219699 -0.613669
C 1.381113 1.038258 0.108690
H 1.377508 2.119857 0.152953
C -1.781845 1.277946 -0.031197
H -2.037512 1.344669 1.030083
H -1.216558 2.172839 -0.296442
H -2.714860 1.291492 -0.598389
