17
charge=0, multiplicity=1, basis=def2-QZVPP
C -1.376449 1.476464 0.010889
H -1.369443 2.004193 -0.947490
H -2.413961 1.352065 0.322541
H -0.871415 2.117971 0.738085
C -0.673466 0.133858 -0.105037
C -1.091850 -1.015725 0.772586
H -1.083436 -1.438181 1.762530
C -1.460667 -1.097446 -0.460853
H -1.975651 -1.637046 -1.236625
C 0.762958 0.272533 -0.543455
H 0.881368 0.763623 -1.504652
C 1.828673 0.582102 0.475627
H 2.619344 1.272645 0.214267
H 1.520857 0.625777 1.512701
C 1.790039 -0.761441 -0.201937
H 1.462859 -1.611064 0.383756
H 2.554050 -0.992054 -0.932029
