17
charge=0, multiplicity=1, basis=def2-QZVPP
C 2.654647 -0.999932 -0.055596
H 3.296781 -1.836053 0.072402
C 1.937072 -0.049712 -0.204098
C 1.052863 1.095148 -0.377147
H 1.059634 1.386472 -1.432811
H 1.466676 1.943084 0.178756
C -0.384197 0.860142 0.066722
H -1.005595 1.737141 -0.078132
C -1.075768 -0.457601 -0.117572
H -0.448712 -1.255112 -0.500111
C -2.515150 -0.509842 -0.561688
H -3.085295 0.320196 -0.138015
H -2.598245 -0.449485 -1.649697
H -2.994347 -1.437805 -0.240510
C -0.715564 0.015751 1.266371
H -1.515798 0.349363 1.914487
H 0.101483 -0.481524 1.771678
