17
charge=0, multiplicity=1, basis=def2-QZVPP
C 2.931623 -1.049789 -0.237578
H 3.759337 -0.352439 -0.308730
H 3.137007 -2.079002 -0.502824
C 1.727231 -0.660055 0.159660
H 0.921445 -1.386285 0.214164
C 1.363049 0.741708 0.535097
H 2.237948 1.389630 0.444984
H 1.040853 0.770266 1.580800
C 0.224294 1.321331 -0.332538
H 0.538861 1.319874 -1.380375
H 0.065477 2.367412 -0.054803
C -1.031074 0.591191 -0.199052
C -2.053530 -0.026638 -0.068143
C -3.295925 -0.770191 0.082183
H -3.168298 -1.615825 0.761780
H -4.088659 -0.135923 0.485179
H -3.637976 -1.163046 -0.877941
