17
charge=0, multiplicity=1, basis=def2-QZVPP
C -2.200547 -0.751444 0.154077
H -2.050145 -1.256767 1.099246
H -2.865161 -1.265626 -0.526716
C -1.030119 -0.000600 -0.421010
H -0.943912 -0.001229 -1.502138
C 0.274832 -0.000798 0.300471
H 0.177464 -0.001861 1.389077
C 1.432745 0.745815 -0.284916
H 1.452378 1.424235 -1.120942
C 2.549140 0.000058 0.368544
H 2.626221 -0.000894 1.455338
H 3.504091 0.000903 -0.145314
C 1.433332 -0.745378 -0.286285
H 1.453517 -1.422269 -1.123536
C -2.199716 0.752155 0.153294
H -2.863792 1.266376 -0.527995
H -2.048670 1.258276 1.097925
