19
charge=0, multiplicity=1, basis=def2-QZVPP
C 2.279439 -0.736704 -0.313756
H 2.239946 -1.338963 -1.225011
H 3.306397 -0.384966 -0.189713
H 2.051020 -1.394968 0.526820
C 1.308636 0.414935 -0.375644
H 1.473499 1.105119 -1.197480
C -0.120299 0.222482 0.015078
C -1.383511 0.734322 -0.680535
H -1.684000 1.759614 -0.461742
H -1.347618 0.603092 -1.764173
C -2.176176 -0.395217 0.032086
H -2.722903 -0.029070 0.900483
H -2.855034 -0.982100 -0.585088
C -0.833522 -1.069404 0.426776
H -0.728650 -1.383418 1.465527
H -0.581973 -1.912675 -0.220053
C 0.778809 1.037318 0.894730
H 0.632418 2.110013 0.922853
H 1.096638 0.601930 1.835166
