19
charge=0, multiplicity=1, basis=def2-QZVPP
C 2.943143 -0.570792 -0.013509
H 3.890444 -0.333641 -0.501024
H 2.585092 -1.521265 -0.413779
H 3.142940 -0.714741 1.050712
C 1.913616 0.537489 -0.230783
H 1.732359 0.671880 -1.301653
H 2.315875 1.486093 0.137163
C 0.601493 0.255284 0.461665
H 0.688772 0.139203 1.544814
C -0.656407 0.873717 -0.056225
H -0.781130 1.621677 -0.822011
C -1.651798 -0.111186 0.468711
H -1.690172 -0.245516 1.551517
C -2.987643 -0.245260 -0.218829
H -2.889375 -0.100980 -1.297052
H -3.417892 -1.234254 -0.048660
H -3.697450 0.494300 0.157188
C -0.420052 -0.591813 -0.229129
H -0.333566 -1.147392 -1.148622
