19
charge=0, multiplicity=1, basis=def2-QZVPP
C 3.339779 0.429327 0.007657
H 3.466718 0.585587 1.081745
H 3.238577 1.412771 -0.457961
H 4.256081 -0.026046 -0.372839
C 2.119635 -0.441116 -0.279089
H 2.260744 -1.429730 0.170032
H 2.033929 -0.608116 -1.357896
C 0.816997 0.162965 0.238995
H 0.673255 1.153549 -0.206706
H 0.899080 0.326770 1.319567
C -0.413256 -0.697050 -0.047885
H -0.523968 -0.831740 -1.128598
H -0.261422 -1.696017 0.377904
C -1.690416 -0.101855 0.510887
H -1.686914 -0.031413 1.601165
C -2.488259 0.921359 -0.251521
H -2.536158 1.936205 -0.604741
C -3.017314 -0.252164 -0.178274
H -3.822913 -0.920610 -0.426290
