17
charge=0, multiplicity=1, basis=def2-QZVPP
C -1.330346 -1.896659 0.209483
H -2.396199 -1.979941 0.034137
H -0.829704 -2.757523 0.637329
C -0.670861 -0.794620 -0.085977
C 0.552958 -0.048460 -0.114520
C 1.656563 0.304538 0.815652
H 1.835911 1.354618 1.011113
H 1.845194 -0.352869 1.654635
C 1.953674 -0.212122 -0.578949
H 2.340755 -1.218260 -0.677843
H 2.332055 0.495125 -1.306469
C -0.721533 0.595721 -0.600540
H -0.812116 0.699153 -1.679947
C -1.383016 1.691744 0.203553
H -1.242069 1.520727 1.271616
H -0.961813 2.669201 -0.044157
H -2.456647 1.728918 0.007383
