17
charge=0, multiplicity=1, basis=def2-QZVPP
C -2.726832 0.606794 -0.172232
H -3.709836 0.224160 0.064971
H -2.653132 1.618791 -0.545704
C -1.641272 -0.141736 -0.012027
C -0.223422 -0.356339 -0.079534
C 1.111219 0.197760 -0.393566
H 1.096370 0.449074 -1.461361
C 2.220322 -0.821866 -0.138097
H 3.192002 -0.412078 -0.417867
H 2.056829 -1.734832 -0.712334
H 2.258284 -1.089601 0.919944
C 1.329645 1.504062 0.384010
H 0.528294 2.216598 0.188388
H 1.355900 1.310608 1.458052
H 2.277959 1.959895 0.096110
C -0.966964 -1.352288 0.357876
H -1.018849 -2.360926 0.731221
