17
charge=0, multiplicity=1, basis=def2-QZVPP
C 1.837258 1.384620 -0.021921
H 2.694119 1.585514 -0.654397
H 1.421522 2.220078 0.529104
C 1.325741 0.176009 0.075904
C 0.305296 -0.699845 0.649500
H 0.457259 -0.990588 1.685936
C -1.133250 -0.611653 0.243859
H -1.686333 -1.531316 0.400877
C -1.906544 0.662143 0.452296
H -2.935467 0.594324 0.778627
H -1.362855 1.510411 0.846821
C -1.560329 0.209798 -0.940051
H -2.352799 -0.178160 -1.565136
H -0.799276 0.766961 -1.469043
C 1.364081 -1.226603 -0.336781
H 2.149504 -1.868553 0.045533
H 1.020809 -1.475491 -1.335155
