17
charge=0, multiplicity=1, basis=def2-QZVPP
C -3.004588 -0.307270 0.000004
H -3.572480 0.018257 -0.876990
H -2.977106 -1.398013 -0.000220
H -3.572186 0.017881 0.877330
C -1.625622 0.274321 -0.000107
H -1.566543 1.358302 -0.000403
C -0.502774 -0.442029 0.000098
H -0.577788 -1.527491 0.000349
C 0.887116 0.080510 0.000029
C 1.958968 -0.776964 0.643063
H 2.370397 -1.121699 1.575879
C 1.958860 -0.776977 -0.643198
H 2.370497 -1.121308 -1.576066
C 1.041674 1.588888 0.000084
H 2.096372 1.862013 0.000836
H 0.574169 2.034582 -0.882146
H 0.572861 2.034609 0.881593
