17
charge=0, multiplicity=1, basis=def2-QZVPP
C -3.287279 0.485927 -0.066127
H -3.219434 1.083338 0.844053
H -4.132221 -0.200912 0.038750
H -3.528660 1.155507 -0.896796
C -2.016424 -0.258188 -0.327304
H -1.997470 -0.878882 -1.220803
C -0.933372 -0.214133 0.438440
H -0.933922 0.409525 1.328970
C 0.338495 -0.960969 0.164265
H 0.548858 -1.670140 0.975504
H 0.237794 -1.570322 -0.740070
C 1.514497 -0.076654 0.020923
C 3.003655 -0.053482 -0.188817
H 3.411191 -0.271928 -1.176192
H 3.669923 -0.334802 0.627394
C 2.046148 1.096382 -0.012157
H 1.949625 2.165310 0.043849
