19
charge=0, multiplicity=1, basis=def2-QZVPP
C -2.529638 -0.261711 0.276760
H -2.372179 -1.262309 0.685459
H -3.508573 -0.249093 -0.205959
H -2.555051 0.437870 1.114743
C -1.417482 0.108494 -0.705638
H -1.433874 -0.582695 -1.555286
H -1.602540 1.106139 -1.115339
C -0.060381 0.080669 -0.069649
C 0.505701 1.238864 0.696563
H 0.912354 1.101847 1.694305
H -0.008795 2.180754 0.550739
C 1.257081 0.724734 -0.498533
H 1.455281 1.354731 -1.355593
C 2.027890 -0.538975 -0.120754
H 2.796062 -0.416063 0.646226
H 2.468405 -1.046983 -0.977484
C 0.687219 -1.198468 0.328067
H 0.606559 -1.495999 1.375791
H 0.420004 -2.049838 -0.298500
