17
charge=0, multiplicity=1, basis=def2-QZVPP
C -2.570131 0.821122 -0.000257
H -2.418420 1.893636 -0.000384
H -3.591596 0.462416 -0.000519
C -1.546998 -0.018323 0.000327
C -0.169895 -0.297130 0.000274
C 1.094778 0.108180 0.000045
C 2.234658 -0.863926 -0.000218
H 2.871498 -0.715906 0.878038
H 2.873558 -0.713286 -0.876504
H 1.881758 -1.894111 -0.002079
C 1.442684 1.567121 0.000099
H 2.043494 1.822465 -0.878794
H 2.047357 1.821794 0.876514
H 0.550905 2.191421 0.002209
C -1.114798 -1.451658 0.000014
H -1.239935 -2.030250 -0.912299
H -1.240406 -2.030494 0.912114
