17
charge=0, multiplicity=1, basis=def2-QZVPP
C -3.282751 0.028675 0.649816
H -4.359656 0.018724 0.550787
H -2.871208 0.083571 1.649052
C -2.495683 -0.025142 -0.427109
H -2.949463 -0.079501 -1.412710
C -1.077098 -0.017270 -0.395234
C 0.128688 -0.012579 -0.410174
C 1.588743 -0.005727 -0.382027
H 1.940829 -0.024110 -1.419585
C 2.130741 -1.258955 0.323343
H 3.222122 -1.260526 0.300413
H 1.807782 -1.278408 1.365498
H 1.771954 -2.167361 -0.160298
C 2.120016 1.277886 0.275034
H 1.796909 1.334127 1.315814
H 3.211343 1.287984 0.251749
H 1.753448 2.164179 -0.242611
