21
charge=0, multiplicity=1, basis=def2-QZVPP
C -1.566166 -1.010050 -1.056658
H -2.408672 -1.650824 -0.825801
H -1.253014 -0.967529 -2.092821
C -0.943989 -0.306337 -0.114564
C 0.225124 0.594620 -0.456551
H 0.409947 0.479603 -1.529467
C 1.516509 0.191901 0.275866
H 2.304958 0.887898 -0.025268
H 1.383711 0.337667 1.352154
C 1.964384 -1.238623 -0.003377
H 1.217190 -1.962516 0.325777
H 2.119367 -1.397072 -1.073313
H 2.901941 -1.464588 0.507663
C -0.102576 2.070546 -0.196182
H -0.238756 2.267685 0.869004
H -1.015408 2.367820 -0.714611
H 0.711649 2.708208 -0.546257
C -1.374154 -0.374710 1.324397
H -1.644457 0.611918 1.708397
H -2.234161 -1.032400 1.445234
H -0.569094 -0.749947 1.961718
