17
charge=0, multiplicity=1, basis=def2-QZVPP
C -3.184679 0.595139 -0.018260
H -2.803349 1.537379 -0.416017
H -4.145844 0.387497 -0.492663
H -3.362151 0.733960 1.050667
C -2.187925 -0.542344 -0.266197
H -2.030410 -0.669965 -1.340420
H -2.626261 -1.478573 0.098417
C -0.870932 -0.313472 0.408369
H -0.899645 -0.220887 1.493058
C 0.301463 -0.197414 -0.210399
H 0.343982 -0.283384 -1.294777
C 1.593301 0.043646 0.466324
H 1.513828 0.123528 1.550866
C 2.707886 0.796593 -0.223936
H 3.038350 1.759479 -0.571611
C 2.889085 -0.472209 -0.117177
H 3.482313 -1.348670 -0.309862
