17
charge=0, multiplicity=1, basis=def2-QZVPP
C 1.682870 -1.042526 -0.452734
H 2.708168 -0.895465 -0.101736
H 1.696901 -1.004261 -1.544804
H 1.375413 -2.046550 -0.153968
C 0.761479 -0.005017 0.107119
C 0.000004 -0.156565 1.414025
H 0.000034 -1.152402 1.848157
H -0.000048 0.652183 2.135339
C -0.761467 -0.005063 0.107102
C -1.682805 -1.042617 -0.452747
H -2.708064 -0.895732 -0.101563
H -1.375175 -2.046644 -0.154168
H -1.697006 -1.004196 -1.544808
C -0.668756 1.453673 -0.323705
H -1.417995 2.229721 -0.417165
C 0.668662 1.453706 -0.323741
H 1.417849 2.229802 -0.417207
