19
charge=0, multiplicity=1, basis=def2-QZVPP
C 2.002370 -1.418042 0.160606
H 1.424188 -2.025007 -0.526823
H 2.654349 -1.941404 0.848422
C 1.913359 -0.094330 0.154038
H 2.503862 0.476148 0.868324
C 1.038759 0.710442 -0.757212
H 0.533248 0.045844 -1.461374
H 1.664893 1.387135 -1.348527
C 0.000532 1.551493 0.000345
H -0.512453 2.206854 -0.709700
H 0.513916 2.206033 0.710844
C -1.038173 0.710519 0.757262
H -0.533032 0.045347 1.461137
H -1.664081 1.387219 1.348812
C -1.912983 -0.093381 -0.154522
H -2.502235 0.477625 -0.869417
C -2.003805 -1.416972 -0.160612
H -2.656003 -1.939738 -0.848668
H -1.427004 -2.024427 0.527541
