17
charge=0, multiplicity=1, basis=def2-QZVPP
C -2.346119 -0.132728 -0.217616
H -3.380658 -0.199893 -0.528990
C -1.442686 1.053446 0.050251
H -1.192731 1.665953 -0.818645
H -1.739033 1.711175 0.870674
C -0.345665 -0.017534 0.410225
H -0.075755 0.004416 1.471287
C 0.901891 -0.017638 -0.425404
H 0.719096 -0.032028 -1.494822
C 2.112784 0.747806 0.030741
H 2.711768 1.256849 -0.712060
H 2.051123 1.261061 0.981849
C 2.123017 -0.758194 0.044821
H 2.728906 -1.272993 -0.688406
H 2.069471 -1.253855 1.005751
C -1.417476 -1.044139 0.078425
H -1.406659 -2.126797 0.084706
