19
charge=0, multiplicity=1, basis=def2-QZVPP
C -2.934235 -0.119220 0.614614
H -2.482589 -0.438906 1.555619
H -3.800517 -0.754244 0.418565
H -3.292591 0.903751 0.750391
C -1.918509 -0.196845 -0.529970
H -2.418020 0.080562 -1.465251
H -1.580735 -1.228304 -0.655931
C -0.735266 0.697753 -0.313550
H -0.943448 1.761058 -0.210704
C 0.519986 0.288137 -0.215967
C 1.833134 0.989243 0.082512
H 1.827406 1.725054 0.887719
H 2.276602 1.451861 -0.802922
C 2.450558 -0.404773 0.398172
H 2.541198 -0.585022 1.468588
H 3.401167 -0.635612 -0.079774
C 1.185283 -1.078961 -0.208870
H 1.358714 -1.473447 -1.213426
H 0.707105 -1.858748 0.385482
