19
charge=0, multiplicity=1, basis=def2-QZVPP
C -0.472037 1.564701 -0.124289
H 0.343762 2.274562 -0.109529
H -1.446372 1.953787 -0.384691
C -0.279985 0.281075 0.168700
C 1.059683 -0.281582 0.498140
H 1.074981 -0.853104 1.421197
C 2.347774 0.390844 0.132011
H 2.302649 1.326519 -0.406822
H 3.170207 0.319911 0.830710
C 1.926881 -0.852633 -0.601914
H 1.571164 -0.732270 -1.616673
H 2.459456 -1.775200 -0.413947
C -1.385686 -0.745927 0.190519
H -1.392794 -1.209312 1.184527
H -1.104392 -1.554435 -0.493889
C -2.785575 -0.250947 -0.147707
H -2.828027 0.166530 -1.155322
H -3.502067 -1.072208 -0.097298
H -3.114901 0.522030 0.548979
