17
charge=0, multiplicity=1, basis=def2-QZVPP
C 1.322232 -1.596548 0.101353
H 0.743748 -2.442751 -0.277744
H 1.229363 -1.591143 1.190525
H 2.371815 -1.773631 -0.145203
C 0.828208 -0.289807 -0.484484
H 0.940172 -0.301510 -1.573554
C -0.587171 0.189586 -0.096653
C -1.921152 -0.287223 -0.550625
H -2.634522 -0.336826 -1.355282
C -1.614053 -0.568590 0.674343
H -1.887543 -1.016514 1.614035
C -0.068146 1.612152 0.167944
H -0.288173 2.301303 -0.650569
H -0.373391 2.078055 1.106057
C 1.374260 1.040768 0.104745
H 2.091771 1.587242 -0.506000
H 1.801692 0.893753 1.097993
