19
charge=0, multiplicity=1, basis=def2-QZVPP
C -2.250072 -0.241844 -0.146076
H -2.726675 -1.024294 0.448179
H -2.945365 0.598367 -0.210987
H -2.100871 -0.633413 -1.155119
C -0.921528 0.186332 0.465670
H -1.106595 0.543067 1.485514
C 0.121388 -0.917568 0.562104
H -0.009101 -1.679524 1.319982
C 1.477431 -0.321452 0.284742
H 2.350599 -0.639171 0.839294
C 1.288344 1.160531 0.010983
H 1.535629 1.724012 0.915008
H 1.928991 1.536428 -0.790312
C 0.866412 -1.288865 -0.693020
H 1.292408 -2.282006 -0.736566
H 0.514293 -0.920922 -1.648549
C -0.208514 1.308446 -0.319090
H -0.376085 1.168271 -1.389425
H -0.597999 2.295706 -0.068898
