17
charge=0, multiplicity=1, basis=def2-QZVPP
C -2.641001 -0.879049 -0.231915
H -3.637724 -1.039221 -0.560610
C -1.512020 -0.704333 0.141517
C -0.168719 -0.489479 0.584917
H 0.100332 -1.035817 1.481819
C 0.956438 -0.286467 -0.417626
H 0.625317 -0.263877 -1.449945
C 2.289385 -0.948054 -0.187225
H 2.544983 -0.952941 0.874513
H 3.085074 -0.419406 -0.717581
H 2.283843 -1.983576 -0.534288
C 0.504370 0.869739 0.414056
H 1.162171 1.129254 1.236983
C -0.239650 2.031691 -0.187513
H -0.850896 2.538438 0.562189
H -0.904457 1.701917 -0.985948
H 0.458543 2.760946 -0.604393
