17
charge=0, multiplicity=1, basis=def2-QZVPP
C -2.474989 -0.056679 0.225633
H -3.011019 0.534468 -0.523828
H -2.685059 0.404860 1.195586
H -2.894949 -1.062836 0.232170
C -1.010788 -0.076121 -0.056236
C -0.209935 1.207052 -0.169924
H -0.537043 1.790370 -1.038091
H -0.351238 1.850053 0.705525
C 1.230278 0.738415 -0.323734
H 1.899963 1.306520 -0.953946
C 1.202969 -0.777454 -0.396030
H 1.835086 -1.335340 -1.074272
C 1.836724 -0.074683 0.784023
H 1.319751 -0.131446 1.734154
H 2.917058 -0.079790 0.851932
C -0.227629 -1.144869 -0.220570
H -0.572336 -2.170821 -0.188199
