17
charge=0, multiplicity=1, basis=def2-QZVPP
C 2.922085 -0.719568 -0.000044
H 3.356677 -1.083549 -0.925348
H 3.356729 -1.084221 0.924970
C 1.927301 0.116200 0.000301
C 0.930287 0.964050 0.000289
H 1.163558 2.025680 0.000248
C -0.493524 0.605633 -0.000127
C -0.825128 -0.864687 -0.000585
H -0.335961 -1.320906 0.866239
H -0.337389 -1.319950 -0.868741
C -2.306003 -1.219131 0.000442
H -2.812204 -0.824747 0.883377
H -2.434094 -2.302429 0.000566
H -2.813518 -0.824881 -0.881800
C -1.413153 1.575911 -0.000153
H -2.472559 1.365786 -0.000336
H -1.122432 2.618772 0.000083
