17
charge=0, multiplicity=1, basis=def2-QZVPP
C 2.466635 -0.871309 0.000031
H 1.884627 -1.790475 0.001053
H 3.120928 -0.893852 -0.877020
H 3.122102 -0.892691 0.876227
C 1.625016 0.368325 -0.000079
H 2.191556 1.295899 -0.000113
C 0.291237 0.471063 -0.000087
C -0.620249 -0.707517 -0.000285
H -0.113764 -1.667718 -0.000920
C -1.989946 -0.652841 -0.642585
H -2.530063 -0.621774 -1.572300
C -1.989611 -0.653518 0.642741
H -2.528829 -0.622579 1.572977
C -0.366837 1.823651 0.000155
H -1.009813 1.953670 0.875458
H 0.377080 2.619062 -0.000612
H -1.011294 1.953340 -0.874087
