17
charge=0, multiplicity=1, basis=def2-QZVPP
C -3.752635 -0.440376 0.149682
H -4.160930 -0.831602 1.076090
H -4.378255 -0.515491 -0.734031
C -2.569792 0.094890 0.101150
C -1.375312 0.629837 0.050924
H -1.282002 1.699245 0.226262
C -0.150638 -0.107370 -0.224288
H -0.257227 -1.173912 -0.397996
C 1.061175 0.451035 -0.273326
H 1.151167 1.520480 -0.092293
C 2.336083 -0.283224 -0.538974
H 2.116759 -1.332610 -0.751501
H 2.808814 0.126333 -1.439193
C 3.328213 -0.182639 0.625582
H 3.567697 0.859760 0.847117
H 4.261383 -0.697907 0.390760
H 2.910023 -0.627216 1.530286
