17
charge=0, multiplicity=1, basis=def2-QZVPP
C -2.814273 0.009970 -0.196394
H -3.011569 -0.627058 -1.050933
H -3.660556 0.526744 0.236060
C -1.588442 0.146867 0.297294
H -1.432760 0.791407 1.158389
C -0.391556 -0.528587 -0.235178
H -0.588290 -1.208895 -1.065703
C 0.923538 0.213736 -0.221032
C 1.233933 1.665363 -0.091429
H 0.429400 2.200868 0.414836
H 1.373520 2.127851 -1.071651
H 2.153246 1.813304 0.480188
C 1.830640 -0.974525 -0.264966
H 1.768949 -1.684584 -1.089094
H 2.833809 -0.821941 0.120088
C 0.710855 -0.896042 0.723069
H 0.706082 -0.938384 1.799645
