17
charge=0, multiplicity=1, basis=def2-QZVPP
C 3.514967 0.156820 -0.000052
H 4.140628 -0.735681 -0.071657
H 3.761135 0.805235 -0.844585
H 3.791360 0.684939 0.916000
C 2.103965 -0.193617 -0.000045
C 0.932093 -0.477494 0.000057
C -0.435012 -0.855199 0.000128
H -0.633148 -1.923021 0.000115
C -1.477850 -0.009290 0.000066
C -2.886513 -0.520054 -0.000101
H -3.431707 -0.155814 0.876510
H -3.431304 -0.156268 -0.877155
H -2.924445 -1.609149 0.000164
C -1.317424 1.479126 0.000045
H -1.802916 1.917073 -0.877818
H -1.805000 1.917289 0.876637
H -0.269961 1.773646 0.001203
