17
charge=0, multiplicity=1, basis=def2-QZVPP
C -1.966312 -0.917674 -0.260825
H -2.014837 -1.943453 -0.577961
C -2.755980 0.264222 0.237129
H -3.117509 0.279654 1.265787
H -3.388171 0.824242 -0.452652
C -1.280075 0.148399 -0.030666
C 0.002706 0.877209 -0.004625
H -0.099255 1.789907 -0.603686
H 0.188791 1.222860 1.019309
C 1.170554 0.052621 -0.490492
H 1.077635 -0.285647 -1.515917
C 2.560491 0.365311 -0.015384
H 2.679151 1.173834 0.694698
H 3.379339 0.265107 -0.714697
C 1.864221 -0.885675 0.453766
H 2.210047 -1.837719 0.075148
H 1.511174 -0.915269 1.476552
