19
charge=0, multiplicity=1, basis=def2-QZVPP
C 3.519430 -0.000170 -0.211324
H 4.447485 -0.000088 0.343963
H 3.593716 -0.000465 -1.292705
C 2.334884 0.000160 0.403478
H 2.301106 0.000528 1.489730
C 1.054282 0.000108 -0.276972
H 1.080936 0.000075 -1.364331
C -0.128066 0.000034 0.344032
H -0.146998 0.000019 1.433184
C -1.465911 -0.000038 -0.329730
H -1.300634 -0.000093 -1.411897
C -2.258164 -1.262300 0.036013
H -2.432776 -1.309619 1.114078
H -1.718812 -2.164106 -0.256558
H -3.230972 -1.266583 -0.460270
C -2.258193 1.262241 0.035857
H -1.719027 2.163999 -0.257199
H -3.231170 1.266211 -0.460091
H -2.432429 1.309908 1.113966
