17
charge=0, multiplicity=1, basis=def2-QZVPP
C 2.727101 -0.490104 -0.072001
H 3.639768 -0.506451 0.509716
H 2.758353 -0.964937 -1.046344
C 1.619280 0.084246 0.382100
H 1.625929 0.556385 1.362041
C 0.324675 0.145418 -0.350712
H 0.414253 -0.351324 -1.320812
C -0.961943 -0.333899 0.442426
H -0.724439 -0.570694 1.483777
C -1.756712 -1.467318 -0.182641
H -1.199727 -2.405786 -0.136715
H -1.980995 -1.252975 -1.229956
H -2.704865 -1.614936 0.339774
C -1.465335 1.083889 0.247537
H -2.387398 1.569859 0.541476
C -0.381445 1.494339 -0.411147
H -0.074602 2.441439 -0.836327
