17
charge=0, multiplicity=1, basis=def2-QZVPP
C -2.006847 -0.193560 -1.010348
C -0.496163 -0.254234 -0.926155
C 0.132378 -1.355086 -0.050167
C 0.877281 -0.310637 0.821387
C -0.074469 0.694559 1.397836
C 0.180137 0.867359 -0.076901
C 1.667417 0.656923 -0.014332
H -2.397720 -1.052088 -1.561647
H -2.330284 0.717544 -1.519093
H -2.465807 -0.202498 -0.019744
H -0.078757 -0.236167 -1.933584
H 0.803173 -2.044968 -0.559113
H -0.582795 -1.936742 0.530888
H 0.361258 1.453070 2.038491
H -1.048893 0.352286 1.723455
H 2.234889 1.402702 0.531359
H 2.167032 0.280417 -0.899602
