21
charge=0, multiplicity=1, basis=def2-QZVPP
C 2.927203 -0.140814 0.380467
H 3.683088 -0.924607 0.299758
H 2.661668 -0.028866 1.433373
H 3.380298 0.797500 0.052692
C 1.688653 -0.474399 -0.458954
H 2.000169 -0.634663 -1.497281
H 1.262188 -1.420290 -0.122447
C 0.664545 0.619532 -0.424321
H 0.997003 1.565500 -0.847215
C -0.573193 0.566413 0.071050
C -1.180610 -0.673721 0.680784
H -1.811506 -0.378369 1.524907
H -0.404549 -1.321067 1.090581
C -2.026017 -1.472400 -0.319360
H -1.407652 -1.831339 -1.143763
H -2.822675 -0.859786 -0.745199
H -2.490199 -2.336190 0.160728
C -1.479088 1.765901 0.025795
H -1.006737 2.609475 -0.477468
H -1.757473 2.080888 1.036502
H -2.412579 1.538749 -0.497930
