19
charge=0, multiplicity=1, basis=def2-QZVPP
C 3.453735 0.557696 -0.324543
H 4.027751 1.474468 -0.366888
H 3.888701 -0.314875 -0.799506
C 2.275374 0.500288 0.281926
H 1.866014 1.396526 0.740547
C 1.409174 -0.724972 0.373018
H 1.225528 -0.967898 1.424523
H 1.944417 -1.572819 -0.066433
C 0.090060 -0.532611 -0.322410
H 0.144304 -0.345504 -1.392535
C -1.097260 -0.552107 0.272333
H -1.141142 -0.727531 1.346332
C -2.411985 -0.329506 -0.409330
H -3.043491 -1.215160 -0.276398
H -2.251616 -0.218344 -1.484721
C -3.156689 0.893613 0.136178
H -2.576110 1.803738 -0.024877
H -3.333838 0.797991 1.209851
H -4.124963 1.014997 -0.352927
