17
charge=0, multiplicity=1, basis=def2-QZVPP
C -2.202014 -0.903567 -0.587537
H -3.115506 -0.503864 -1.010213
H -2.013060 -1.959321 -0.738310
C -1.351795 -0.133162 0.083246
C -0.080210 -0.696028 0.670202
H -0.063135 -1.785216 0.568795
H -0.044672 -0.495657 1.749022
C 1.152405 -0.148567 0.064282
C 2.654449 -0.196907 0.126382
H 3.178610 0.308045 0.938314
H 3.179601 -1.075203 -0.249731
C 1.762484 0.592898 -0.794636
H 1.732218 1.294126 -1.608653
C -1.589787 1.331300 0.308494
H -2.524723 1.658306 -0.145097
H -1.628649 1.555340 1.379092
H -0.773881 1.927644 -0.105819
