19
charge=0, multiplicity=1, basis=def2-QZVPP
C -3.029935 0.079842 -0.312651
H -3.737558 0.065992 -1.131798
H -3.320681 0.628214 0.576669
C -1.863528 -0.547296 -0.387804
H -1.602219 -1.080644 -1.298289
C -0.820884 -0.574904 0.694262
H -0.621915 -1.612921 0.975041
H -1.214007 -0.066970 1.581355
C 0.478692 0.075780 0.265293
C 1.571244 -0.665941 0.075271
H 1.480615 -1.734604 0.255012
C 2.932562 -0.217956 -0.356301
H 3.233135 -0.726556 -1.277294
H 3.681951 -0.473836 0.398855
H 2.992681 0.854215 -0.533970
C 0.402089 1.563457 0.078498
H -0.386861 1.820496 -0.632628
H 0.139364 2.051002 1.022895
H 1.334052 1.997723 -0.275258
