19
charge=0, multiplicity=1, basis=def2-QZVPP
C -1.423652 1.795793 -0.059697
H -1.752589 2.791752 0.204913
H -2.145500 1.164456 -0.560887
C -0.190262 1.387303 0.220980
H 0.478814 2.080629 0.725337
C 0.411310 0.073769 -0.097471
C 1.849243 0.123360 -0.583951
H 2.135866 -0.593775 -1.341639
H 2.313740 1.094486 -0.688506
C 1.551366 -0.378150 0.793652
H 1.637499 -1.440421 0.980676
H 1.815473 0.245383 1.637249
C -0.486567 -1.008247 -0.665492
H -1.037352 -0.606497 -1.521079
H 0.144784 -1.806889 -1.063431
C -1.457999 -1.602695 0.354277
H -0.914454 -2.060073 1.183407
H -2.080646 -2.373476 -0.103778
H -2.116272 -0.842371 0.773955
