17
charge=0, multiplicity=1, basis=def2-QZVPP
C -2.134378 -1.356787 0.001098
H -2.816271 -2.170955 0.001747
C -1.377657 -0.421830 0.000490
C -0.437065 0.651565 -0.000360
C 1.033902 0.273313 -0.000650
H 1.593524 1.212588 -0.002101
C 1.405123 -0.507573 1.263900
H 1.172483 0.065076 2.162868
H 2.472439 -0.736527 1.268926
H 0.856321 -1.449778 1.311423
C 1.404171 -0.510971 -1.263281
H 0.855854 -1.453616 -1.307619
H 2.471607 -0.739359 -1.268771
H 1.170340 0.058936 -2.163696
C -0.850503 1.922452 -0.001145
H -0.136449 2.735918 -0.002072
H -1.901410 2.176711 -0.001020
