19
charge=0, multiplicity=1, basis=def2-QZVPP
C 2.485608 0.848491 -0.144081
H 2.337724 1.889245 0.119585
H 3.440970 0.578404 -0.578700
C 1.545296 -0.049607 0.059317
C 0.187856 -0.352591 0.502209
H 0.021094 -0.392315 1.576859
C -1.015857 0.118611 -0.293517
H -0.735851 0.089266 -1.352371
C -1.364888 1.563659 0.063408
H -2.212242 1.920870 -0.525556
H -0.518669 2.227228 -0.120784
H -1.634834 1.646787 1.119716
C -2.206621 -0.816471 -0.082216
H -2.518622 -0.812666 0.965709
H -3.062550 -0.506450 -0.685257
H -1.954465 -1.843390 -0.352346
C 1.109707 -1.443268 -0.061744
H 0.878684 -1.828450 -1.049719
H 1.512153 -2.181468 0.622612
