21
charge=0, multiplicity=1, basis=def2-QZVPP
C -2.549854 0.150476 -0.319371
H -3.473804 0.234835 0.255699
H -2.771219 -0.419631 -1.224875
H -2.258537 1.156289 -0.629042
C -1.443735 -0.521951 0.491300
H -1.768497 -1.523851 0.791868
H -1.276389 0.031080 1.419992
C -0.138506 -0.645265 -0.272065
H -0.331321 -1.150783 -1.223466
C 0.746495 0.613813 -0.557061
H 0.652162 1.016427 -1.567263
C 0.624081 1.747074 0.450794
H 0.745627 1.391120 1.476238
H -0.344012 2.247568 0.386064
H 1.398512 2.496192 0.270978
C 1.992213 -0.281584 -0.315198
H 2.808525 0.161173 0.257193
H 2.396551 -0.683325 -1.244795
C 1.084461 -1.303782 0.409078
H 1.074521 -1.146946 1.489263
H 1.256955 -2.362832 0.217283
