19
charge=0, multiplicity=1, basis=def2-QZVPP
C 2.141410 0.954876 0.758907
H 1.298663 1.632552 0.612318
H 1.957127 0.398716 1.679410
H 3.041304 1.555893 0.897546
C 2.298819 0.013115 -0.427329
H 3.172592 -0.631160 -0.278390
H 2.513056 0.588799 -1.334714
C 1.100971 -0.864864 -0.696711
H 1.182607 -1.539369 -1.546558
C 0.000075 -0.874489 -0.000049
C -1.100822 -0.864961 0.696589
H -1.182428 -1.539504 1.546418
C -2.298813 0.012879 0.427261
H -3.172472 -0.631497 0.278132
H -2.513234 0.588336 1.334754
C -2.141561 0.955005 -0.758731
H -1.956580 0.399168 -1.679282
H -3.041782 1.555492 -0.897584
H -1.299321 1.633219 -0.611675
