17
charge=0, multiplicity=1, basis=def2-QZVPP
C 2.407021 0.000026 0.197583
H 3.286536 0.000051 -0.444035
H 2.730756 0.000032 1.237542
C 1.338670 1.095525 -0.094381
H 1.470617 1.569607 -1.070141
H 1.216537 1.879980 0.653488
C 0.286127 -0.000025 -0.105591
C -1.022943 -0.000034 -0.032277
C -2.265797 -0.767874 0.045927
H -2.629161 -1.271635 -0.843170
H -2.515012 -1.270088 0.974445
C -2.265747 0.767892 0.045948
H -2.514910 1.270084 0.974491
H -2.629074 1.271712 -0.843133
C 1.338728 -1.095528 -0.094362
H 1.470683 -1.569662 -1.070099
H 1.216666 -1.879969 0.653534
