17
charge=0, multiplicity=1, basis=def2-QZVPP
C 2.299622 -0.402079 -0.117109
H 2.630468 -1.387019 -0.422387
H 3.067408 0.336768 0.075205
C 1.009473 -0.112552 0.014905
C -0.122858 -1.011679 -0.306715
H 0.057247 -1.886193 -0.916252
C -1.352532 -0.139292 -0.493842
H -2.070445 -0.367080 -1.270195
C -0.931835 1.307519 -0.291001
H -1.665050 1.888833 0.271971
H -0.813660 1.783921 -1.267044
C -1.269420 -1.053459 0.686091
H -1.881761 -1.944644 0.668485
H -1.118003 -0.637715 1.673922
C 0.434304 1.228630 0.425234
H 1.095804 2.055867 0.171160
H 0.297467 1.254736 1.509754
