19
charge=0, multiplicity=1, basis=def2-QZVPP
C -2.927633 0.000049 -0.375838
H -3.903036 -0.000071 0.091987
H -2.902770 0.000491 -1.459578
C -1.810219 -0.000318 0.345129
H -1.883562 -0.000718 1.430524
C -0.446489 -0.000153 -0.199459
H -0.386978 -0.000054 -1.283281
C 0.669689 -0.750333 0.503762
H 0.378408 -1.202987 1.445774
C 1.658399 -1.572459 -0.283964
H 1.885438 -1.121513 -1.249999
H 2.600255 -1.684773 0.259087
H 1.261657 -2.572046 -0.474341
C 0.669473 0.750286 0.503866
H 0.378022 1.202721 1.445935
C 1.657919 1.572810 -0.283757
H 2.599473 1.685951 0.259643
H 1.260593 2.572066 -0.474665
H 1.885672 1.121640 -1.249522
