17
charge=0, multiplicity=1, basis=def2-QZVPP
C 2.491553 1.143010 0.393893
H 3.091390 1.863191 0.893138
C 1.819997 0.331010 -0.180982
C 0.989638 -0.662393 -0.849379
H 1.633513 -1.359364 -1.392576
H 0.368990 -0.159286 -1.596030
C 0.089337 -1.446791 0.120000
H 0.715574 -1.966039 0.848428
H -0.441157 -2.213475 -0.451706
C -0.922070 -0.562114 0.861967
H -0.386577 0.208715 1.420428
H -1.448427 -1.182972 1.593943
C -1.918786 0.075765 -0.056240
H -2.586370 -0.605229 -0.580343
C -2.020270 1.378804 -0.284941
H -2.755981 1.780953 -0.969799
H -1.367349 2.089754 0.208614
