17
charge=0, multiplicity=1, basis=def2-QZVPP
C 0.738032 1.486231 -0.070848
H 1.181081 2.471671 -0.173778
C -0.720936 1.494390 -0.069658
H -1.153001 2.484916 -0.170488
C -1.589032 0.484927 0.069696
H -2.642411 0.747070 0.078031
C -1.298646 -0.978045 0.214116
H -1.298506 -1.241855 1.279440
H -2.138640 -1.532134 -0.215906
C -0.008017 -1.476060 -0.435809
H -0.005536 -1.187128 -1.490106
H -0.014033 -2.568720 -0.410567
C 1.286904 -0.991983 0.216316
H 2.121340 -1.557067 -0.210116
H 1.280711 -1.253019 1.282308
C 1.594684 0.467099 0.068878
H 2.651057 0.716917 0.075045
