17
charge=0, multiplicity=1, basis=def2-QZVPP
C -2.805209 -0.124193 0.020592
H -3.097089 0.168239 1.032023
H -3.543415 -0.840579 -0.345532
H -2.858114 0.766908 -0.608610
C -1.396429 -0.714334 0.007526
H -1.137867 -1.032057 -1.007601
H -1.370457 -1.618737 0.624838
C -0.345785 0.253646 0.495994
H -0.496884 0.609006 1.512551
C 1.046815 0.179301 0.013817
C 2.006262 -0.825461 -0.494718
H 2.209405 -1.602495 -1.210554
C 2.411863 -0.103974 0.504114
H 3.189943 0.142111 1.205402
C 0.223812 1.306061 -0.480920
H -0.147977 1.276311 -1.499839
H 0.404485 2.305021 -0.101108
