17
charge=0, multiplicity=1, basis=def2-QZVPP
C 3.892537 0.373931 0.032566
H 4.507660 -0.294543 -0.573854
H 4.250567 0.314801 1.063331
H 4.060796 1.394654 -0.319559
C 2.486862 0.014450 -0.055266
C 1.318804 -0.275276 -0.121316
C -0.046090 -0.648089 -0.225761
H -0.264743 -1.499359 -0.866141
C -1.055394 -0.034202 0.400655
H -0.832862 0.818788 1.035890
C -2.492995 -0.421894 0.277144
H -2.580388 -1.314569 -0.347390
H -2.878839 -0.691731 1.266987
C -3.358672 0.705992 -0.296830
H -3.033326 0.969803 -1.304495
H -3.291415 1.604267 0.320680
H -4.407762 0.408414 -0.342604
