17
charge=0, multiplicity=1, basis=def2-QZVPP
C 3.203254 -0.010129 -0.303278
H 3.794308 0.873120 -0.043279
H 3.079046 -0.028799 -1.386964
H 3.798638 -0.881173 -0.013671
C 1.881939 -0.001425 0.397636
H 1.913377 0.016892 1.485024
C 0.695733 -0.013788 -0.202000
H 0.650616 -0.036971 -1.289729
C -0.618936 -0.006976 0.498170
H -0.470228 0.031756 1.580668
C -1.679146 1.050981 -0.006408
H -2.066356 1.711943 0.772418
H -1.334514 1.659522 -0.844957
C -2.537829 -0.142595 -0.363156
H -3.526313 -0.221257 -0.796975
C -1.646968 -1.042750 0.055444
H -1.626863 -2.124943 0.079021
