19
charge=0, multiplicity=1, basis=def2-QZVPP
C 2.745452 -1.005396 -0.160216
H 3.616197 -1.309591 0.404964
H 2.633433 -1.425011 -1.153429
C 1.853729 -0.155656 0.339893
H 2.006967 0.242447 1.340601
C 0.642225 0.307616 -0.350053
H 0.503526 -0.091531 -1.348947
C -0.630922 0.565344 0.428405
H -0.546886 0.415042 1.500203
C -1.958673 0.152660 -0.157585
H -1.956224 0.368666 -1.230578
H -2.752822 0.769539 0.275601
C -2.268626 -1.325343 0.070458
H -1.499301 -1.957627 -0.377221
H -3.230675 -1.602219 -0.364449
H -2.305586 -1.556987 1.137374
C 0.135457 1.720449 -0.128977
H 0.695495 2.350148 0.549665
H -0.275975 2.239089 -0.985345
