17
charge=0, multiplicity=1, basis=def2-QZVPP
C 2.516806 -0.017556 -0.208359
H 2.962507 -0.901542 -0.671535
H 3.004993 0.864583 -0.629264
H 2.750815 -0.049626 0.858078
C 1.027461 0.021030 -0.433156
H 0.718154 0.071230 -1.472531
C 0.128734 -0.744459 0.492272
H 0.600491 -1.316760 1.279919
C -1.246259 -1.172476 -0.008415
H -1.182784 -1.826057 -0.884640
H -1.795722 -1.731248 0.756605
C -1.932689 0.136819 -0.326758
H -2.909897 0.188073 -0.788228
C -1.184783 1.188498 0.005984
H -1.474658 2.223425 -0.119892
C 0.142952 0.779059 0.534095
H 0.612773 1.332428 1.337501
