21
charge=0, multiplicity=1, basis=def2-QZVPP
C -3.222161 -0.289891 -0.208831
H -3.272108 -0.002769 -1.262139
H -3.676961 0.515429 0.373278
H -3.836603 -1.182573 -0.078212
C -1.779890 -0.533824 0.224841
H -1.759709 -0.851436 1.272399
H -1.354251 -1.360966 -0.351457
C -0.888940 0.696949 0.058695
H -0.903185 1.014739 -0.989795
H -1.309266 1.529964 0.633745
C 0.538310 0.455673 0.482130
H 0.654402 0.175492 1.525062
C 1.517330 -0.182484 -0.462145
H 1.132902 -0.375424 -1.458887
C 2.520235 -1.194607 0.029100
H 2.087218 -2.197462 0.065553
H 2.862229 -0.944717 1.036027
H 3.399584 -1.231979 -0.618839
C 1.661993 1.272310 -0.099031
H 2.484335 1.549935 0.548144
H 1.410149 2.017004 -0.843429
