17
charge=0, multiplicity=1, basis=def2-QZVPP
C 2.566770 -0.270492 -0.000179
H 3.402258 -0.957809 -0.000077
H 2.805810 0.784677 -0.000487
C 1.315733 -0.717259 0.000173
H 1.142970 -1.790829 0.000599
C 0.080122 0.107819 0.000058
C -1.069242 -0.532562 0.743488
H -1.039696 -1.373940 1.415741
C -2.232929 0.036033 -0.000124
H -2.425213 1.104515 -0.000144
H -3.135242 -0.566058 -0.000184
C -1.069122 -0.532584 -0.743514
H -1.039470 -1.373910 -1.415825
C 0.285295 1.607843 0.000109
H -0.661127 2.143575 -0.000063
H 0.845104 1.918508 -0.884333
H 0.844855 1.918479 0.884715
