17
charge=0, multiplicity=1, basis=def2-QZVPP
C -1.931997 0.131129 -0.080706
H -3.008638 0.163106 -0.188779
C -1.168977 -1.193365 0.111118
H -1.226685 -1.512095 1.159257
H -1.561189 -2.002719 -0.506665
C 0.219195 -0.684265 -0.269966
H 0.193190 -0.560716 -1.359007
C 0.246697 0.718713 0.299172
H 0.281518 0.635751 1.396839
C 1.742893 0.779931 -0.124415
H 1.881388 1.040345 -1.173954
H 2.421773 1.364714 0.494332
C 1.730213 -0.785124 0.071672
H 1.923734 -1.045875 1.112806
H 2.361154 -1.386618 -0.580908
C -1.136434 1.211032 -0.046837
H -1.475793 2.235804 -0.114143
