17
charge=0, multiplicity=1, basis=def2-QZVPP
C -2.009268 1.462895 0.005957
H -0.939906 1.632933 0.010336
H -2.654552 2.331495 0.008032
C -2.511002 0.237109 -0.001672
H -3.587663 0.095238 -0.005933
C -1.716242 -1.045448 -0.005236
H -2.012462 -1.637922 -0.879390
H -2.017513 -1.645925 0.861707
C -0.269313 -0.878471 -0.000285
C 0.922678 -0.726594 0.003808
C 2.364418 -0.506404 0.008036
H 2.808038 -1.005813 -0.858608
H 2.799687 -0.984107 0.890994
C 2.737522 0.981890 -0.008694
H 3.821861 1.103637 -0.005320
H 2.330953 1.491235 0.865579
H 2.338792 1.469372 -0.898886
