21
charge=0, multiplicity=1, basis=def2-QZVPP
C 2.125843 0.983762 -0.587463
H 1.779496 1.730778 -1.291113
H 3.122014 1.115919 -0.182886
C 1.362215 -0.048797 -0.239921
C -0.017636 -0.241560 -0.810967
H -0.206147 0.524320 -1.568733
H -0.053451 -1.209763 -1.324511
C -1.161238 -0.205041 0.220399
H -0.984066 -0.999268 0.953248
C -1.203207 1.128571 0.963778
H -1.378338 1.951611 0.265022
H -0.264144 1.331782 1.479776
H -2.007898 1.139767 1.701645
C -2.496084 -0.494741 -0.464748
H -2.721675 0.271540 -1.211626
H -2.481127 -1.461323 -0.972976
H -3.315508 -0.506110 0.256772
C 1.834191 -1.087632 0.737828
H 2.866689 -0.913140 1.038798
H 1.764358 -2.089722 0.303967
H 1.215291 -1.093760 1.639175
