19
charge=0, multiplicity=1, basis=def2-QZVPP
C -0.975270 0.093334 -0.124346
C -2.271620 0.199794 -0.183653
C 0.322753 -0.013314 -0.064872
C 1.030428 -1.345595 -0.193013
C 0.127372 -2.554293 -0.396683
C 1.223187 1.187020 0.136865
C 0.514146 2.528075 0.265928
H -2.786453 0.361673 -1.125078
H -2.889139 0.130868 0.705990
H 1.644511 -1.487666 0.703930
H 1.742163 -1.269617 -1.023359
H -0.566621 -2.672180 0.436724
H 0.720535 -3.466521 -0.477379
H -0.466771 -2.453111 -1.306017
H 1.931330 1.220184 -0.699326
H 1.834352 1.002655 1.028099
H -0.071860 2.751201 -0.626763
H 1.238010 3.332077 0.407737
H -0.169526 2.531789 1.116028
