19
charge=0, multiplicity=1, basis=def2-QZVPP
C 2.687530 0.334393 0.081210
H 3.624542 0.029640 -0.388256
H 2.841988 0.336273 1.163150
H 2.483388 1.362543 -0.224379
C 1.543012 -0.598805 -0.304739
H 1.414064 -0.594397 -1.392719
H 1.805128 -1.626247 -0.032757
C 0.213657 -0.236396 0.347741
H 0.354967 -0.231147 1.433628
C -0.934022 -1.228408 0.035743
H -1.006282 -2.023354 0.782068
H -0.777050 -1.724791 -0.930478
C -2.156183 -0.350961 -0.016329
H -3.164077 -0.744116 -0.052924
C -1.838495 0.938565 -0.062721
H -2.549462 1.750977 -0.142449
C -0.347985 1.152953 -0.049169
H -0.036487 1.941905 0.638975
H 0.004203 1.454664 -1.044276
