19
charge=0, multiplicity=1, basis=def2-QZVPP
C -2.519700 0.245607 -0.385739
H -2.720135 -0.311613 -1.303594
H -2.141522 1.228358 -0.673666
H -3.470028 0.387667 0.131977
C -1.512375 -0.496727 0.491918
H -1.937048 -1.456243 0.801777
H -1.331831 0.067290 1.411571
C -0.201050 -0.746667 -0.214526
H -0.301291 -1.342126 -1.126415
C 0.863660 0.312441 -0.194557
C 0.812545 1.756487 0.172229
H 1.726787 2.056785 0.689968
H -0.030791 1.970889 0.831059
H 0.710934 2.388771 -0.713850
C 2.040779 -0.564573 -0.477840
H 2.082192 -1.149829 -1.396571
H 3.004194 -0.193221 -0.142506
C 1.053134 -0.933269 0.583287
H 1.186579 -1.086518 1.641608
