17
charge=0, multiplicity=1, basis=def2-QZVPP
C 1.601811 0.214746 -0.000028
H 2.681180 0.311794 -0.000154
C 0.992776 -1.165611 -0.000016
H 1.336607 -1.728795 0.875375
H 1.336802 -1.728985 -0.875180
C -0.538767 -1.073377 -0.000079
H -0.998928 -2.061593 -0.000165
C -1.012147 -0.046828 1.064308
H -2.083460 -0.131717 1.248456
H -0.472667 0.003118 2.010405
C -0.691792 1.043264 0.000049
H -1.272071 1.963795 0.000087
C -1.012196 -0.046702 -1.064290
H -0.472975 0.003322 -2.010519
H -2.083572 -0.131579 -1.248172
C 0.800267 1.276659 0.000035
H 1.189375 2.287733 -0.000006
