17
charge=0, multiplicity=1, basis=def2-QZVPP
C 3.210898 -0.336842 -0.666164
H 4.047822 -0.648187 -1.240834
C 2.266309 0.019821 -0.017816
C 1.102504 0.430815 0.764027
H 0.885668 1.479363 0.556804
H 1.364445 0.378346 1.827237
C -0.099112 -0.441792 0.502575
H 0.052088 -1.490935 0.736006
C -1.283069 -0.067518 0.018827
C -1.650637 1.333755 -0.377327
H -0.835106 2.045009 -0.268879
H -2.493370 1.691428 0.222106
H -1.978937 1.356706 -1.420646
C -2.381820 -1.075331 -0.176364
H -2.690742 -1.113305 -1.225585
H -2.072501 -2.075401 0.125871
H -3.269805 -0.800466 0.401376
