19
charge=0, multiplicity=1, basis=def2-QZVPP
C -2.080882 1.223859 -0.117862
H -2.938693 1.876989 -0.023113
H -1.150335 1.680167 -0.429879
C -2.173489 -0.074310 0.141116
H -3.133465 -0.476611 0.454877
C -1.062536 -1.081206 0.047856
H -1.396981 -1.912006 -0.585935
H -0.912706 -1.526209 1.039522
C 0.251489 -0.549987 -0.462234
H 0.214817 -0.155210 -1.472320
C 1.210128 0.141678 0.464820
H 0.898292 0.169638 1.503716
C 1.987202 1.350190 0.010889
H 2.255844 1.265759 -1.044561
H 1.403938 2.266287 0.133750
H 2.912996 1.465123 0.579867
C 1.540835 -1.224495 -0.073849
H 1.486106 -2.071877 0.597720
H 2.323699 -1.296418 -0.818055
