17
charge=0, multiplicity=1, basis=def2-QZVPP
C -1.321771 1.260291 0.520441
C -2.378077 1.648055 -0.467146
C 1.207682 -0.986977 -0.094194
C 0.811908 -0.143170 1.113735
C -0.348632 0.396213 0.284226
C 0.047029 -0.447803 -0.924740
C 2.178497 -1.850837 -0.330817
H -1.369801 1.730743 1.499411
H -2.357832 2.723607 -0.666544
H -2.248880 1.126876 -1.416369
H -3.378134 1.417336 -0.088166
H 1.553629 0.601165 1.415932
H 0.524269 -0.716644 1.999122
H 0.341933 0.117911 -1.813017
H -0.686792 -1.199113 -1.229913
H 2.916373 -2.093234 0.424688
H 2.271965 -2.348162 -1.288913
