17
charge=0, multiplicity=1, basis=def2-QZVPP
C -3.312940 -0.168192 -0.000249
H -3.887156 0.144637 -0.877468
H -3.259302 -1.257881 -0.000585
H -3.887548 0.144078 0.876920
C -1.950019 0.446203 0.000175
H -1.910003 1.533058 0.000349
C -0.805776 -0.230792 0.000278
H -0.830467 -1.318955 0.000090
C 0.533660 0.387057 0.000491
H 0.532364 1.477894 0.001233
C 1.644014 -0.305677 0.741015
H 1.590588 -1.130882 1.430567
C 2.809328 0.262834 -0.000116
H 3.721352 -0.323678 -0.000738
H 2.968690 1.340271 0.000567
C 1.643657 -0.304701 -0.741402
H 1.589941 -1.128944 -1.432083
