17
charge=0, multiplicity=1, basis=def2-QZVPP
C -2.221898 -1.329215 0.136718
H -2.825648 -1.676788 -0.695309
H -2.399962 -1.796785 1.099925
C -1.328852 -0.393807 -0.012155
C -0.427149 0.539618 -0.147236
C 0.998836 0.227231 -0.458839
H 1.411339 0.838959 -1.254720
C 1.955021 -0.096036 0.668439
H 2.957672 0.307820 0.623150
H 1.534245 -0.158202 1.663133
C 1.557460 -1.154938 -0.321894
H 2.290955 -1.477435 -1.048073
H 0.882736 -1.931325 0.011698
C -0.759568 2.000348 0.031383
H -0.531322 2.557120 -0.882027
H -0.152096 2.430855 0.832193
H -1.811012 2.146576 0.271531
