19
charge=0, multiplicity=1, basis=def2-QZVPP
C 2.944936 -0.481002 -0.039990
H 2.523236 -1.486257 -0.008150
H 3.580213 -0.411962 -0.928286
H 3.602420 -0.360859 0.826304
C 1.872127 0.563559 -0.058689
H 2.198492 1.600732 -0.069631
C 0.571769 0.314190 -0.061273
C -0.663389 1.191408 -0.004869
H -0.642488 2.042814 0.676881
H -0.973041 1.546396 -0.992731
C -1.477662 -0.062828 0.436500
H -1.602354 -0.063852 1.521178
C -2.804356 -0.328164 -0.244290
H -3.213891 -1.298130 0.048485
H -2.688162 -0.329155 -1.331364
H -3.541650 0.436744 0.011710
C -0.259376 -0.951982 0.041289
H -0.408695 -1.440421 -0.926791
H 0.061628 -1.707135 0.760330
