17
charge=0, multiplicity=1, basis=def2-QZVPP
C 2.378106 -0.826127 -0.278299
H 3.312489 -0.378910 -0.595380
H 2.326133 -1.908086 -0.283074
C 1.342028 -0.083264 0.102523
C 0.037378 -0.703219 0.533387
H -0.226794 -0.345111 1.534739
H 0.159355 -1.787941 0.599849
C -1.118130 -0.384924 -0.408390
H -0.913106 -0.684796 -1.437676
C -2.545438 -0.390413 0.061478
H -3.374060 -0.995449 0.384353
C -2.048834 0.773794 -0.180889
H -2.166675 1.842669 -0.205966
C 1.400053 1.418205 0.111708
H 2.387651 1.782949 -0.169193
H 0.668336 1.841166 -0.580882
H 1.155695 1.809194 1.104130
