19
charge=0, multiplicity=1, basis=def2-QZVPP
C 2.594107 -1.045520 -0.083522
H 2.357982 -1.598223 0.819025
H 3.282253 -1.511827 -0.777055
C 2.064519 0.147449 -0.321155
H 2.323629 0.663889 -1.243278
C 1.101755 0.863218 0.574662
H 0.956569 0.288948 1.493464
H 1.532104 1.828463 0.863090
C -0.261089 1.116602 -0.090556
H -0.113431 1.686549 -1.014317
H -0.865041 1.747925 0.568140
C -1.018891 -0.152577 -0.390278
H -0.511868 -0.828841 -1.068243
C -2.517724 -0.139880 -0.472019
H -3.001253 -0.766881 -1.208934
H -3.023580 0.799239 -0.286848
C -1.831304 -0.807556 0.691916
H -1.848404 -1.887534 0.746939
H -1.877197 -0.312116 1.653730
