17
charge=0, multiplicity=1, basis=def2-QZVPP
C -3.245026 -0.074660 -0.000016
H -3.615852 -0.597030 0.885023
H -3.685835 0.924865 -0.004477
H -3.615306 -0.604666 -0.880731
C -1.791485 -0.001699 0.000071
C -0.589921 0.055712 0.000017
C 0.847554 0.148573 -0.000007
C 1.618776 -0.919845 0.749844
H 1.047135 -1.682238 1.259221
H 2.517454 -0.604308 1.263397
C 1.618719 -0.919888 -0.749841
H 2.517376 -0.604465 -1.263489
H 1.047029 -1.682304 -1.259129
C 1.401547 1.560601 -0.000026
H 1.067056 2.106896 -0.883686
H 1.067250 2.106797 0.883771
H 2.492709 1.543689 -0.000150
