17
charge=0, multiplicity=1, basis=def2-QZVPP
C 1.856186 1.876031 0.112889
H 2.261858 2.830629 0.340911
C 1.399771 0.798154 -0.151182
C 0.863093 -0.525760 -0.451374
H 1.123743 -0.752380 -1.493522
C -0.642040 -0.607860 -0.336582
H -1.050314 -1.581717 -0.596136
C -1.461043 0.360384 0.051098
H -1.038471 1.327499 0.306836
C -2.946216 0.226130 0.164121
H -3.282897 -0.774041 -0.112519
H -3.455154 0.948455 -0.480727
H -3.281164 0.428785 1.185561
C 1.535429 -1.599411 0.429478
H 2.616050 -1.593960 0.287604
H 1.154385 -2.588403 0.169905
H 1.320879 -1.410876 1.481396
