19
charge=0, multiplicity=1, basis=def2-QZVPP
C -1.737796 -1.308929 0.107386
H -2.827783 -1.384422 0.098716
H -1.356896 -2.049380 0.814444
H -1.374261 -1.581693 -0.885068
C -1.292591 0.084692 0.475654
H -1.615401 0.420372 1.456404
C 0.000087 0.624619 -0.000146
C 1.292835 0.084643 -0.475745
H 1.615965 0.420430 -1.456349
C 1.737518 -1.309101 -0.107398
H 2.827481 -1.384753 -0.097678
H 1.372893 -1.581870 0.884641
H 1.357092 -2.049302 -0.814962
C 1.240620 1.169608 0.594434
H 1.498109 0.876881 1.606099
H 1.549032 2.171876 0.322884
C -1.240523 1.169862 -0.594314
H -1.548722 2.172097 -0.322409
H -1.498406 0.877397 -1.605946
