17
charge=0, multiplicity=1, basis=def2-QZVPP
C -2.487188 -0.718597 -0.019624
H -3.147394 -1.543702 0.210333
H -2.948255 0.221623 -0.295406
C -1.162645 -0.858262 0.031413
H -0.743496 -1.828235 0.282331
C -0.202343 0.193534 -0.239904
C 1.296667 0.124721 -0.381136
H 1.721575 0.633234 -1.249070
C 2.027789 -1.133710 0.013213
H 1.987226 -1.878501 -0.784119
H 3.079042 -0.919345 0.213810
H 1.600437 -1.578580 0.913653
C 0.694594 0.989018 0.672483
H 0.774024 0.908067 1.743960
C -0.345443 1.676969 -0.148135
H -0.032330 2.300019 -0.984928
H -1.219419 2.043389 0.379570
