19
charge=0, multiplicity=1, basis=def2-QZVPP
C -3.061139 -0.766672 -0.235521
C -1.551924 -0.887475 -0.421009
C -0.780980 0.268600 0.221424
C 0.696193 0.162530 0.046324
C 1.601523 0.757999 -0.986043
C 1.833461 1.004691 0.471946
C 1.746162 -0.412938 0.944279
H -3.589236 -1.600583 -0.701228
H -3.439676 0.156977 -0.680618
H -3.327676 -0.754452 0.824362
H -1.309414 -0.925546 -1.486988
H -1.198243 -1.830029 0.006840
H -1.014310 0.307988 1.291525
H -1.126658 1.215866 -0.207888
H 1.191465 1.580623 -1.563909
H 2.296662 0.125975 -1.538090
H 1.847139 1.925933 1.029709
H 1.456979 -0.568540 1.979146
H 2.454041 -1.147922 0.562005
