17
charge=0, multiplicity=1, basis=def2-QZVPP
C 0.000000 1.468998 0.000000
H -0.985833 1.942371 0.000000
H 0.738348 2.273320 -0.000000
C 0.223306 0.588728 -1.229490
H 0.736784 1.030265 -2.073846
C 0.566363 -0.807436 -0.756544
H 1.337116 -1.388624 -1.244018
C 0.566363 -0.807436 0.756544
H 1.337116 -1.388624 1.244018
C -0.711812 -0.554565 1.510386
H -1.658214 -0.607331 0.990439
H -0.759107 -0.909402 2.531867
C -0.711812 -0.554565 -1.510386
H -1.658214 -0.607331 -0.990439
H -0.759107 -0.909402 -2.531867
C 0.223306 0.588728 1.229490
H 0.736784 1.030265 2.073846
