21
charge=0, multiplicity=1, basis=def2-QZVPP
C -1.889194 -1.800955 -0.111343
H -2.308193 -2.604829 0.480428
H -1.886694 -1.935433 -1.187390
C -1.401367 -0.702225 0.448670
H -1.420529 -0.607659 1.533400
C -0.812533 0.467446 -0.284249
H -0.844866 0.247239 -1.357100
C 0.655729 0.694309 0.111624
H 0.708266 0.868688 1.192956
H 1.004067 1.618293 -0.361920
C 1.593264 -0.448504 -0.266239
H 1.248238 -1.372672 0.204007
H 1.531524 -0.618267 -1.346355
C 3.042462 -0.178785 0.127796
H 3.694404 -1.006949 -0.156155
H 3.135776 -0.037660 1.207466
H 3.422214 0.724730 -0.355786
C -1.643205 1.730303 -0.024401
H -1.644599 1.980699 1.039653
H -1.231605 2.583551 -0.567574
H -2.678948 1.590743 -0.336773
