19
charge=0, multiplicity=1, basis=def2-QZVPP
C 1.481208 -1.510770 0.087686
H 0.978596 -2.394215 -0.314891
H 1.388596 -1.538507 1.175583
H 2.541816 -1.593180 -0.161616
C 0.892993 -0.232738 -0.472698
H 1.008727 -0.216427 -1.560943
C -0.545280 0.165393 -0.104562
C -1.831747 -0.361424 -0.642822
H -2.624454 0.345114 -0.855465
H -1.792433 -1.206481 -1.319587
C -1.457050 -0.600551 0.801459
H -1.175725 -1.605123 1.090029
H -1.993296 -0.050180 1.564430
C -0.115909 1.617217 0.106954
H -0.330822 2.245365 -0.759897
H -0.485200 2.116516 1.003251
C 1.354956 1.123099 0.129438
H 2.083415 1.697774 -0.441554
H 1.725752 0.997988 1.147936
