19
charge=0, multiplicity=1, basis=def2-QZVPP
C 1.940135 0.959789 0.292195
H 1.776576 1.221324 1.340230
H 2.342172 1.839203 -0.215433
H 2.702087 0.178060 0.253349
C 0.639320 0.491128 -0.353964
H 0.848029 0.269661 -1.410679
C 0.026807 -0.767499 0.315903
H 0.292551 -0.716616 1.377412
C 0.531210 -2.087336 -0.248651
H 0.275357 -2.178720 -1.307373
H 0.090559 -2.938395 0.275309
H 1.616673 -2.170797 -0.158858
C -1.503803 -0.570279 0.217670
H -2.029947 -0.947992 1.097867
H -1.917682 -1.108409 -0.644761
C -1.649244 0.916433 0.028448
H -2.598751 1.431334 0.100300
C -0.491580 1.488036 -0.285235
H -0.354695 2.539717 -0.505563
