17
charge=0, multiplicity=1, basis=def2-QZVPP
C -2.242594 -0.418970 -0.000185
H -2.788574 -0.560615 -0.924978
H -2.788438 -0.561334 0.924582
C -0.966274 -0.082218 -0.000095
C 0.075640 0.311475 1.033278
H -0.185007 0.542186 2.062869
C 0.468955 1.416563 0.000607
H -0.219123 2.258906 0.000960
H 1.507386 1.753666 0.000786
C 1.174726 -0.742742 0.782289
H 2.133902 -0.437252 1.202011
H 0.912531 -1.715152 1.198024
C 1.174752 -0.742119 -0.782849
H 0.912634 -1.714194 -1.199424
H 2.133932 -0.436235 -1.202274
C 0.075723 0.312354 -1.033058
H -0.184808 0.543960 -2.062477
