19
charge=0, multiplicity=1, basis=def2-QZVPP
C 2.745741 0.366705 0.174144
H 2.749012 0.690628 1.209013
H 3.677963 0.456128 -0.368815
C 1.647613 -0.117699 -0.394913
H 1.687606 -0.432778 -1.436115
C 0.326859 -0.263050 0.266536
H 0.395875 0.042851 1.314361
C -0.914098 0.420692 -0.386708
H -0.776437 0.431648 -1.472168
C -1.317620 1.795825 0.099521
H -1.469202 1.794949 1.181959
H -2.248637 2.125865 -0.368051
H -0.546676 2.535241 -0.130615
C -1.754167 -0.816537 0.012438
H -2.495716 -1.179024 -0.699081
H -2.241183 -0.665894 0.978174
C -0.436744 -1.612244 0.156762
H -0.340895 -2.307037 0.990332
H -0.177216 -2.134731 -0.765676
