17
charge=0, multiplicity=1, basis=def2-QZVPP
C 2.357050 -0.266717 0.010473
H 2.969746 0.584989 0.306377
H 2.512603 -1.073083 0.733691
H 2.725480 -0.634116 -0.952205
C 0.913552 0.098833 -0.077168
C -0.126046 -0.904682 -0.454494
H 0.087316 -1.648516 -1.211868
C -1.450045 -0.170714 -0.376619
H -2.237853 -0.380527 -1.086385
C -1.141250 1.280519 -0.024853
H -1.424270 1.953380 -0.841500
H -1.690562 1.618111 0.860114
C -1.122867 -1.229998 0.635355
H -1.663031 -2.164785 0.558665
H -0.873165 -0.928033 1.645166
C 0.353189 1.280238 0.193202
H 0.892240 2.147704 0.552575
