17
charge=0, multiplicity=1, basis=def2-QZVPP
C 2.725842 -0.199950 0.020643
H 3.699649 -0.627283 -0.176189
H 2.690963 0.821810 0.377319
C 1.603940 -0.900650 -0.167107
H 1.660022 -1.923731 -0.527519
C 0.297264 -0.375726 0.084494
C -0.464835 0.838491 0.536587
H -0.465595 1.066830 1.606592
C -0.603804 2.069723 -0.339346
H -1.548306 2.587651 -0.150172
H -0.573487 1.796384 -1.396496
H 0.203081 2.783725 -0.154029
C -0.996076 -0.498783 0.109592
C -2.226388 -1.279492 -0.099613
H -2.787069 -1.368475 0.835677
H -2.010741 -2.281707 -0.472276
H -2.884178 -0.776874 -0.814405
