19
charge=0, multiplicity=1, basis=def2-QZVPP
C -1.859730 -1.474801 -0.000400
H -2.853057 -1.926375 -0.000735
H -1.324885 -1.832323 0.880585
H -1.324706 -1.831354 -0.881666
C -1.954322 0.049590 0.000437
H -2.524824 0.392829 0.871052
H -2.524650 0.393923 -0.869849
C -0.645725 0.732023 0.000731
C 0.000183 2.091097 -0.000351
H -0.000547 2.691379 -0.912526
H 0.000958 2.692040 0.911387
C 0.645935 0.731955 -0.000487
C 1.954407 0.049308 0.000144
H 2.524287 0.392908 0.871022
H 2.525502 0.393002 -0.869888
C 1.859380 -1.475060 0.000026
H 2.852551 -1.926969 0.000743
H 1.324934 -1.831877 -0.881489
H 1.323660 -1.831866 0.880770
