21
charge=0, multiplicity=1, basis=def2-QZVPP
C -2.398634 -0.619925 0.512554
H -2.501811 -0.335093 1.562318
H -1.851827 -1.564135 0.479900
H -3.400077 -0.795929 0.115001
C -1.665294 0.463476 -0.277064
H -2.254178 1.386482 -0.268015
H -1.592055 0.168206 -1.326136
C -0.292235 0.757705 0.277125
H -0.317276 1.129615 1.297473
C 0.931991 -0.066761 -0.045432
C 0.842261 -1.225662 -1.013004
H 0.133585 -1.039907 -1.819041
H 0.536592 -2.142346 -0.501373
H 1.817595 -1.413114 -1.470029
C 1.923550 -0.292276 1.074279
H 1.650321 -1.169937 1.666870
H 1.964938 0.565840 1.747269
H 2.930174 -0.456949 0.679451
C 0.801404 1.335101 -0.586026
H 0.588805 1.447748 -1.642390
H 1.436953 2.109570 -0.175895
