17
charge=0, multiplicity=1, basis=def2-QZVPP
C -1.271475 -2.464180 0.000000
H -1.850402 -2.746316 -0.881568
H -1.850402 -2.746316 0.881568
H -0.349179 -3.049516 0.000000
C -0.974934 -0.985297 0.000000
H -1.859558 -0.348903 0.000000
C 0.216684 -0.484278 0.758745
H 0.882963 -1.038115 1.400110
C 0.467214 0.752678 -0.000000
C 1.491570 1.810044 -0.000000
H 2.049255 1.993595 0.909709
H 2.049255 1.993595 -0.909709
C -0.000000 2.162172 -0.000000
H -0.414610 2.569455 -0.913305
H -0.414610 2.569455 0.913305
C 0.216684 -0.484278 -0.758745
H 0.882963 -1.038115 -1.400110
