19
charge=0, multiplicity=1, basis=def2-QZVPP
C -2.350721 -1.106846 -0.269522
H -3.175888 -1.614179 0.213780
H -2.221195 -1.286194 -1.331242
C -1.535521 -0.303303 0.400078
H -1.698739 -0.148354 1.464916
C -0.367084 0.434307 -0.187140
H -0.306067 0.180207 -1.251095
C 0.928526 -0.006829 0.469591
H 0.988182 0.225245 1.528313
C 1.604219 -1.270493 0.030537
H 2.084990 -1.888341 0.776661
H 1.142550 -1.825569 -0.776004
C 2.219219 0.066425 -0.295796
H 3.118469 0.360902 0.228216
H 2.172705 0.404910 -1.323236
C -0.551492 1.951426 -0.058716
H -1.454790 2.282074 -0.573164
H -0.637749 2.242017 0.991348
H 0.304658 2.479159 -0.482685
