17
charge=0, multiplicity=1, basis=def2-QZVPP
C 1.755266 -1.254836 -0.000883
H 2.834687 -1.166061 -0.000875
H 1.341427 -2.255585 -0.000975
C 0.970520 -0.185785 -0.001168
C -0.568750 0.022518 0.000073
C -1.275854 -0.460999 -1.261923
H -0.750603 -0.127765 -2.157769
H -1.327866 -1.551764 -1.282099
H -2.299019 -0.078149 -1.299934
C -1.274380 -0.464239 1.261623
H -1.327313 -1.555015 1.278407
H -2.297200 -0.080708 1.302470
H -0.747354 -0.134291 2.157615
C -0.185890 1.509684 0.001816
H -0.786089 2.409987 0.003888
C 1.137186 1.271834 0.000305
H 2.010735 1.910287 0.000205
