19
charge=0, multiplicity=1, basis=def2-QZVPP
C 2.411187 -0.779950 -0.159750
H 2.556831 -1.080435 0.871981
H 3.164163 -1.093996 -0.871337
C 1.361171 -0.059882 -0.529563
H 1.241602 0.220888 -1.573371
C 0.267458 0.428622 0.386909
H 0.522460 0.104097 1.402486
C -1.043705 -0.250539 0.021326
C -1.118997 -1.710172 0.367979
H -1.019412 -1.854416 1.448399
H -2.064005 -2.148861 0.049531
H -0.301645 -2.265169 -0.098592
C -2.051940 0.379822 -0.574877
H -2.014308 1.431135 -0.823852
H -2.962519 -0.146083 -0.833964
C 0.216178 1.958177 0.374166
H 1.163346 2.364668 0.730018
H -0.584905 2.328684 1.015343
H 0.050272 2.343027 -0.633776
