19
charge=0, multiplicity=1, basis=def2-QZVPP
C 3.340950 0.000050 -0.198244
H 3.916390 -0.876545 0.114141
H 3.284629 -0.001381 -1.287778
H 3.915654 0.877944 0.111852
C 1.978408 0.000304 0.418750
H 1.942653 0.001469 1.506249
C 0.830812 -0.000764 -0.252613
H 0.860038 -0.002029 -1.341928
C -0.524298 -0.000216 0.355178
H -0.444963 0.000107 1.445016
C -1.553387 1.077044 -0.097928
H -1.356657 1.393324 -1.124143
H -1.655969 1.964018 0.526959
C -2.662021 0.000436 -0.037106
H -3.172162 0.000910 0.927043
H -3.412486 0.000445 -0.826915
C -1.554142 -1.076976 -0.097261
H -1.357651 -1.394017 -1.123290
H -1.657405 -1.963515 0.528133
