17
charge=0, multiplicity=1, basis=def2-QZVPP
C -1.159000 1.154260 0.413392
C -1.406934 -0.316084 0.875834
C 0.862569 -1.061169 -0.320583
C 0.128167 -0.551099 0.935275
C 0.257740 -0.544047 -1.589198
C 1.105971 0.384025 -0.775862
C 0.374544 0.910420 0.474971
H -1.503375 1.895034 1.134445
H -1.555412 1.422075 -0.566256
H -1.954682 -0.951469 0.179400
H -1.888842 -0.384643 1.850712
H 1.546999 -1.898556 -0.330810
H 0.542228 -0.915477 1.872450
H -0.810162 -0.395047 -1.687850
H 0.727843 -0.908204 -2.493795
H 2.005083 0.821942 -1.187587
H 0.965344 1.591961 1.082470
