17
charge=0, multiplicity=1, basis=def2-QZVPP
C -1.957433 -1.530959 0.101855
H -2.646316 -2.338503 0.126021
C -1.175996 -0.618280 0.080500
C -0.261936 0.489875 0.035010
C 1.212872 0.197713 -0.208094
H 1.707441 0.969546 -0.787871
C 1.714095 -1.197429 -0.469443
H 1.596511 -1.467193 -1.521120
H 2.773474 -1.278220 -0.215552
H 1.165921 -1.930086 0.122813
C 0.756067 0.611837 1.157122
H 0.978458 1.611136 1.507589
H 0.732593 -0.146279 1.928148
C -0.843764 1.765575 -0.544586
H -0.093373 2.557557 -0.548950
H -1.696971 2.105544 0.044937
H -1.181165 1.606508 -1.570202
