17
charge=0, multiplicity=1, basis=def2-QZVPP
C 2.916134 0.305888 0.021589
H 3.831138 0.838600 0.101154
C 1.876470 -0.295175 -0.067713
C 0.669518 -1.028508 -0.190609
H 0.763245 -2.036476 -0.582234
C -0.547242 -0.560596 0.131577
C -0.759804 0.833141 0.652548
H 0.164407 1.203553 1.096867
H -1.514924 0.806935 1.444222
C -1.213891 1.803973 -0.446485
H -2.143765 1.475651 -0.914102
H -0.453141 1.880869 -1.224268
H -1.382029 2.800117 -0.033953
C -1.769227 -1.409187 -0.041984
H -1.532665 -2.380590 -0.475044
H -2.262931 -1.570633 0.921302
H -2.501087 -0.915240 -0.687486
