21
charge=0, multiplicity=1, basis=def2-QZVPP
C -3.052366 -0.179927 0.000022
H -3.599659 0.175226 0.878340
H -3.084807 -1.270460 -0.001835
H -3.601020 0.178349 -0.876149
C -1.643265 0.326145 -0.000100
H -1.528901 1.405695 -0.000028
C -0.563511 -0.446551 -0.000057
H -0.706557 -1.526676 -0.000151
C 0.884992 -0.018010 0.000017
C 1.562741 -0.603913 1.251976
H 1.114001 -0.199992 2.161119
H 1.460765 -1.690900 1.279912
H 2.628908 -0.365387 1.259785
C 1.562348 -0.602048 -1.253042
H 2.628473 -0.363314 -1.260920
H 1.460557 -1.689010 -1.282501
H 1.113159 -0.196910 -2.161415
C 1.051027 1.503124 0.001125
H 0.596283 1.953971 -0.882741
H 2.111126 1.763801 0.001505
H 0.595870 1.952681 0.885428
