17
charge=0, multiplicity=1, basis=def2-QZVPP
C 1.742139 -0.407309 0.752233
H 1.095054 -1.102070 1.268642
H 2.673528 -0.204422 1.264038
C 1.085557 0.717778 -0.000288
H 1.646119 1.645478 -0.000831
C -0.408421 0.970638 -0.000095
H -0.607324 2.040635 -0.000202
C -1.453292 0.203360 -0.749518
H -2.219671 0.583138 -1.404998
C -1.450033 -1.090518 0.000177
H -2.385579 -1.641382 0.000180
H -0.576725 -1.733231 0.000330
C -1.453315 0.203524 0.749519
H -2.219608 0.583557 1.404952
C 1.741787 -0.407989 -0.752038
H 2.672948 -0.205317 -1.264352
H 1.094720 -1.103291 -1.267695
