17
charge=0, multiplicity=1, basis=def2-QZVPP
C -2.967760 -0.000564 0.000052
H -3.532758 0.554795 0.740131
H -3.532755 -0.556008 -0.739963
C -1.661835 -0.000384 -0.000048
C -0.379994 -0.000261 -0.000149
C 0.887335 0.613665 -0.449307
H 1.151606 0.420723 -1.486258
C 1.306560 1.965487 0.075449
H 0.836151 2.769101 -0.494324
H 1.012523 2.081798 1.119785
H 2.389982 2.090673 0.008104
C 0.887673 -0.613312 0.449217
H 1.151615 -0.420099 1.486203
C 1.307990 -1.964867 -0.075327
H 1.014399 -2.081536 -1.119755
H 0.837948 -2.768749 0.494374
H 2.391477 -2.089279 -0.007617
