21
charge=0, multiplicity=1, basis=def2-QZVPP
C 2.418177 -0.868816 0.211881
H 3.059608 -1.070265 -0.651606
H 3.083109 -0.767495 1.074975
H 1.797056 -1.748146 0.371760
C 1.629779 0.386880 -0.000413
H 2.238102 1.275189 -0.153854
C 0.304481 0.547723 -0.033060
C -0.682730 -0.590127 0.140206
H -0.135652 -1.461543 0.501519
C -1.319812 -0.980649 -1.201416
H -0.556458 -1.255695 -1.930656
H -1.993540 -1.830830 -1.073329
H -1.903663 -0.157954 -1.619224
C -1.762430 -0.276699 1.183311
H -2.420338 0.528821 0.852017
H -2.384208 -1.156681 1.359537
H -1.318298 0.020088 2.135301
C -0.279655 1.914895 -0.275565
H -0.979728 1.910932 -1.115388
H 0.503029 2.640529 -0.494963
H -0.835875 2.273806 0.594243
