19
charge=0, multiplicity=1, basis=def2-QZVPP
C -2.721021 0.436406 0.047310
H -2.642011 1.090175 -0.823208
H -3.729731 0.021024 0.064126
H -2.597641 1.052933 0.939637
C -1.678259 -0.674588 -0.001674
H -1.816318 -1.347689 0.853449
H -1.850893 -1.303744 -0.883954
C -0.254136 -0.218965 -0.019398
C 0.875344 -1.221031 -0.114893
H 0.902822 -1.657290 -1.121075
H 0.751633 -2.057262 0.578674
C 2.135816 -0.383340 0.184065
H 3.001560 -0.694930 -0.400188
H 2.398825 -0.491253 1.237933
C 1.720403 1.080236 -0.089572
H 2.039990 1.412432 -1.084756
H 2.164019 1.778703 0.624218
C 0.217162 1.027460 -0.006177
H -0.394111 1.919838 0.017183
