19
charge=0, multiplicity=1, basis=def2-QZVPP
C 2.573551 0.193953 0.483326
H 2.278696 0.532243 1.478373
H 3.519015 0.674559 0.225777
H 2.748223 -0.882263 0.535932
C 1.487740 0.524489 -0.547977
H 1.344943 1.607275 -0.601835
H 1.833279 0.207386 -1.539137
C 0.186847 -0.132954 -0.249119
C -0.179613 -1.602045 -0.120366
H 0.292055 -2.143774 0.702899
H -0.080814 -2.197940 -1.031577
C -1.630473 -1.092810 0.178815
H -2.380813 -1.389304 -0.558868
H -2.006848 -1.336382 1.175852
C -1.055539 0.301199 0.011023
C -1.700318 1.635590 0.110365
H -2.144088 1.785744 1.099495
H -0.985533 2.441140 -0.065648
H -2.511281 1.736784 -0.617672
