19
charge=0, multiplicity=1, basis=def2-QZVPP
C 3.127922 0.612400 0.393569
H 4.203341 0.431884 0.436878
H 2.772072 0.820394 1.403111
H 2.951320 1.500096 -0.214593
C 2.402450 -0.603447 -0.197602
H 2.796235 -0.815032 -1.196508
H 2.618891 -1.489117 0.407652
C 0.957700 -0.419093 -0.279861
C -0.230128 -0.240797 -0.340820
C -1.675706 -0.022753 -0.388492
H -2.001898 -0.177808 -1.423349
C -2.417241 -1.036846 0.495157
H -2.184719 -2.059320 0.197359
H -2.127530 -0.913817 1.540229
H -3.496253 -0.889319 0.417423
C -2.028260 1.419817 0.004016
H -1.521047 2.136429 -0.642059
H -1.725777 1.618288 1.033749
H -3.105055 1.581639 -0.075697
