21
charge=0, multiplicity=1, basis=def2-QZVPP
C 1.561747 -1.361341 0.633392
H 1.912392 -0.751101 1.467344
H 2.260181 -2.192729 0.521528
H 0.596640 -1.784402 0.908026
C 1.500141 -0.560240 -0.665589
H 2.527657 -0.329296 -0.965398
H 1.099687 -1.199213 -1.459522
C 0.738785 0.755654 -0.677794
H 0.937963 1.299903 -1.595442
C -0.646095 1.027859 -0.140422
H -1.225987 1.700251 -0.765647
C -1.510653 0.017861 0.578653
H -0.936802 -0.484033 1.358188
H -2.308182 0.558499 1.098761
C -2.128498 -1.017256 -0.360006
H -2.789971 -1.699222 0.178143
H -2.715285 -0.532849 -1.144059
H -1.356216 -1.613117 -0.849934
C 0.556667 1.648739 0.521771
H 0.829008 1.249011 1.490222
H 0.736352 2.710648 0.417757
