17
charge=0, multiplicity=1, basis=def2-QZVPP
C -2.691345 0.165024 0.000041
H -3.233577 0.291788 -0.926989
H -3.233401 0.291726 0.927185
C -1.404991 -0.140538 -0.000041
C -0.266955 -0.581038 0.778649
H -0.192343 -1.435146 1.434745
C 0.846669 0.063939 -0.000006
C 2.171494 -0.671235 0.000043
H 2.028772 -1.753156 0.000435
H 2.759302 -0.403403 0.880274
H 2.759078 -0.404023 -0.880531
C 0.984128 1.574104 0.000002
H 0.006561 2.054473 -0.000218
H 1.532525 1.908688 0.884112
H 1.532878 1.908678 -0.883896
C -0.266927 -0.581007 -0.778737
H -0.192228 -1.435114 -1.434820
