17
charge=0, multiplicity=1, basis=def2-QZVPP
C 2.259570 -0.853572 -0.000677
H 3.301171 -0.559816 -0.001187
H 2.035764 -1.911976 -0.000884
C 1.277520 0.055243 0.000165
C -0.098039 -0.360610 0.000605
C -1.017757 -1.548254 0.000427
H -1.143423 -2.133436 0.912871
H -1.142614 -2.133729 -0.911953
C -1.365269 -0.085346 -0.000057
C -2.489903 0.863473 -0.000526
H -3.124285 0.707198 0.876842
H -2.144168 1.897941 -0.000203
H -3.123503 0.707400 -0.878479
C 1.531148 1.538342 0.000371
H 2.598049 1.759194 0.000865
H 1.079264 2.005790 0.878701
H 1.080126 2.005793 -0.878419
