19
charge=0, multiplicity=1, basis=def2-QZVPP
C 2.451003 0.000034 0.071147
H 2.938837 0.882623 0.491046
H 2.939555 -0.881597 0.492193
H 2.631022 -0.000560 -1.007114
C 0.957835 -0.000152 0.368087
H 0.831311 -0.000181 1.453979
C 0.203596 -1.220296 -0.203859
H 0.628366 -1.495522 -1.174894
H 0.291297 -2.093968 0.447133
C -1.225801 -0.755087 -0.401666
H -1.862789 -1.311030 -1.077004
C -1.225680 0.755246 -0.401647
H -1.862585 1.311238 -1.077022
C -1.878592 0.000117 0.725480
H -1.412470 0.000100 1.702917
H -2.959931 0.000198 0.754645
C 0.203801 1.220101 -0.203882
H 0.628625 1.495174 -1.174941
H 0.291795 2.093751 0.447102
