17
charge=0, multiplicity=1, basis=def2-QZVPP
C -1.959533 -0.000019 -0.097369
H -2.785933 0.000020 0.612799
H -2.394984 -0.000078 -1.096824
C -1.056323 1.275740 0.067894
H -1.263883 2.019321 -0.705398
H -1.222532 1.769862 1.030933
C 0.304900 0.662592 -0.016025
C 1.821588 0.791635 -0.014018
H 2.270898 1.251157 -0.896812
H 2.263359 1.239772 0.878729
C 1.821599 -0.791624 -0.014252
H 2.270731 -1.250855 -0.897292
H 2.263566 -1.240066 0.878242
C 0.304922 -0.662580 -0.015998
C -1.056301 -1.275742 0.068037
H -1.263880 -2.019416 -0.705153
H -1.222457 -1.769727 1.031158
