17
charge=0, multiplicity=1, basis=def2-QZVPP
C -1.524587 -1.542690 -0.059399
H -1.415410 -2.619577 -0.072101
H -2.531382 -1.153964 -0.143646
C -0.467161 -0.741690 0.052854
C -0.466962 0.741823 0.052940
C -1.524106 1.543085 -0.060088
H -2.530910 1.154560 -0.145193
H -1.414680 2.619947 -0.072661
C 0.971611 1.203971 0.172637
H 1.202149 1.403495 1.225049
H 1.165941 2.121727 -0.381903
C 1.791258 -0.000089 -0.314425
H 2.815091 -0.000338 0.059202
H 1.833386 0.000314 -1.406431
C 0.971350 -1.204334 0.171742
H 1.165255 -2.121601 -0.383757
H 1.202142 -1.405015 1.223879
