17
charge=0, multiplicity=1, basis=def2-QZVPP
C -2.788460 -0.521950 -0.266924
H -2.950064 -1.587529 -0.371913
H -3.654882 0.119565 -0.358594
C -1.570699 -0.021651 -0.033936
C -0.416635 -0.918515 0.083383
H -0.615190 -1.981554 -0.029758
C 0.814183 -0.531570 0.312147
C 2.036486 -0.144307 0.528954
H 2.378397 -0.062782 1.559202
C 3.033353 0.206485 -0.543074
H 3.375415 1.238450 -0.428463
H 3.915586 -0.435386 -0.475072
H 2.599734 0.093959 -1.535708
C -1.324853 1.451671 0.115177
H -0.611871 1.802896 -0.634708
H -0.887771 1.674434 1.091381
H -2.249601 2.016983 0.009274
