17
charge=0, multiplicity=1, basis=def2-QZVPP
C -1.993606 0.904831 0.273844
H -3.012033 0.544624 0.197801
H -1.855388 1.955472 0.498746
C -0.959878 0.098728 0.088761
C 0.514215 0.328466 0.036365
C 0.692555 -1.121018 -0.469729
H 1.338418 -1.472617 -1.261699
C 1.178123 1.608601 -0.365130
H 0.725679 2.016045 -1.271846
H 1.085730 2.361097 0.422742
H 2.242669 1.455652 -0.551514
C 1.208271 -0.725859 0.872576
H 0.741881 -1.112146 1.772668
H 2.280640 -0.593046 0.946055
C -0.822885 -1.347524 -0.385328
H -1.152694 -2.136037 0.295627
H -1.295670 -1.496397 -1.356738
