17
charge=0, multiplicity=1, basis=def2-QZVPP
C 2.661612 -0.669074 0.000023
H 3.630827 -1.102661 0.000092
C 1.554755 -0.195332 -0.000074
C 0.282295 0.451914 -0.000096
C -0.859460 -0.265327 -0.000057
C -2.233200 0.336987 0.000001
H -2.241395 1.422851 0.000468
H -2.793563 -0.005618 0.875598
H -2.793300 -0.004878 -0.876063
C -0.858368 -1.766010 0.000036
H 0.146524 -2.180116 -0.000677
H -1.392147 -2.146643 -0.876531
H -1.390799 -2.146520 0.877492
C 0.379170 1.959477 0.000042
H 0.931211 2.301410 0.878419
H -0.592549 2.444997 -0.001714
H 0.934361 2.301366 -0.876344
