21
charge=0, multiplicity=1, basis=def2-QZVPP
C 1.664685 1.412714 0.035378
H 0.800084 2.072133 0.050920
H 2.273678 1.632423 0.917906
H 2.274668 1.675223 -0.834671
C 1.300664 -0.044957 -0.000497
C 0.054206 -0.519696 -0.011772
H -0.066602 -1.601864 -0.038710
C -1.243125 0.236579 0.007151
H -1.040986 1.309120 0.037954
C -2.050543 -0.052521 -1.265004
H -1.496292 0.242630 -2.157222
H -3.000783 0.486297 -1.256199
H -2.272281 -1.119939 -1.346925
C -2.055344 -0.123861 1.257794
H -2.277917 -1.194063 1.278113
H -3.005314 0.415187 1.276195
H -1.504319 0.119738 2.167413
C 2.481937 -0.975873 -0.023925
H 2.172557 -2.020590 -0.049613
H 3.114643 -0.826962 0.857040
H 3.113976 -0.783642 -0.896945
