17
charge=0, multiplicity=1, basis=def2-QZVPP
C -2.908070 -0.786402 -0.000028
H -3.696952 -1.497330 -0.000033
C -2.018755 0.018829 0.000001
C -0.946675 1.002035 0.000019
H -1.070778 1.657775 0.870729
H -1.070745 1.657756 -0.870715
C 0.473081 0.460310 0.000044
C 0.730834 -0.845927 0.000030
H -0.121143 -1.518028 0.000041
C 2.067322 -1.518268 -0.000018
H 2.902975 -0.820628 -0.000653
H 2.171755 -2.164340 0.876714
H 2.171210 -2.165320 -0.876083
C 1.504932 1.551187 -0.000023
H 1.387523 2.194741 -0.877643
H 1.387375 2.195019 0.877367
H 2.522764 1.169781 0.000115
