19
charge=0, multiplicity=1, basis=def2-QZVPP
C -2.487572 -0.241371 0.163811
H -2.397597 0.330168 1.089479
H -3.075006 -1.135488 0.381843
H -3.054654 0.360995 -0.549611
C -1.133810 -0.613662 -0.389166
H -1.177079 -1.238923 -1.284593
C 0.000015 0.362210 -0.281070
C -0.000018 1.827724 -0.006570
H 0.881417 2.125724 0.563987
H -0.882029 2.125693 0.563107
H 0.000425 2.401174 -0.937842
C 1.133820 -0.613654 -0.389138
H 1.177098 -1.238906 -1.284573
C 2.487589 -0.241356 0.163807
H 3.054555 0.361194 -0.549550
H 3.075125 -1.135459 0.381620
H 2.397673 0.329996 1.089594
C -0.000006 -0.862686 0.556504
H -0.000038 -0.989397 1.627474
