17
charge=0, multiplicity=1, basis=def2-QZVPP
C -2.401372 -0.700225 -0.185842
H -2.779021 0.176356 -0.695934
H -3.093940 -1.520061 -0.049768
C -1.150659 -0.781764 0.256743
H -0.825559 -1.691311 0.753971
C -0.110592 0.263931 0.130194
C 1.280110 -0.204553 -0.019999
C 2.173393 -0.755375 -0.812262
H 1.925000 -1.034737 -1.829350
H 3.186320 -0.945709 -0.476877
C 0.926220 0.334764 1.284600
H 0.798969 -0.346610 2.118523
H 1.278543 1.322543 1.560016
C -0.499918 1.566797 -0.531876
H -1.315275 2.051063 0.010096
H 0.348850 2.249731 -0.560379
H -0.826977 1.397284 -1.559651
