19
charge=0, multiplicity=1, basis=def2-QZVPP
C -1.892997 1.274787 0.025779
H -1.251519 2.155172 0.008618
H -2.517374 1.324588 0.923938
H -2.572857 1.334035 -0.830501
C -1.099895 -0.000022 -0.007165
C 0.226649 -0.000082 -0.063422
C 1.278789 -1.097517 -0.066811
H 1.204085 -1.844045 0.726044
H 1.360962 -1.625202 -1.020588
C 2.365895 0.000008 0.128492
H 2.795355 0.000055 1.129306
H 3.176167 0.000025 -0.598708
C 1.278710 1.097437 -0.066857
H 1.203948 1.844002 0.725970
H 1.360818 1.625090 -1.020657
C -1.893268 -1.274676 0.025760
H -1.252036 -2.155257 0.009324
H -2.518241 -1.323990 0.923526
H -2.572602 -1.334077 -0.830930
