19
charge=0, multiplicity=1, basis=def2-QZVPP
C -2.241681 -0.863120 0.347063
H -1.874836 -1.883213 0.453363
H -2.707618 -0.562582 1.291090
H -3.033804 -0.856618 -0.408620
C -1.135739 0.081387 -0.028458
C 0.107007 -0.332109 -0.194620
C 1.500144 0.001650 -0.478713
H 1.758699 0.176630 -1.520333
C 2.334893 0.777487 0.514512
H 2.212714 1.854064 0.375257
H 2.033323 0.540018 1.536470
H 3.396744 0.542603 0.408200
C 1.063302 -1.439134 -0.155997
H 1.070359 -2.164967 -0.962307
H 1.360033 -1.843077 0.807131
C -1.516579 1.524028 -0.207767
H -0.656772 2.132159 -0.485795
H -2.281318 1.631807 -0.983647
H -1.945604 1.932037 0.713069
