19
charge=0, multiplicity=1, basis=def2-QZVPP
C 1.282219 0.724690 -0.492261
H 2.058352 1.329616 -0.020639
H 1.626705 0.479264 -1.497890
C 0.991836 -0.539934 0.339003
H 1.885452 -1.026137 0.728622
C 0.000000 0.000000 1.384923
H -0.424886 -0.780723 2.018823
H 0.424886 0.780723 2.018823
C -0.991836 0.539934 0.339003
H -1.885452 1.026137 0.728622
C -1.282219 -0.724690 -0.492261
H -1.626705 -0.479264 -1.497890
H -2.058352 -1.329616 -0.020639
C 0.087419 -1.470691 -0.491522
H 0.000000 -2.450120 -0.018348
H 0.480831 -1.628520 -1.496748
C -0.087419 1.470691 -0.491522
H -0.000000 2.450120 -0.018348
H -0.480831 1.628520 -1.496748
