17
charge=0, multiplicity=1, basis=def2-QZVPP
C -1.767356 1.620018 -0.000048
H -2.455236 2.429144 -0.000097
C -0.990360 0.705719 -0.000030
C -0.063786 -0.427270 -0.000015
C 1.382899 0.026366 -0.000367
H 2.091479 -0.797832 -0.000862
C 1.828123 1.273283 -0.000079
H 1.150049 2.117220 0.000322
H 2.889281 1.485694 -0.000263
C -0.314460 -1.286035 -1.260585
H -0.156162 -0.697420 -2.163370
H 0.371015 -2.135491 -1.273326
H -1.336948 -1.664598 -1.264700
C -0.313945 -1.285576 1.261019
H 0.371734 -2.134853 1.273927
H -1.336345 -1.664384 1.265517
H -0.155560 -0.696505 2.163481
