21
charge=0, multiplicity=1, basis=def2-QZVPP
C -2.891073 -0.509657 0.087635
H -3.208631 -0.415070 -0.953692
H -3.771017 -0.371390 0.718451
H -2.535360 -1.532362 0.232097
C -1.797424 0.502311 0.420384
H -2.182616 1.519522 0.291772
H -1.520150 0.410508 1.476190
C -0.552694 0.327413 -0.428661
H -0.812110 0.436974 -1.486148
C 0.313957 -0.943709 -0.233019
H 0.230338 -1.319056 0.791027
H 0.173389 -1.776695 -0.921981
C 1.580995 -0.067836 -0.401066
H 1.882767 -0.059812 -1.451882
C 2.784083 -0.342494 0.477855
H 3.553842 0.422647 0.348427
H 3.234194 -1.310809 0.244380
H 2.498271 -0.353122 1.532886
C 0.702686 1.173765 -0.104653
H 0.877789 2.077180 -0.689610
H 0.736115 1.432724 0.957233
