17
charge=0, multiplicity=1, basis=def2-QZVPP
C 2.736424 -0.334556 0.008770
H 3.778281 -0.045927 -0.024755
H 2.525320 -1.392792 0.096409
C 1.761311 0.575587 -0.052341
H 2.026053 1.625747 -0.136936
C 0.342291 0.285447 -0.008662
C -0.229746 -1.110503 0.109374
H 0.228811 -1.811098 -0.591395
H -0.043610 -1.506012 1.114007
C -1.736316 -0.910204 -0.162262
H -1.947590 -1.135932 -1.208858
H -2.364710 -1.562399 0.443640
C -2.003362 0.590142 0.098189
H -2.722039 1.017081 -0.605703
H -2.416971 0.761277 1.099792
C -0.636502 1.200759 -0.015207
H -0.468154 2.270025 -0.053364
