17
charge=0, multiplicity=1, basis=def2-QZVPP
C 0.462368 1.995170 -0.084925
H -0.532297 2.390164 -0.238196
H 1.272739 2.711996 -0.031088
C 0.700060 0.689898 0.015304
C -0.105544 -0.546297 -0.058122
C -1.404182 -0.839082 -0.025307
H -1.686918 -1.887202 -0.075437
C -2.517518 0.154383 0.077851
H -2.175253 1.100707 0.495473
H -2.956099 0.363509 -0.903951
H -3.323284 -0.226268 0.709181
C 1.149868 -1.412006 -0.089487
H 1.222243 -2.170434 0.690288
H 1.337958 -1.882782 -1.055611
C 1.989311 -0.115065 0.143909
H 2.754707 0.099742 -0.601877
H 2.440017 -0.061442 1.135875
