17
charge=0, multiplicity=1, basis=def2-QZVPP
C -1.485886 1.239324 -0.000070
H -0.939704 2.176883 0.000291
H -2.130747 1.229926 0.880661
H -2.130017 1.230183 -0.881348
C -0.612656 0.000004 0.000063
C 0.705716 -0.000038 0.783515
C 1.383644 -1.107777 -0.000119
H 2.465699 -1.096962 -0.000147
H 0.952383 -2.095395 -0.000134
C 1.383628 1.107779 0.000101
H 0.952326 2.095383 0.000140
H 2.465684 1.097013 0.000031
C 0.705604 0.000024 -0.783515
C -1.485898 -1.239322 0.000074
H -0.939739 -2.176896 0.001209
H -2.131174 -1.229496 0.880502
H -2.129626 -1.230602 -0.881498
