17
charge=0, multiplicity=1, basis=def2-QZVPP
C -2.992355 -0.008282 -0.000031
H -3.533556 0.162907 0.924648
H -3.533436 0.162918 -0.924780
C -1.752484 -0.403368 0.000047
C -0.510610 -0.799710 0.000041
H -0.314167 -1.869772 0.000005
C 0.680855 0.089374 -0.000003
C 1.895331 -0.412578 -0.750484
H 1.819453 -1.363021 -1.261454
H 2.498895 0.323944 -1.264140
C 1.895370 -0.412566 0.750451
H 2.498951 0.323986 1.264038
H 1.819514 -1.362997 1.261446
C 0.407005 1.573332 0.000011
H 1.340545 2.137257 -0.000208
H -0.167616 1.863762 -0.881838
H -0.167246 1.863804 0.882087
