17
charge=0, multiplicity=1, basis=def2-QZVPP
C -0.023466 2.040602 -0.052998
H 0.869905 2.635686 -0.195427
H -0.936936 2.570124 0.189895
C 0.000278 0.719057 -0.167216
C 1.098122 -0.322812 -0.467969
H 1.461105 -0.261926 -1.499337
C 2.269681 -0.392076 0.499486
H 1.915981 -0.423584 1.531919
H 2.919992 0.478197 0.389162
H 2.873468 -1.284327 0.317321
C -0.043911 -1.323293 -0.282758
H -0.079329 -2.403809 -0.335369
C -0.972602 -0.378537 -0.032136
C -2.427072 -0.377627 0.265309
H -2.826401 -1.391651 0.299769
H -2.977568 0.184346 -0.494073
H -2.626401 0.105059 1.225837
