17
charge=0, multiplicity=1, basis=def2-QZVPP
C 0.534616 1.622312 0.000080
H -0.268766 2.346595 -0.000021
H 1.546428 2.001585 0.000011
C 0.263013 0.312384 0.000249
C -1.107702 -0.125566 0.000190
C -2.537846 0.331279 -0.000149
H -2.970293 0.742211 0.911951
H -2.969767 0.742553 -0.912346
C -1.993323 -1.070665 -0.000279
H -2.242680 -2.116114 -0.000361
C 1.301657 -0.783137 0.000520
H 1.114346 -1.421155 0.870579
H 1.113523 -1.422382 -0.868452
C 2.753941 -0.325659 -0.000473
H 3.422970 -1.187170 -0.000417
H 2.983556 0.273676 -0.883439
H 2.984544 0.274514 0.881666
