17
charge=0, multiplicity=1, basis=def2-QZVPP
C 2.224494 0.854694 0.112149
H 3.297449 0.791928 0.234714
H 1.796839 1.845159 0.022795
C 1.473245 -0.240969 0.084657
H 1.952352 -1.210695 0.193703
C 0.001378 -0.287316 -0.077796
C -0.557237 -1.561136 -0.702871
H -1.420083 -1.448631 -1.344540
H 0.152431 -2.313826 -1.019790
C -0.737027 -1.309760 0.759878
H -1.725431 -1.052649 1.112198
H -0.150995 -1.890863 1.458530
C -0.664274 0.990020 -0.442899
H -0.278692 1.457693 -1.345228
C -1.652873 1.579694 0.216094
H -2.090893 2.503514 -0.138839
H -2.059212 1.167011 1.131187
