19
charge=0, multiplicity=1, basis=def2-QZVPP
C -1.726363 1.262656 -0.418426
H -2.786087 1.399141 -0.194716
H -1.209988 2.196220 -0.190342
H -1.625972 1.075051 -1.489945
C -1.147687 0.091075 0.388168
H -1.281442 0.333220 1.451395
C 0.318587 -0.043694 0.149426
C 1.451471 0.955952 0.326068
H 1.634350 1.285217 1.351897
H 1.416735 1.834170 -0.322174
C 2.391606 -0.193067 -0.176665
H 3.126085 -0.534626 0.556129
H 2.907237 0.017421 -1.116278
C 1.126955 -1.020427 -0.282402
H 0.952973 -2.042220 -0.594786
C -1.894219 -1.209678 0.096232
H -1.792965 -1.483520 -0.956599
H -1.504715 -2.033263 0.696634
H -2.958319 -1.103717 0.314384
