17
charge=0, multiplicity=1, basis=def2-QZVPP
C 2.293955 0.000008 0.436414
H 2.813959 0.923107 0.662373
H 2.813921 -0.923122 0.662333
C 1.080853 0.000022 -0.098722
C 0.250916 -1.226786 -0.417172
H 0.505188 -2.071293 0.226395
H 0.428247 -1.539266 -1.452581
C -1.185992 -0.756272 -0.274704
H -1.967419 -1.311581 -0.775234
C -1.186021 0.756193 -0.274809
H -1.967489 1.311408 -0.775375
C -1.533031 0.000025 0.978593
H -0.819966 0.000100 1.794792
H -2.569014 0.000002 1.288788
C 0.250870 1.226808 -0.417172
H 0.505021 2.071277 0.226488
H 0.428248 1.539376 -1.452544
