17
charge=0, multiplicity=1, basis=def2-QZVPP
C 3.248622 -0.044259 0.000023
H 3.737934 -0.479441 0.876937
H 3.441765 1.029290 -0.000197
H 3.738367 -0.479920 -0.876394
C 1.785052 -0.336993 -0.000234
H 1.499868 -1.385948 -0.000703
C 0.816004 0.584149 0.000151
H 1.082219 1.638646 0.000679
C -0.590733 0.275242 0.000020
C -1.338159 -1.048926 0.000142
H -1.197625 -1.667741 0.888621
H -1.197643 -1.668058 -0.888119
C -2.645737 -0.183415 0.000001
H -3.273085 -0.302505 -0.886723
H -3.273083 -0.302218 0.886764
C -1.717836 1.010845 -0.000192
H -1.901990 2.078038 -0.000337
