21
charge=0, multiplicity=1, basis=def2-QZVPP
C -1.512812 -1.253651 -0.327142
H -2.526366 -1.226052 0.081571
H -1.040945 -2.164155 0.036102
H -1.599010 -1.331240 -1.414797
C -0.760334 -0.000123 0.070620
C 0.760331 0.000076 0.070613
C 1.513274 -1.253267 -0.326872
H 1.600641 -1.330401 -1.414466
H 1.041133 -2.164003 0.035484
H 2.526403 -1.225701 0.082898
C 1.512724 1.253695 -0.327121
H 1.597797 1.331984 -1.414811
H 2.526702 1.225582 0.080503
H 1.041471 2.164063 0.037254
C 0.000024 -0.000050 1.376112
H 0.000294 -0.909427 1.964895
H -0.000203 0.909278 1.964966
C -1.513206 1.253297 -0.326826
H -1.041517 2.163938 0.036334
H -2.526621 1.225335 0.082201
H -1.599784 1.330938 -1.414443
