17
charge=0, multiplicity=1, basis=def2-QZVPP
C -2.668366 0.681928 0.000134
H -2.628508 1.332430 -0.877282
H -2.627807 1.332324 0.877587
H -3.615814 0.143171 0.000437
C -1.518085 -0.235854 -0.000268
C -0.085219 -0.385372 -0.000058
C 1.149989 0.100750 -0.000045
C 1.412293 1.581826 -0.000051
H 1.993209 1.886846 -0.878538
H 1.994463 1.886564 0.877696
H 0.483685 2.154380 0.000723
C 2.353421 -0.800218 0.000100
H 2.066364 -1.852415 -0.000916
H 2.985446 -0.625406 0.878889
H 2.986611 -0.624021 -0.877561
C -1.042515 -1.462144 0.000066
H -1.246748 -2.519372 -0.000302
