21
charge=0, multiplicity=1, basis=def2-QZVPP
C 3.699555 -0.029122 0.505631
H 4.612480 -0.605487 0.426950
H 3.646231 0.695337 1.310992
C 2.692945 -0.195815 -0.342523
H 2.788895 -0.936645 -1.133418
C 1.392850 0.544225 -0.298709
H 1.253418 1.087109 -1.241301
H 1.423896 1.296392 0.494793
C 0.188418 -0.380468 -0.087241
H 0.178351 -1.145623 -0.871044
H 0.312571 -0.915398 0.859437
C -1.144286 0.362304 -0.086735
H -1.261416 0.897681 -1.035846
H -1.130367 1.130877 0.694359
C -2.348657 -0.550888 0.128189
H -2.361874 -1.317919 -0.653051
H -2.229283 -1.085581 1.076090
C -3.676741 0.200548 0.129020
H -3.835628 0.718440 -0.820010
H -3.702332 0.951768 0.922178
H -4.519448 -0.475659 0.284082
