17
charge=0, multiplicity=1, basis=def2-QZVPP
C -3.012249 -0.000295 -0.150023
H -4.047179 0.000384 -0.387718
C -1.843231 0.000381 0.124211
C -0.423114 0.000749 0.431169
H -0.303932 0.002704 1.521181
C 0.355702 -1.200833 -0.140087
H 0.132405 -2.129021 0.385214
H 0.065495 -1.336263 -1.184099
C 1.831198 -0.777143 -0.031969
H 2.268738 -1.157327 0.892396
H 2.423240 -1.185641 -0.850819
C 1.830773 0.777365 -0.027277
H 2.259497 1.151771 0.903638
H 2.429753 1.191835 -0.838031
C 0.356178 1.200011 -0.143896
H 0.130343 2.130997 0.375362
H 0.070097 1.329162 -1.189894
