17
charge=0, multiplicity=1, basis=def2-QZVPP
C -2.141466 0.156321 0.015555
C -0.686535 0.260853 0.352776
C 0.113113 1.542688 0.587973
C 0.418473 0.638934 -0.547602
C 0.557918 -0.528505 -1.451532
C 0.435811 -0.703802 0.062434
C 1.466946 -1.269174 0.989067
H -2.534646 1.112860 -0.339824
H -2.735232 -0.146363 0.880985
H -2.301181 -0.590681 -0.766416
H 0.816835 1.601883 1.415328
H -0.386789 2.483649 0.374032
H 1.531527 -0.720410 -1.894630
H -0.274916 -0.792496 -2.099543
H 2.454716 -1.283570 0.520048
H 1.224914 -2.292107 1.286014
H 1.530689 -0.671485 1.902140
