17
charge=0, multiplicity=1, basis=def2-QZVPP
C 3.469975 -0.335467 -0.000010
H 3.793445 -0.895343 -0.880957
H 3.993796 0.622992 -0.002735
H 3.793966 -0.890588 0.883759
C 2.028548 -0.144320 -0.000084
C 0.831703 -0.004127 0.000046
C -0.577135 0.229800 0.000103
C -1.427571 -0.808734 0.000068
H -0.987645 -1.800693 -0.000006
C -2.920368 -0.769599 -0.000038
H -3.318257 -1.289268 -0.877226
H -3.324525 0.240638 0.001539
H -3.318421 -1.292088 0.875380
C -0.978329 1.683956 -0.000009
H -0.567491 2.188597 0.877322
H -0.568428 2.188166 -0.878036
H -2.057379 1.818525 0.000504
