17
charge=0, multiplicity=1, basis=def2-QZVPP
C 2.765237 -0.853520 0.161282
H 3.289547 0.076988 0.335134
H 3.359521 -1.757005 0.176281
C 1.450979 -0.901248 -0.062338
H 0.975701 -1.861486 -0.230989
C 0.555195 0.256621 -0.104422
C -0.726836 0.080726 -0.333937
C -1.996306 -0.096443 -0.552434
H -2.352336 -0.082582 -1.581372
C -3.033724 -0.323276 0.515459
H -2.583614 -0.325816 1.507166
H -3.798096 0.457615 0.483391
H -3.542055 -1.278912 0.362867
C 1.123137 1.638028 0.115023
H 1.885389 1.865069 -0.634382
H 1.598147 1.708481 1.096651
H 0.341711 2.392311 0.053458
