17
charge=0, multiplicity=1, basis=def2-QZVPP
C -2.878455 -0.000481 0.000105
H -3.147843 -0.000743 1.050594
H -3.691607 -0.000472 -0.713594
C -1.605745 -0.000282 -0.387696
H -1.372143 -0.000083 -1.450864
C -0.437838 -0.000367 0.515590
H -0.701726 -0.000881 1.576594
C 0.867056 0.643856 0.097542
C 1.504212 1.954966 -0.115759
H 1.518050 2.530434 0.813893
H 0.939567 2.541567 -0.844903
H 2.529586 1.848735 -0.473293
C 0.867371 -0.643565 0.096969
C 1.505665 -1.954204 -0.115827
H 1.519170 -2.529517 0.813925
H 2.531250 -1.847225 -0.472535
H 0.942104 -2.541355 -0.845365
