17
charge=0, multiplicity=1, basis=def2-QZVPP
C 3.028919 0.000006 -0.000438
H 3.597801 0.086623 -0.920743
H 3.598606 -0.086471 0.919383
C 1.725998 -0.000056 0.000102
C 0.426453 -0.000180 0.000553
C -0.459994 -1.234012 -0.134972
H -0.448574 -1.579310 -1.173102
H -0.116496 -2.061776 0.484813
C -1.861864 -0.728244 0.238342
H -1.991095 -0.759592 1.323740
H -2.658217 -1.326245 -0.205589
C -1.861334 0.728601 -0.239282
H -1.989138 0.760081 -1.324850
H -2.658076 1.326830 0.203651
C -0.459827 1.233818 0.135900
H -0.115368 2.061947 -0.482848
H -0.449555 1.578312 1.174323
