19
charge=0, multiplicity=1, basis=def2-QZVPP
C -2.011918 -0.922547 0.000041
H -2.996240 -0.452062 0.000317
H -1.943126 -1.571477 -0.878401
H -1.942815 -1.571890 0.878147
C -0.927187 0.089631 0.000071
C 0.593362 -0.090912 -0.000020
C 1.154540 -0.740593 -1.259336
H 0.757680 -0.262220 -2.156792
H 2.244595 -0.664663 -1.285019
H 0.895603 -1.801993 -1.299915
C 1.154687 -0.740607 1.259255
H 2.244763 -0.664893 1.284714
H 0.895555 -1.801955 1.299992
H 0.758136 -0.262129 2.156798
C 0.648572 1.483888 0.000001
H 1.111720 1.920557 0.888324
H 1.111709 1.920628 -0.888294
C -0.864593 1.423527 0.000023
H -1.622358 2.197774 -0.000081
