17
charge=0, multiplicity=1, basis=def2-QZVPP
C 1.246891 1.539256 0.000222
H 0.947182 2.107167 -0.882966
H 0.948215 2.106550 0.884156
H 2.334902 1.459244 -0.000455
C 0.604469 0.170978 0.000064
C 1.288393 -0.958779 0.747303
H 0.659750 -1.675831 1.256103
H 2.206483 -0.711040 1.262900
C 1.288339 -0.958561 -0.747603
H 2.206388 -0.710656 -1.263214
H 0.659652 -1.675466 -1.256551
C -0.847287 0.161913 0.000065
C -2.052765 -0.734251 0.000263
H -2.330255 -1.264772 -0.911334
H -2.330470 -1.264055 0.912210
C -1.985344 0.770955 -0.000356
H -2.558023 1.679798 -0.000592
