19
charge=0, multiplicity=1, basis=def2-QZVPP
C -1.512808 1.935662 -0.000828
H -2.024094 2.866399 -0.001725
C -0.937052 0.882140 0.001648
C -0.237638 -0.406284 0.000131
C 1.142966 -0.250849 -0.686518
H 1.604625 -1.242546 -0.714302
H 0.968010 0.042409 -1.724613
C 2.094515 0.744873 -0.033406
H 3.009814 0.836549 -0.620434
H 1.638630 1.733674 0.035455
H 2.380591 0.434564 0.972508
C -0.079402 -0.901896 1.449732
H 0.473478 -1.843750 1.460886
H 0.454700 -0.178335 2.063382
H -1.056609 -1.070065 1.902885
C -1.073191 -1.426011 -0.796450
H -0.570804 -2.395552 -0.799450
H -2.060846 -1.549555 -0.351641
H -1.201838 -1.099600 -1.828810
