17
charge=0, multiplicity=1, basis=def2-QZVPP
C -2.052072 -1.319010 0.012770
H -3.079554 -1.273499 -0.326597
H -1.668657 -2.288513 0.304840
C -1.291325 -0.233764 0.066854
C 0.175735 0.032582 0.470992
H 0.349408 -0.106035 1.543976
C 1.257041 -0.681297 -0.329304
H 1.038319 -0.570113 -1.395245
H 1.207336 -1.752075 -0.110877
C 2.658444 -0.158356 -0.024149
H 2.744749 0.903409 -0.265708
H 2.901212 -0.277945 1.034537
H 3.415365 -0.691468 -0.601946
C -0.160440 1.478087 0.095365
H 0.421352 2.389118 0.106334
C -1.432105 1.194495 -0.240981
H -2.261208 1.790703 -0.598604
