17
charge=0, multiplicity=1, basis=def2-QZVPP
C 2.831560 0.000042 -0.175725
H 3.751289 -0.000019 0.394963
H 2.925434 0.000233 -1.256073
C 1.643039 -0.000092 0.414453
H 1.591835 -0.000270 1.501706
C 0.326834 -0.000009 -0.289605
H 0.505059 0.000014 -1.367890
C -0.568105 -1.226540 0.039958
H -0.398730 -2.048948 -0.658100
H -0.350629 -1.619901 1.040459
C -1.964003 -0.664278 -0.015697
H -2.849522 -1.286630 -0.012041
C -1.963963 0.664343 -0.015695
H -2.849450 1.286742 -0.012026
C -0.568054 1.226533 0.040040
H -0.398606 2.048992 -0.657943
H -0.350525 1.619787 1.040576
