17
charge=0, multiplicity=1, basis=def2-QZVPP
C 2.060879 0.458722 -0.475264
H 1.982252 1.052672 -1.389139
H 2.655391 1.027838 0.244668
H 2.612798 -0.452482 -0.711929
C 0.699931 0.135659 0.080992
C 0.483496 -1.095261 0.933594
H 1.313175 -1.785334 1.025336
H -0.129977 -1.001012 1.820997
C -0.174548 -1.003600 -0.416516
H 0.186681 -1.661818 -1.195214
C -1.611772 -0.502609 -0.483395
H -2.301389 -1.135368 0.084775
H -1.983048 -0.485210 -1.513452
C -1.522550 0.893449 0.089698
H -2.392936 1.511485 0.266205
C -0.266739 1.237085 0.368640
H 0.044864 2.188557 0.781260
