19
charge=0, multiplicity=1, basis=def2-QZVPP
C -2.737610 -0.084481 0.000027
H -3.276345 0.268034 0.881902
H -3.276914 0.269344 -0.880968
H -2.768359 -1.176288 -0.000761
C -1.314562 0.419195 -0.000055
H -1.241056 1.505004 -0.000139
C -0.282293 -0.358514 0.751856
H -0.442668 -1.210421 1.393864
C 0.962914 0.007753 -0.000046
C 1.501240 1.426950 0.000002
H 2.120091 1.598291 0.884458
H 0.708000 2.172304 -0.001951
H 2.123212 1.597162 -0.882488
C 2.061197 -1.036998 0.000025
H 2.698666 -0.927723 0.880324
H 2.697429 -0.929140 -0.881342
H 1.649048 -2.047529 0.001132
C -0.282286 -0.358643 -0.751853
H -0.442698 -1.210610 -1.393771
