17
charge=0, multiplicity=1, basis=def2-QZVPP
C 1.997822 -1.086136 0.130935
H 1.762403 -1.123237 1.196611
H 1.747191 -2.060235 -0.295529
H 3.076096 -0.941340 0.027957
C 1.223243 0.016921 -0.542210
H 1.351680 0.090246 -1.617127
C -0.100035 0.436139 -0.014196
C -1.497636 0.536575 -0.467860
H -2.111402 1.411377 -0.603491
C -1.918631 -0.876633 -0.212527
H -1.430314 -1.682075 -0.756002
H -2.973805 -1.041167 -0.021372
C -1.154504 -0.138723 0.842464
H -1.476988 0.160130 1.825715
C 1.035359 1.357457 0.177913
H 1.077763 2.263746 -0.413082
H 1.463670 1.448955 1.169203
