17
charge=0, multiplicity=1, basis=def2-QZVPP
C -2.188430 0.568014 0.290257
H -2.319952 1.512901 -0.245365
H -2.180192 0.809445 1.358066
H -3.054894 -0.062921 0.087042
C -0.928033 -0.103758 -0.109039
C 0.529043 0.337428 0.053578
C 0.905180 -1.048419 -0.440538
H 1.676612 -1.273422 -1.163084
C 1.099343 1.657636 -0.360642
H 0.774553 1.923764 -1.369806
H 0.780870 2.458250 0.313476
H 2.190774 1.635343 -0.352890
C 1.223769 -0.638012 0.983872
H 0.676462 -1.096010 1.800008
H 2.265267 -0.418279 1.200387
C -0.584996 -1.317180 -0.562665
H -1.144752 -2.223325 -0.756776
