17
charge=0, multiplicity=1, basis=def2-QZVPP
C 1.990053 1.276302 -0.244304
H 2.873022 1.749277 -0.678543
H 1.782050 1.769996 0.708984
H 1.143374 1.465964 -0.906179
C 2.199250 -0.221612 -0.045347
H 3.056184 -0.388889 0.614641
H 2.453058 -0.686758 -1.003484
C 0.968606 -0.930511 0.542462
H 0.700756 -0.451894 1.490002
H 1.245917 -1.962329 0.785637
C -0.224228 -0.926934 -0.371438
H -0.152488 -1.496268 -1.292619
C -1.337905 -0.249628 -0.133753
C -2.666413 0.196929 -0.452272
H -3.505001 0.199890 -1.127434
C -2.149963 0.620512 0.677895
H -2.273276 1.210667 1.569537
