19
charge=0, multiplicity=1, basis=def2-QZVPP
C 2.835954 -0.185958 -0.460940
H 2.431190 -0.089307 -1.467750
H 3.648058 0.537011 -0.344230
H 3.276207 -1.181915 -0.359892
C 1.767632 0.034155 0.576397
H 2.079251 -0.040941 1.616707
C 0.519020 0.300956 0.316234
C -0.729720 0.565481 0.044302
C -1.769927 -0.518855 -0.136143
H -2.574509 -0.339692 0.587137
H -2.231588 -0.382748 -1.121406
C -1.258174 -1.945816 0.002555
H -0.826455 -2.113957 0.990216
H -0.481974 -2.157671 -0.734474
H -2.069006 -2.661662 -0.141457
C -1.224542 1.983000 -0.106247
H -2.014706 2.192858 0.620988
H -1.655545 2.135747 -1.100274
H -0.422392 2.704504 0.037484
