17
charge=0, multiplicity=1, basis=def2-QZVPP
C -2.188249 -1.058687 0.000058
H -3.232292 -0.773055 0.000749
H -1.967949 -2.118885 -0.000384
C -1.216501 -0.147438 -0.000225
C 0.205747 -0.581133 -0.001042
H 0.326941 -1.664608 -0.003007
C 1.245883 0.213782 0.740599
H 1.130970 1.025144 1.437596
C 2.454203 -0.256091 -0.000272
H 3.314739 0.403606 0.001105
H 2.699918 -1.317162 -0.002325
C 1.246012 0.216667 -0.739511
H 1.130988 1.030833 -1.433222
C -1.517665 1.325485 0.000191
H -1.091962 1.819875 0.876609
H -1.095224 1.819496 -0.878032
H -2.592710 1.499247 0.002120
