19
charge=0, multiplicity=1, basis=def2-QZVPP
C 2.173531 0.904569 0.192127
H 3.078400 0.855645 -0.401229
H 2.046839 1.776280 0.822446
C 1.261693 -0.062583 0.153086
C 0.000105 0.000555 0.984784
H 0.047089 0.881455 1.631715
H -0.046663 -0.879594 1.632784
C -1.261639 0.062709 0.153303
C -1.414060 1.278005 -0.713644
H -1.396164 2.188744 -0.107182
H -0.582464 1.361120 -1.418019
H -2.346896 1.255225 -1.275861
C -2.172915 -0.904955 0.192619
H -2.045699 -1.776431 0.823152
H -3.077800 -0.856704 -0.400776
C 1.413368 -1.278244 -0.713429
H 1.394808 -2.188798 -0.106712
H 0.581770 -1.361005 -1.417829
H 2.346279 -1.256270 -1.275559
