17
charge=0, multiplicity=1, basis=def2-QZVPP
C -2.237710 -0.852459 -0.339664
H -2.954174 -0.484234 -1.064053
H -2.398895 -1.845724 0.061549
C -1.211344 -0.118035 0.043225
C -0.610337 1.205364 0.043421
H -1.177377 2.098985 0.271129
C 0.762217 1.181421 -0.638256
H 0.747964 0.931477 -1.700869
H 1.321550 2.105633 -0.501734
C 1.239680 0.052625 0.329749
H 1.985613 0.455405 1.016641
C 1.731389 -1.252787 -0.266369
H 0.990001 -1.667658 -0.952031
H 2.661279 -1.105169 -0.821032
H 1.920882 -1.993927 0.514063
C -0.139833 0.046721 1.011323
H -0.301219 -0.071894 2.075769
