17
charge=0, multiplicity=1, basis=def2-QZVPP
C -2.528533 -0.885113 -0.286047
H -2.644472 -0.772044 -1.358277
H -3.298957 -1.440997 0.232534
C -1.490952 -0.368589 0.356565
H -1.399421 -0.503694 1.431211
C -0.387495 0.422945 -0.286832
H -0.566908 0.462357 -1.367801
C 0.927381 -0.228329 -0.076900
C 2.404673 -0.085716 -0.327378
H 2.800768 -0.275130 -1.325166
H 2.983052 0.644760 0.238534
C 1.659194 -1.174891 0.400111
H 1.751090 -2.100575 0.938442
C -0.350910 1.870075 0.237494
H 0.468541 2.423615 -0.222449
H -0.204673 1.882410 1.319139
H -1.289170 2.377002 0.011750
