17
charge=0, multiplicity=1, basis=def2-QZVPP
C 3.517423 -0.274026 -0.000066
H 4.059837 -0.442435 -0.925095
H 4.059868 -0.442664 0.924904
C 2.276935 0.112417 0.000009
C 1.024496 0.498340 0.000123
H 0.831591 1.566417 0.000184
C -0.107422 -0.416594 0.000036
H 0.152430 -1.469947 -0.000011
C -1.407644 -0.086917 -0.000011
C -2.465904 -1.151509 -0.000010
H -3.114816 -1.056738 -0.876882
H -2.034717 -2.152200 -0.000292
H -3.114448 -1.057074 0.877178
C -1.931633 1.318675 -0.000048
H -2.564522 1.489276 -0.876610
H -2.563925 1.489565 0.876892
H -1.148805 2.073481 -0.000461
