17
charge=0, multiplicity=1, basis=def2-QZVPP
C -2.789681 0.448948 0.039992
H -3.392335 1.346601 -0.001954
H -3.318215 -0.489281 0.169908
C -1.465732 0.491630 -0.062419
H -0.983498 1.448227 -0.203251
C -0.619265 -0.726231 -0.020934
H -1.241377 -1.621427 -0.009915
C 0.657466 -0.933561 0.751398
H 0.864615 -1.767697 1.403005
C 1.646100 -0.093643 0.009647
H 2.639559 -0.543709 0.014179
C 1.751253 1.418743 0.022054
H 0.800496 1.918726 0.172402
H 2.180805 1.776851 -0.916602
H 2.414953 1.730413 0.832164
C 0.674155 -0.942212 -0.751724
H 0.909220 -1.780755 -1.388031
