17
charge=0, multiplicity=1, basis=def2-QZVPP
C 2.138889 0.920781 0.386023
H 1.330340 1.328878 0.979071
H 3.066399 1.478282 0.375371
C 2.007303 -0.205900 -0.302161
H 2.852192 -0.564934 -0.884128
C 0.779536 -1.067661 -0.371214
H 1.055887 -2.096916 -0.111779
H 0.439487 -1.109268 -1.412610
C -0.365809 -0.617263 0.504771
H -0.142609 -0.605044 1.568048
C -1.326382 0.374613 0.025174
C -1.562518 1.615440 -0.342838
H -0.791490 2.374538 -0.285814
H -2.533114 1.918551 -0.717671
C -1.809167 -1.002014 0.148046
H -1.968141 -1.576874 -0.758360
H -2.480056 -1.255188 0.961062
