17
charge=0, multiplicity=1, basis=def2-QZVPP
C -1.982516 -0.220283 1.211124
C -0.620358 -0.665326 0.742677
C 0.451313 0.363655 0.320342
C 0.578465 1.827947 0.589036
C 1.317018 -0.559233 -0.500420
C 0.668589 -0.506568 -1.864205
C -0.217685 -0.424421 -0.677822
H -1.969654 -0.000867 2.281460
H -2.725649 -1.001784 1.039457
H -2.309274 0.675663 0.681760
H -0.247981 -1.563543 1.236550
H 1.235396 2.018340 1.440442
H -0.394498 2.272476 0.808598
H 1.001178 2.338967 -0.278867
H 1.645456 -1.521026 -0.119471
H 0.683027 -1.425768 -2.443505
H 0.757074 0.390578 -2.471622
