17
charge=0, multiplicity=1, basis=def2-QZVPP
C -3.315709 0.422420 0.145480
H -4.112954 -0.067430 -0.421612
H -3.167724 1.420336 -0.270062
H -3.682560 0.531738 1.170460
C -2.052239 -0.378078 0.105584
H -2.110964 -1.389530 0.502709
C -0.888544 0.047972 -0.373201
H -0.823011 1.061019 -0.766409
C 0.384040 -0.743000 -0.390404
H 0.186940 -1.760974 -0.039482
H 0.761378 -0.823195 -1.415792
C 1.469113 -0.106948 0.469186
H 1.192151 -0.055303 1.523575
C 2.927221 -0.203736 0.118614
H 3.792515 -0.840935 0.070096
C 2.389421 0.952760 -0.069593
H 2.484410 1.975930 -0.387481
