17
charge=0, multiplicity=1, basis=def2-QZVPP
C -1.235717 1.909156 -0.204873
H -1.878221 2.768299 -0.064007
H -0.285674 2.082890 -0.689464
C -1.635276 0.696629 0.175718
H -2.622347 0.600409 0.618100
C -0.926109 -0.580278 0.001917
C 0.528314 -0.661567 -0.187927
H 0.872045 -1.586686 -0.643881
C 1.449625 0.222061 0.198767
H 1.139524 1.133768 0.695995
C 2.921405 0.031366 0.026719
H 3.357112 0.841906 -0.565540
H 3.149201 -0.913244 -0.468939
H 3.433724 0.043480 0.993537
C -1.646627 -1.715270 0.007589
H -1.182098 -2.679959 -0.149420
H -2.716953 -1.703447 0.166160
