17
charge=0, multiplicity=1, basis=def2-QZVPP
C -2.320263 -0.530865 -0.240440
H -2.569254 -1.548823 0.035960
H -3.082037 0.040193 -0.758160
C -1.138834 -0.010093 0.047051
C 0.094678 -0.553565 0.737521
H -0.042598 -1.005066 1.719126
C 0.796933 0.835022 0.488398
H 1.228627 1.435516 1.285497
C 1.775952 0.153482 -0.497378
H 1.704647 0.511288 -1.525505
H 2.820266 0.206917 -0.191543
C 1.118615 -1.227082 -0.217458
H 0.684994 -1.746142 -1.071686
H 1.785131 -1.913681 0.304158
C -0.510462 1.360834 -0.158323
H -0.429220 1.716359 -1.188194
H -1.000266 2.137042 0.434120
