17
charge=0, multiplicity=1, basis=def2-QZVPP
C -3.319952 -0.000011 0.318445
H -3.847751 -0.925279 0.522630
H -3.847663 0.925282 0.522725
C -2.107695 -0.000058 -0.154850
C -0.888599 0.000082 -0.613737
H -0.739002 0.000048 -1.692187
C 0.344836 -0.000007 0.230638
H 0.069292 -0.000055 1.285991
C 1.432919 -1.078213 -0.038412
H 1.418544 -1.393235 -1.083475
H 1.424502 -1.964989 0.594571
C 2.512893 0.000016 0.215663
H 3.389007 0.000051 -0.431661
H 2.846620 -0.000003 1.253960
C 1.432861 1.078180 -0.038382
H 1.424366 1.964919 0.594668
H 1.418509 1.393326 -1.083405
