17
charge=0, multiplicity=1, basis=def2-QZVPP
C 2.646600 0.407746 0.036196
H 3.466011 0.634560 -0.633750
H 2.829193 0.541415 1.096656
C 1.472498 -0.017861 -0.414950
H 1.323803 -0.136860 -1.486255
C 0.290978 -0.339755 0.431986
H 0.545241 -0.245430 1.491764
C -1.020064 0.348877 0.046421
C -1.364728 1.790820 0.021908
H -1.285406 2.228240 1.021782
H -0.672814 2.344530 -0.619102
H -2.379915 1.951689 -0.343634
C -1.649306 -0.795031 -0.239900
H -2.651980 -1.019135 -0.582808
C -0.467718 -1.679200 0.093029
H -0.034853 -2.240622 -0.737915
H -0.588840 -2.351960 0.945122
