17
charge=0, multiplicity=1, basis=def2-QZVPP
C 2.525933 1.250670 -0.027395
H 2.184552 2.181425 0.409968
H 3.490771 1.256142 -0.521120
C 1.797735 0.157664 0.043127
C 0.530313 -0.453722 0.469289
H 0.442458 -0.711074 1.520646
C -0.735126 -0.085221 -0.192529
H -0.659308 0.171855 -1.246816
C -1.921292 -0.038344 0.407030
H -1.981649 -0.290092 1.463388
C -3.204916 0.340716 -0.260468
H -3.050816 0.575505 -1.314751
H -3.658167 1.213685 0.218840
H -3.939007 -0.468097 -0.196156
C 1.610967 -1.243060 -0.310226
H 2.154635 -2.005618 0.235728
H 1.394860 -1.495948 -1.342693
