17
charge=0, multiplicity=1, basis=def2-QZVPP
C -1.372985 1.546101 -0.199600
H -2.340818 2.017983 -0.090020
H -0.532034 2.179102 -0.449112
C -1.214725 0.228111 -0.033432
C 0.086695 -0.364604 -0.190038
C 1.534239 -0.099071 -0.481785
H 1.811508 0.098527 -1.519932
C 2.439984 0.585988 0.522482
H 3.469174 0.227274 0.434377
H 2.100971 0.394190 1.542563
H 2.455752 1.668391 0.369192
C 0.859097 -1.407372 -0.178373
H 0.988829 -2.466592 -0.042680
C -2.343848 -0.700773 0.316531
H -3.286506 -0.162645 0.410368
H -2.140093 -1.214167 1.259233
H -2.457527 -1.472340 -0.448699
