17
charge=0, multiplicity=1, basis=def2-QZVPP
C -3.100607 -0.302917 -0.362971
H -4.085805 -0.153906 -0.730341
C -1.990760 -0.477378 0.059205
C -0.633267 -0.677177 0.545002
H -0.597832 -0.467354 1.619371
H -0.358719 -1.728198 0.424014
C 0.415822 0.204266 -0.177502
H 0.359502 -0.024633 -1.245227
C 1.789081 -0.146007 0.314290
H 1.972038 0.045878 1.370058
C 2.762598 -0.651852 -0.430504
H 2.620083 -0.854235 -1.486257
H 3.736522 -0.879328 -0.016527
C 0.123686 1.693631 0.024039
H 0.843300 2.303585 -0.522768
H 0.190919 1.960694 1.082073
H -0.879328 1.942096 -0.323747
