17
charge=0, multiplicity=1, basis=def2-QZVPP
C -3.030439 0.603581 0.373679
H -3.803836 0.034998 0.897779
H -3.542863 1.316991 -0.277938
H -2.456519 1.163356 1.111210
C -2.142361 -0.310320 -0.425587
H -2.623057 -0.915961 -1.190523
C -0.851226 -0.424061 -0.263343
C 0.418485 -0.525137 -0.102417
C 1.772503 -0.041935 -0.431174
H 2.162192 -0.359292 -1.394508
C 2.222533 1.326733 0.019260
H 1.794849 1.570531 0.993297
H 3.311147 1.372910 0.101630
H 1.902451 2.094891 -0.687370
C 1.561478 -1.159384 0.582321
H 1.717971 -0.924717 1.629868
H 1.831828 -2.170568 0.300128
