19
charge=0, multiplicity=1, basis=def2-QZVPP
C 2.557905 -0.336892 0.000088
H 2.823086 0.712526 0.000064
H 3.378526 -1.042731 0.000174
C 1.296351 -0.751859 -0.000007
H 1.106016 -1.823318 -0.000003
C 0.061588 0.089620 -0.000059
C -1.003229 -0.301248 1.079894
H -1.086113 0.370273 1.934976
H -0.846036 -1.315647 1.447972
C -2.107433 -0.240903 0.000076
H -2.843664 -1.043550 0.000268
H -2.639115 0.710299 -0.000155
C -1.003310 -0.301682 -1.079772
H -0.846111 -1.316225 -1.447470
H -1.086304 0.369480 -1.935121
C 0.336645 1.586888 -0.000224
H 0.903756 1.882930 0.884600
H -0.598316 2.149437 0.000119
H 0.903174 1.882985 -0.885405
