19
charge=0, multiplicity=1, basis=def2-QZVPP
C 3.067560 -0.210993 -0.125888
H 3.776465 -1.012699 0.030428
H 3.461140 0.726517 -0.501792
C 1.765551 -0.366476 0.130096
H 1.424348 -1.327465 0.499539
C 0.771719 0.670556 -0.062254
H 1.154280 1.618238 -0.432324
C -0.548627 0.568664 0.158791
C -1.219984 -0.691315 0.642597
H -0.532650 -1.291709 1.239099
H -2.045476 -0.418142 1.306803
C -1.766373 -1.545004 -0.509949
H -2.285825 -2.426655 -0.129820
H -2.471316 -0.980850 -1.123049
H -0.954806 -1.878443 -1.158329
C -1.465378 1.726931 -0.104469
H -1.960212 2.045929 0.818645
H -2.261284 1.449962 -0.802674
H -0.931472 2.581138 -0.520068
