17
charge=0, multiplicity=1, basis=def2-QZVPP
C -2.193824 -1.078462 -0.000207
H -3.261930 -0.895153 -0.000174
H -1.869082 -2.112879 -0.000363
C -1.324762 -0.089426 -0.000125
C 0.062164 0.342895 0.000086
C 1.102493 0.057298 -1.093195
H 1.532382 0.975056 -1.498665
H 0.783215 -0.581596 -1.915636
C 1.997775 -0.585816 -0.000118
H 3.049937 -0.305417 0.000002
H 1.924618 -1.672955 -0.000440
C 1.102401 0.056656 1.093271
H 1.532236 0.974166 1.499360
H 0.783051 -0.582757 1.915281
C -1.074191 1.357827 0.000263
H -1.253272 1.918094 -0.912312
H -1.253489 1.917604 0.913097
