17
charge=0, multiplicity=1, basis=def2-QZVPP
C -2.159829 0.970319 -0.353958
C -0.687786 1.148568 -0.095082
C 0.400540 0.285831 -0.720716
C 1.468998 0.703978 0.269424
C 0.132642 0.253351 0.824508
C 0.018727 -1.010272 -0.018011
C 0.952223 -2.183869 0.119185
H -2.468383 -0.069863 -0.430846
H -2.434425 1.467983 -1.285813
H -2.735418 1.428747 0.452278
H -0.402847 2.193851 -0.023729
H 1.689642 1.762215 0.329956
H 2.324987 0.061026 0.404343
H -1.000093 -1.325902 -0.201192
H 1.985864 -1.900704 0.303762
H 0.928464 -2.783732 -0.792467
H 0.628000 -2.819596 0.945165
