21
charge=0, multiplicity=1, basis=def2-QZVPP
C 3.242938 0.002806 -0.229508
H 4.011643 -0.707752 0.080042
H 3.540937 0.992166 0.126223
H 3.238614 0.033680 -1.321823
C 1.870172 -0.384274 0.312639
H 1.909013 -0.440642 1.405471
H 1.609805 -1.389257 -0.034030
C 0.766887 0.588632 -0.098589
H 1.017211 1.594894 0.257403
H 0.729145 0.652104 -1.192700
C -0.603339 0.197622 0.418467
H -0.582848 0.144422 1.511539
C -1.841687 1.009007 -0.040201
H -1.678153 1.446370 -1.027599
H -2.216418 1.785738 0.626609
C -2.635172 -0.317110 -0.129396
H -3.195079 -0.514354 0.785630
H -3.303032 -0.451038 -0.979909
C -1.286168 -1.075695 -0.149039
H -0.952016 -1.274557 -1.170134
H -1.210616 -1.997704 0.427040
