17
charge=0, multiplicity=1, basis=def2-QZVPP
C 3.452297 0.000094 0.135840
H 3.811689 0.000143 -0.886689
H 4.198024 0.000168 0.918965
C 2.148105 -0.000080 0.415067
H 1.818058 -0.000144 1.448847
C 1.095769 -0.000228 -0.592690
H 1.414222 0.000049 -1.633572
C -0.186954 -0.000162 -0.319623
C -1.459376 0.000004 -0.041215
C -2.237094 1.282286 0.127377
H -1.604225 2.157195 -0.007630
H -2.686381 1.326619 1.123793
H -3.055852 1.328479 -0.596709
C -2.237397 -1.282079 0.127461
H -1.604564 -2.157145 -0.006689
H -2.687411 -1.325874 1.123569
H -3.055653 -1.328507 -0.597184
