17
charge=0, multiplicity=1, basis=def2-QZVPP
C -2.841479 -0.262212 0.128883
H -3.743683 -0.178363 -0.463148
H -2.956600 -0.597758 1.153385
C -1.648304 0.032833 -0.372599
H -1.572850 0.362288 -1.406979
C -0.361982 -0.047762 0.370437
H -0.541381 -0.396492 1.390745
C 0.752541 -0.808033 -0.368334
H 0.584990 -1.580029 -1.106653
C 1.591542 0.464229 -0.472983
H 2.177192 0.822347 -1.307964
C 2.048119 -0.684364 0.371949
H 2.050674 -0.597231 1.454253
H 2.868857 -1.263617 -0.031137
C 0.510041 1.255726 0.257189
H 0.024044 2.003006 -0.368518
H 0.805879 1.723345 1.198774
