19
charge=0, multiplicity=1, basis=def2-QZVPP
C -2.650480 0.056541 0.000010
H -3.207692 0.150859 -0.924552
H -3.207680 0.150778 0.924589
C -1.346510 -0.161969 -0.000006
C -0.297827 -0.253479 1.088931
H -0.363854 0.467725 1.905364
H -0.223697 -1.257512 1.514988
C 0.796706 0.006624 -0.000006
C 1.973062 -0.953655 -0.000031
H 1.634706 -1.991971 -0.000155
H 2.600035 -0.804379 0.883049
H 2.600164 -0.804211 -0.882992
C 1.259306 1.457635 0.000053
H 1.864560 1.673296 -0.883992
H 1.864623 1.673207 0.884077
H 0.407897 2.141726 0.000119
C -0.297836 -0.253376 -1.088959
H -0.363872 0.467915 -1.905314
H -0.223710 -1.257362 -1.515129
