19
charge=0, multiplicity=1, basis=def2-QZVPP
C -2.268688 0.108540 0.032114
H -2.640571 1.125564 -0.114166
H -2.924894 -0.571155 -0.517082
H -2.354130 -0.131465 1.094984
C -0.831110 -0.017681 -0.434892
H -0.767682 0.198121 -1.506565
C -0.129373 -1.320592 -0.035624
H -0.635699 -2.241168 0.222855
C 0.902683 -0.540907 0.775353
H 1.326995 -0.785792 1.739772
C 1.304699 -1.291439 -0.459585
H 1.593733 -0.764148 -1.362538
H 1.866132 -2.199501 -0.280784
C 0.205791 0.779424 0.429572
H -0.306762 1.166192 1.313618
C 1.012650 1.891816 -0.214888
H 0.364146 2.713907 -0.528123
H 1.749778 2.295932 0.483200
H 1.549045 1.538555 -1.097469
