21
charge=0, multiplicity=1, basis=def2-QZVPP
C -2.179382 -1.335503 0.192560
H -2.309292 -2.229350 0.810181
H -2.864757 -1.440647 -0.654128
H -2.505724 -0.475337 0.775233
C -0.764535 -1.213966 -0.282062
H -0.396134 -2.065258 -0.849864
C 0.071998 -0.191316 -0.096576
C 1.476386 -0.237445 -0.647107
H 1.544987 -1.021867 -1.403943
H 1.698903 0.706948 -1.156088
C 2.538982 -0.483100 0.430599
H 2.510875 0.284711 1.205900
H 3.541678 -0.480075 -0.001586
H 2.378138 -1.448719 0.913124
C -0.306380 1.075626 0.632422
H -1.041958 0.869975 1.411202
H 0.573191 1.474193 1.144643
C -0.858840 2.147312 -0.315786
H -1.778592 1.803277 -0.791514
H -0.144216 2.379164 -1.107875
H -1.076475 3.073334 0.220428
