17
charge=0, multiplicity=1, basis=def2-QZVPP
C -3.023563 0.701750 0.505796
C -1.507950 0.626269 0.659921
C -0.844994 -0.200206 -0.445204
C 0.624088 -0.279969 -0.305288
C 1.720974 -0.704132 0.585391
C 1.870043 -0.817026 -0.879899
C 1.865815 0.513710 -0.238586
H -3.475678 1.294659 1.302703
H -3.472827 -0.293964 0.536390
H -3.300446 1.159428 -0.447141
H -1.253275 0.190087 1.629842
H -1.082062 1.633461 0.653146
H -1.091247 0.232633 -1.420982
H -1.262873 -1.212878 -0.442910
H 1.977768 -1.153746 1.520444
H 2.298453 -1.400185 -1.666591
H 2.292821 1.493033 -0.270461
