17
charge=0, multiplicity=1, basis=def2-QZVPP
C -1.022679 2.054120 0.000000
H -1.016317 2.695376 -0.883818
H -1.950777 1.480118 0.000000
H -1.016317 2.695376 0.883818
C 0.191696 1.108088 0.000000
H 1.086220 1.747854 0.000000
C 0.219966 0.266495 -1.244792
H 0.224701 0.804182 -2.187841
C 0.219966 -1.061236 -1.248148
H 0.228861 -1.595245 -2.192398
C 0.213415 -1.890867 -0.000000
H 1.076085 -2.570612 -0.000000
H -0.659799 -2.557134 -0.000000
C 0.219966 -1.061236 1.248148
H 0.228861 -1.595245 2.192398
C 0.219966 0.266495 1.244792
H 0.224701 0.804182 2.187841
