19
charge=0, multiplicity=1, basis=def2-QZVPP
C 2.901843 -0.000671 0.303118
H 3.864095 0.000552 -0.192591
H 2.909981 -0.003394 1.387521
C 1.763921 0.001052 -0.379733
H 1.799694 0.003849 -1.467860
C 0.394687 -0.000450 0.212773
H 0.478896 -0.003167 1.305384
C -0.475651 1.195611 -0.212173
H -0.371771 1.339719 -1.291928
H -0.169619 2.125506 0.267917
C -1.915504 0.776130 0.137026
H -2.636520 1.184994 -0.571261
H -2.192318 1.156801 1.121476
C -1.913395 -0.777553 0.141536
H -2.178696 -1.152688 1.131348
H -2.640289 -1.193283 -0.556671
C -0.475806 -1.194315 -0.217411
H -0.376792 -1.330204 -1.298749
H -0.167230 -2.127521 0.254605
