21
charge=0, multiplicity=1, basis=def2-QZVPP
C -2.104659 -1.394446 -0.021176
H -2.002636 -1.772736 0.998804
H -1.339950 -1.880499 -0.630695
H -3.082544 -1.704030 -0.394824
C -1.945556 0.124334 -0.059019
H -2.739938 0.593851 0.530359
H -2.075588 0.482223 -1.085281
C -0.600536 0.578998 0.451702
H -0.399014 0.304701 1.483516
C 0.600197 0.578822 -0.451599
H 0.398590 0.303935 -1.483236
C 1.945319 0.124675 0.059271
H 2.074941 0.482385 1.085651
H 2.739592 0.594753 -0.529810
C 2.105289 -1.394008 0.021073
H 1.340469 -1.880745 0.629910
H 2.004241 -1.772081 -0.999088
H 3.083109 -1.703117 0.395292
C -0.000200 1.883265 -0.000240
H 0.554417 2.470878 0.720347
H -0.554821 2.470631 -0.721028
