17
charge=0, multiplicity=1, basis=def2-QZVPP
C -2.841935 0.586901 -0.360237
H -3.431928 1.464921 -0.130968
H -3.112510 0.034815 -1.253452
C -1.836392 0.202935 0.413508
H -1.586841 0.784421 1.296636
C -0.970879 -0.997062 0.162758
H -1.072788 -1.711574 0.989864
H -1.307157 -1.528830 -0.733589
C 0.461029 -0.652036 0.024042
C 1.840958 -1.224079 -0.153816
H 2.338810 -1.716006 0.684339
H 2.141056 -1.619619 -1.126070
C 1.413067 0.215590 -0.031154
C 1.911915 1.601283 -0.007742
H 1.096291 2.316189 0.107756
H 2.448393 1.831984 -0.932212
H 2.620096 1.742501 0.813541
