17
charge=0, multiplicity=1, basis=def2-QZVPP
C 2.304901 -1.024315 0.354737
H 2.076458 -2.046402 0.045174
H 3.384835 -0.879159 0.274158
H 2.024849 -0.925333 1.405138
C 1.555004 -0.022423 -0.491650
H 1.794712 -0.053202 -1.551430
C 0.190015 0.377483 -0.147326
C -1.067932 0.052701 -0.042987
C -2.428454 0.436843 0.334878
H -2.974184 1.123758 -0.302403
H -2.677080 0.512938 1.387603
C -2.111432 -0.957780 -0.225060
H -2.449008 -1.185745 -1.230016
H -2.152533 -1.797537 0.459697
C 1.242431 1.376694 0.059889
H 1.556740 1.595060 1.075499
H 1.308014 2.220405 -0.618308
