19
charge=0, multiplicity=1, basis=def2-QZVPP
C -2.147808 0.294350 0.442686
C -0.730906 0.792297 0.140375
C -0.158312 1.576271 1.321418
C 0.155691 -0.346070 -0.266014
C 0.445944 -0.895611 -1.627187
C 1.553907 -0.444200 -0.727614
C 1.132660 -1.178022 0.507658
H -2.813529 1.125976 0.684038
H -2.138474 -0.389723 1.294613
H -2.565044 -0.240648 -0.411804
H -0.788769 1.470154 -0.720105
H -0.115906 0.954894 2.218721
H -0.784242 2.441242 1.547674
H 0.850731 1.935141 1.109737
H 0.199935 -0.249716 -2.464626
H 0.322242 -1.959198 -1.829844
H 2.306476 0.313450 -0.867803
H 1.472130 -0.774952 1.455489
H 1.062187 -2.265209 0.483584
