19
charge=0, multiplicity=1, basis=def2-QZVPP
C 2.676087 -0.476394 0.011223
H 3.069075 0.530825 -0.015051
H 3.403384 -1.276819 0.037571
C 1.366943 -0.745614 0.014009
H 1.082425 -1.788360 0.049685
C 0.284708 0.238700 -0.005036
C -1.015071 -0.133611 -0.000861
C -1.491977 -1.562008 -0.025350
H -1.948059 -1.827577 0.934120
H -0.719664 -2.292662 -0.242937
H -2.275842 -1.675667 -0.780024
C -2.170271 0.829846 0.029633
H -1.891286 1.855973 0.247535
H -2.896490 0.514664 0.784896
H -2.701421 0.820061 -0.928392
C 0.729663 1.678747 -0.022727
H -0.094875 2.381444 -0.076273
H 1.374944 1.865102 -0.884922
H 1.317316 1.915022 0.868448
