17
charge=0, multiplicity=1, basis=def2-QZVPP
C 1.492824 1.017571 0.000146
H 1.702283 2.079894 0.000355
C 2.393893 -0.199090 -0.000057
H 3.015858 -0.337228 0.887442
H 3.016325 -0.336950 -0.887262
C 1.065548 -1.032323 -0.000350
H 0.913845 -1.650460 0.887331
H 0.913885 -1.649668 -0.888597
C 0.353487 0.311746 0.000088
C -1.068371 0.650743 0.000560
H -1.279567 1.713530 0.001699
C -2.054411 -0.223091 0.747616
H -1.660045 -1.093605 1.253799
H -2.865515 0.269463 1.266047
C -2.054718 -0.221539 -0.747946
H -2.866056 0.271943 -1.265121
H -1.660526 -1.091026 -1.256038
