19
charge=0, multiplicity=1, basis=def2-QZVPP
C -2.576054 -0.147485 0.000418
H -3.428014 -0.829325 0.000313
H -2.659512 0.495429 -0.878347
H -2.659421 0.495050 0.879479
C -1.264863 -0.922153 0.000181
H -1.231911 -1.583133 0.873763
H -1.232419 -1.583454 -0.873183
C -0.000002 -0.065296 -0.000281
C -0.000260 1.293479 -0.645699
H -0.000481 1.858172 -1.562111
C 0.000221 1.293478 0.645209
H 0.000438 1.858130 1.561646
C 1.264882 -0.922142 -0.000818
H 1.232532 -1.582150 -0.875167
H 1.231845 -1.584425 0.871766
C 2.576067 -0.147465 0.000724
H 3.428036 -0.829296 0.000731
H 2.660107 0.496025 -0.877558
H 2.658848 0.494482 0.880271
