17
charge=0, multiplicity=1, basis=def2-QZVPP
C 2.623182 0.304952 -0.042385
H 2.421515 1.353753 -0.265775
H 3.497857 0.006485 -0.622917
H 2.886000 0.234000 1.015909
C 1.423578 -0.578121 -0.371233
H 1.682004 -1.625246 -0.191410
H 1.174023 -0.494682 -1.432044
C 0.167261 -0.241264 0.452120
H 0.436224 -0.310041 1.517127
C -0.995898 -1.156040 0.179783
H -0.938471 -2.231582 0.262268
C -2.066885 -0.431283 -0.180288
H -3.043715 -0.816205 -0.437063
C -1.707442 0.989851 -0.174769
H -2.384971 1.794435 -0.424042
C -0.420304 1.119511 0.185564
H 0.128576 2.043448 0.285196
