19
charge=0, multiplicity=1, basis=def2-QZVPP
C -2.709630 0.135848 0.000926
H -2.855566 -0.495139 -0.877902
H -3.484562 0.905075 -0.001155
H -2.853300 -0.488096 0.885137
C -1.311240 0.756088 -0.003313
H -1.196312 1.404544 0.871657
H -1.198579 1.397621 -0.883639
C -0.220670 -0.261712 -0.000780
C 0.554796 -0.874444 -1.127134
H 0.618179 -1.958037 -1.226758
H 0.524829 -0.341883 -2.073930
C 1.251811 -0.177364 0.000734
C 2.205817 0.967067 -0.000041
H 2.065083 1.590636 -0.886429
H 3.244540 0.627299 0.003223
H 2.060921 1.595056 0.882560
C 0.552288 -0.870346 1.129549
H 0.520268 -0.334330 2.074337
H 0.615467 -1.953569 1.233260
