19
charge=0, multiplicity=1, basis=def2-QZVPP
C -2.405230 -0.423743 0.298178
H -2.958391 -0.915541 -0.508143
H -2.829017 0.571792 0.440584
H -2.590159 -1.004686 1.207065
C -0.953608 -0.361534 -0.010895
C 0.049637 -1.466713 -0.282541
H -0.133133 -2.072255 -1.174670
H 0.257238 -2.135852 0.557421
C 1.099502 -0.314398 -0.460854
H 1.464975 -0.239999 -1.490963
C 2.271152 -0.303026 0.507458
H 2.960700 -1.125845 0.303828
H 2.836357 0.629451 0.434122
H 1.920156 -0.401245 1.537938
C -0.059498 0.625405 -0.161823
C -0.103416 2.107615 -0.078379
H 0.591465 2.481034 0.680191
H 0.190997 2.564671 -1.028452
H -1.102421 2.466836 0.174218
