17
charge=0, multiplicity=1, basis=def2-QZVPP
C -1.063655 1.931880 -0.261279
H -1.115227 2.990335 -0.041931
H -1.818245 1.530987 -0.924042
C -0.090598 1.178961 0.247521
H 0.643904 1.665128 0.880307
C 0.121878 -0.260127 0.009940
C 1.364903 -0.774700 -0.077879
H 1.445113 -1.843921 -0.252299
C 2.664957 -0.048909 0.016274
H 2.548338 1.017936 0.194632
H 3.285823 -0.466769 0.814766
H 3.234838 -0.167754 -0.910931
C -1.011130 -1.186406 -0.115354
H -0.733908 -2.176953 -0.464746
C -2.290470 -0.968738 0.189633
H -2.645052 -0.021246 0.569165
H -3.020890 -1.759513 0.081945
