17
charge=0, multiplicity=1, basis=def2-QZVPP
C 1.351022 1.871074 0.246642
H 2.053785 2.674242 0.426126
H 0.302256 2.074585 0.422833
C 1.760589 0.684308 -0.175615
H 2.819826 0.509846 -0.343822
C 0.890521 -0.520701 -0.450272
H 1.045641 -0.792013 -1.503038
C -0.535193 -0.265646 -0.262978
C -1.707891 -0.069387 -0.090531
C -3.129412 0.168870 0.111878
H -3.702177 -0.086706 -0.782365
H -3.322868 1.218826 0.342710
H -3.515258 -0.431112 0.939009
C 1.354995 -1.721888 0.399327
H 2.412822 -1.924519 0.222491
H 0.782621 -2.614073 0.146049
H 1.215562 -1.508850 1.459311
