19
charge=0, multiplicity=1, basis=def2-QZVPP
C 2.178131 -0.739107 0.977345
H 1.251758 -1.242159 1.225249
H 3.041940 -0.958241 1.591497
C 2.253269 0.113796 -0.035692
H 3.202520 0.599262 -0.247507
C 1.120139 0.505241 -0.950406
H 1.476143 0.420380 -1.983630
H 0.917482 1.571385 -0.809312
C -0.130794 -0.307634 -0.797546
H -0.123544 -1.265951 -1.309223
C -1.215402 0.005726 -0.087659
C -2.398368 -0.919563 -0.027754
H -2.607440 -1.220107 1.003818
H -2.237901 -1.819592 -0.621023
H -3.301478 -0.422381 -0.395877
C -1.365494 1.267807 0.712586
H -1.557166 1.027695 1.762764
H -2.226183 1.847013 0.363776
H -0.485011 1.905109 0.674227
