19
charge=0, multiplicity=1, basis=def2-QZVPP
C 2.678059 0.000011 0.206225
H 2.601378 0.000253 1.296678
H 3.250931 -0.883077 -0.087831
H 3.251162 0.882820 -0.088206
C 1.302517 0.000012 -0.428316
H 1.391745 0.000008 -1.516786
C 0.284920 1.089067 0.016116
H 0.117306 1.924413 -0.664988
H 0.523161 1.483238 1.007657
C -0.786639 0.000007 0.066610
C -2.054932 -0.000018 -0.725818
H -2.335912 0.910748 -1.239874
H -2.335766 -0.910814 -1.239886
C -2.092948 -0.000012 0.785675
H -2.400167 0.910315 1.285377
H -2.400159 -0.910309 1.285432
C 0.284962 -1.089058 0.016121
H 0.523241 -1.483179 1.007671
H 0.117451 -1.924476 -0.664929
