17
charge=0, multiplicity=1, basis=def2-QZVPP
C 1.402652 -1.726006 0.126840
H 1.083998 -2.320994 0.989071
H 2.380046 -1.295286 0.350910
H 1.524996 -2.421030 -0.708961
C 0.405404 -0.671837 -0.185960
C -1.100239 -0.760112 -0.401879
H -1.625506 -1.389499 -1.105984
C -1.100288 0.760043 -0.401864
H -1.625593 1.389399 -1.105969
C -1.817997 -0.000048 0.691025
H -1.408268 -0.000053 1.695126
H -2.902846 -0.000050 0.640453
C 0.405370 0.671855 -0.185938
C 1.402530 1.726090 0.126838
H 1.082668 2.322439 0.987665
H 1.526530 2.419831 -0.709798
H 2.379391 1.295332 0.353105
