17
charge=0, multiplicity=1, basis=def2-QZVPP
C 2.865798 -0.973984 -0.128901
H 3.550542 -1.760765 -0.328334
C 2.098188 -0.081123 0.103809
C 1.148498 0.993799 0.360700
H 1.644067 1.953806 0.190554
H 0.859990 0.971622 1.415910
C -0.116938 0.905143 -0.511811
H 0.172474 0.947162 -1.565277
H -0.730036 1.789055 -0.313846
C -0.929117 -0.336671 -0.248453
H -0.405329 -1.262777 -0.453203
C -2.407356 -0.342151 -0.507800
H -2.858058 -1.241272 -0.905410
H -2.860043 0.575603 -0.861136
C -1.890253 -0.368548 0.907381
H -1.997260 0.533194 1.497480
H -1.989268 -1.284416 1.473709
