17
charge=0, multiplicity=1, basis=def2-QZVPP
C -1.220926 1.881522 -0.243642
H -0.549834 2.663265 -0.571619
H -2.277645 2.111861 -0.200508
C -0.769735 0.670656 0.101097
C -1.693921 -0.438019 0.552940
H -2.704309 -0.034667 0.643866
H -1.385919 -0.765465 1.550472
C -1.691038 -1.640217 -0.393812
H -2.028668 -1.349036 -1.390129
H -0.688171 -2.058664 -0.488025
H -2.353690 -2.424579 -0.024218
C 0.620236 0.352222 0.050660
C 1.781388 0.031851 0.028260
C 3.187859 -0.333236 -0.007019
H 3.771566 0.288351 0.676198
H 3.331989 -1.376214 0.283038
H 3.601502 -0.203525 -1.009971
