17
charge=0, multiplicity=1, basis=def2-QZVPP
C 2.255484 -1.395537 -0.212562
H 2.906063 -2.221143 -0.364188
C 1.531720 -0.448559 -0.050368
C 0.634057 0.637884 0.174646
C -0.577549 0.337795 1.027446
H -1.134827 1.265771 1.176145
H -0.236432 0.001997 2.011009
C -1.500135 -0.732304 0.428784
H -0.936364 -1.660784 0.308455
H -2.293402 -0.941715 1.151235
C -2.112995 -0.322755 -0.906536
H -2.781197 -1.097682 -1.285731
H -1.342277 -0.147752 -1.658819
H -2.692310 0.598828 -0.806853
C 0.867355 1.841471 -0.357494
H 0.182090 2.662037 -0.189604
H 1.741033 2.032466 -0.965141
