17
charge=0, multiplicity=1, basis=def2-QZVPP
C -2.039521 -1.182958 -0.119229
H -1.879747 -1.181981 -1.199687
H -1.617092 -2.107046 0.286092
H -3.117804 -1.211242 0.061422
C -1.409173 0.041484 0.516966
H -1.502391 0.054926 1.606340
C -0.214942 0.723761 -0.090162
C 1.205991 0.576999 -0.318007
H 1.681486 1.384519 -0.860699
C 2.044983 -0.113089 0.741119
H 3.037296 0.279061 0.915222
H 1.528842 -0.454718 1.627302
C 1.767936 -0.813880 -0.546382
H 2.568007 -0.907796 -1.267425
H 1.063744 -1.633632 -0.538996
C -1.334619 1.361517 -0.197669
H -1.886267 2.214906 -0.549387
