17
charge=0, multiplicity=1, basis=def2-QZVPP
C 1.937357 -1.730744 0.000208
H 2.393428 -2.069319 0.925179
H 2.394112 -2.068824 -0.924601
C 0.893643 -0.957535 0.000035
C -0.166666 -0.183464 0.000131
C -0.050242 1.326670 0.000713
H -0.589579 1.706571 0.874311
H -0.591472 1.707384 -0.871334
C 1.373592 1.866789 -0.000591
H 1.925387 1.531467 0.878715
H 1.923469 1.532106 -0.881349
H 1.365615 2.957674 -0.000172
C -1.498068 -0.797787 -0.000464
H -1.506537 -1.882248 -0.001309
C -2.657140 -0.138096 -0.000003
H -3.597582 -0.672178 -0.000485
H -2.711700 0.942376 0.000869
