19
charge=0, multiplicity=1, basis=def2-QZVPP
C -1.050116 2.190125 -0.134683
H -0.830540 2.807949 0.730257
H -1.361258 2.705167 -1.037619
C -0.944764 0.893146 -0.090315
C -0.836177 -0.404489 -0.035205
C 0.437189 -1.138976 -0.402306
H 0.237075 -1.705596 -1.319384
H 0.626607 -1.893123 0.371208
C 1.685407 -0.279263 -0.589335
H 1.460885 0.537058 -1.280627
H 2.455029 -0.889348 -1.069664
C 2.236525 0.287437 0.717132
H 2.509950 -0.517011 1.404693
H 1.501886 0.918673 1.217147
H 3.128839 0.890157 0.538856
C -2.002234 -1.271023 0.371434
H -1.755268 -1.845063 1.269190
H -2.892463 -0.678311 0.572977
H -2.235719 -1.992300 -0.417366
