17
charge=0, multiplicity=1, basis=def2-QZVPP
C -2.244796 -0.606323 -0.635028
H -3.188575 -0.080242 -0.699793
H -2.210641 -1.607239 -1.047012
C -1.173377 -0.045485 -0.074988
C 0.113702 -0.787104 -0.018274
H 0.060362 -1.788153 -0.434518
C 1.414218 -0.113200 -0.147402
C 2.239133 0.557454 -0.921609
H 3.190017 0.922521 -0.551261
H 1.994545 0.764650 -1.956680
C 1.097592 -0.647070 1.169911
H 1.584959 -1.554525 1.507240
H 0.844697 0.046564 1.963015
C -1.214924 1.340665 0.502104
H -2.183983 1.804874 0.326045
H -0.439670 1.972725 0.063396
H -1.041002 1.325197 1.581285
