19
charge=0, multiplicity=1, basis=def2-QZVPP
C 2.348871 -1.011788 0.320391
H 2.368351 -1.532236 -0.630959
H 2.852864 -1.491648 1.149346
C 1.737548 0.157147 0.457161
H 1.734255 0.639789 1.431720
C 1.014538 0.885156 -0.632172
H 1.529235 1.828376 -0.844392
H 1.048095 0.298796 -1.553068
C -0.444311 1.220571 -0.261875
H -0.450052 1.911603 0.584132
H -0.894598 1.751291 -1.108251
C -1.287795 0.018232 0.072822
C -1.414769 -1.029370 -0.995257
H -0.450407 -1.505407 -1.191176
H -2.121409 -1.807217 -0.708114
H -1.749371 -0.588395 -1.939193
C -1.885427 -0.105037 1.254433
H -2.498471 -0.965284 1.493868
H -1.780421 0.650865 2.023074
