19
charge=0, multiplicity=1, basis=def2-QZVPP
C 2.939266 0.065359 0.000046
H 3.471297 0.260026 -0.924757
H 3.471245 0.257951 0.925309
C 1.717140 -0.382882 -0.000497
C 0.494557 -0.826203 -0.001196
H 0.338828 -1.903436 -0.002468
C -0.769942 0.017426 -0.000001
C -0.447139 1.512204 -0.000350
H -1.369751 2.095755 0.000861
H 0.133540 1.789831 0.880443
H 0.131255 1.789877 -0.882642
C -1.586447 -0.337474 -1.253350
H -1.820995 -1.403764 -1.280754
H -1.033075 -0.089579 -2.160492
H -2.528656 0.215219 -1.264031
C -1.584081 -0.337425 1.254919
H -1.029140 -0.089128 2.160982
H -1.818239 -1.403779 1.283002
H -2.526429 0.215004 1.267119
