19
charge=0, multiplicity=1, basis=def2-QZVPP
C -3.291105 -0.351424 -0.095864
H -3.279620 -1.290690 -0.654287
H -3.517158 -0.589867 0.946349
H -4.111449 0.255084 -0.483179
C -1.956548 0.377008 -0.216870
H -1.762683 0.630257 -1.262635
H -1.998182 1.325315 0.325733
C -0.785011 -0.447068 0.317200
H -0.722664 -1.403549 -0.215521
H -0.958204 -0.714266 1.366956
C 0.516523 0.237505 0.213928
C 1.993727 0.107113 0.456274
H 2.349979 0.195050 1.486077
C 2.867779 -0.787243 -0.401115
H 2.466463 -0.863401 -1.414319
H 3.886763 -0.396136 -0.471698
H 2.933244 -1.797038 0.014387
C 1.225552 1.263421 -0.123235
H 1.288013 2.253373 -0.539767
