19
charge=0, multiplicity=1, basis=def2-QZVPP
C 3.737120 -0.353228 -0.280326
H 3.735073 -1.436955 -0.259030
H 4.685920 0.131670 -0.465577
C 2.617768 0.347228 -0.085876
H 2.659772 1.432868 -0.114057
C 1.315004 -0.236873 0.166599
H 1.266168 -1.323068 0.196416
C 0.198075 0.469968 0.361754
H 0.258471 1.556083 0.325874
C -1.157740 -0.106984 0.605239
H -1.088388 -1.195935 0.681714
H -1.538959 0.251127 1.569714
C -2.172525 0.268142 -0.483527
H -2.218435 1.358182 -0.570288
H -1.809380 -0.100288 -1.446950
C -3.566354 -0.285508 -0.204838
H -3.550099 -1.376073 -0.138957
H -3.959455 0.096311 0.740526
H -4.268783 -0.010394 -0.993538
