17
charge=0, multiplicity=1, basis=def2-QZVPP
C 2.466737 -0.534085 0.110453
H 3.269218 0.192158 0.069334
H 2.746386 -1.562090 0.307694
C 1.202553 -0.180393 -0.076056
C -0.000476 -1.103291 -0.006431
H -0.061945 -1.748817 -0.886577
H 0.059866 -1.762442 0.863446
C -1.202441 -0.179398 0.074831
C -2.468342 -0.532710 -0.100446
H -3.270351 0.193572 -0.051393
H -2.749964 -1.560507 -0.295968
C -0.696337 1.223212 0.322237
H -0.593346 1.388441 1.400577
H -1.366020 1.989263 -0.067450
C 0.698546 1.222525 -0.324759
H 1.368856 1.988146 0.064631
H 0.595868 1.387118 -1.403261
