21
charge=0, multiplicity=1, basis=def2-QZVPP
C -3.745442 -0.496853 -0.077300
H -3.753491 -0.947913 0.916115
H -4.557346 0.235006 -0.125088
H -3.983698 -1.276593 -0.806896
C -2.424760 0.139222 -0.377134
H -2.329840 0.613528 -1.351983
C -1.382354 0.167734 0.445623
H -1.473004 -0.309345 1.420369
C -0.054747 0.788790 0.140740
H 0.165478 1.565023 0.883702
H -0.097895 1.290730 -0.830338
C 1.094900 -0.225131 0.143368
H 1.116350 -0.745108 1.107512
H 0.894555 -0.992361 -0.611367
C 2.458080 0.409222 -0.119409
H 2.431422 0.932877 -1.080667
H 2.650061 1.175884 0.638461
C 3.598240 -0.604883 -0.121699
H 3.446200 -1.364663 -0.892134
H 3.667412 -1.120095 0.839471
H 4.560289 -0.125579 -0.312286
