19
charge=0, multiplicity=1, basis=def2-QZVPP
C 2.226413 -0.237867 0.112831
H 2.674756 -1.120537 -0.349541
H 2.934579 0.587534 0.009843
H 2.112500 -0.441007 1.179562
C 0.894228 0.104956 -0.537832
H 1.064733 0.284446 -1.602765
C -0.210867 -0.958138 -0.372886
H 0.017633 -1.962911 -0.724711
C -0.739241 -0.691873 1.063261
H -0.025773 -0.652943 1.887082
H -1.574523 -1.341173 1.322791
C -1.199995 0.645690 0.427374
H -1.972308 1.261836 0.883767
C -1.465314 -0.184344 -0.857870
H -1.408992 0.327620 -1.820747
H -2.377844 -0.776137 -0.795099
C 0.141337 1.319820 0.099623
H 0.645773 1.688147 0.995316
H 0.030097 2.155658 -0.592496
