19
charge=0, multiplicity=1, basis=def2-QZVPP
C 2.738146 0.848152 0.351791
H 3.205013 1.571815 -0.323136
H 3.519690 0.515110 1.041268
H 1.983255 1.374915 0.933724
C 2.176324 -0.309054 -0.414335
H 2.895324 -0.867633 -1.005970
C 0.908010 -0.718694 -0.444772
H 0.672688 -1.585479 -1.057577
C -0.241943 -0.131345 0.261022
H -0.032903 0.729235 0.883084
C -1.605796 -0.125160 -0.395992
H -1.641596 -0.602792 -1.369169
C -2.508393 1.072433 -0.248764
H -2.415574 1.509336 0.748023
H -3.556291 0.797579 -0.393070
H -2.260572 1.847840 -0.977396
C -1.351977 -1.036801 0.762566
H -1.248803 -2.097924 0.577738
H -1.806452 -0.789192 1.713395
