19
charge=0, multiplicity=1, basis=def2-QZVPP
C 3.326063 -0.934974 -0.078894
H 3.879231 -0.935863 0.863091
H 4.007278 -0.602284 -0.865366
H 3.042215 -1.966682 -0.298920
C 2.154507 -0.074520 0.001413
C 1.190340 0.639613 0.071709
C 0.003020 1.485096 0.140181
H 0.182615 2.402093 -0.428834
H -0.159789 1.795812 1.177857
C -1.267584 0.798933 -0.387813
H -2.080206 1.532055 -0.384218
H -1.107470 0.510939 -1.430843
C -1.681504 -0.425455 0.422248
H -0.854461 -1.139897 0.435855
H -1.846080 -0.127213 1.463207
C -2.937429 -1.097958 -0.123679
H -3.786615 -0.409926 -0.124569
H -2.785710 -1.435278 -1.151919
H -3.215480 -1.968163 0.473668
