17
charge=0, multiplicity=1, basis=def2-QZVPP
C 1.703590 1.583063 0.000104
H 2.742191 1.888969 0.000312
H 0.952197 2.362574 -0.000175
C 1.368831 0.303744 0.000253
C 0.415433 -0.736219 -0.000309
C -0.828338 -1.193391 -0.000187
H -0.970254 -2.270907 -0.000473
C -2.079279 -0.367518 0.000402
H -2.682837 -0.658274 -0.868168
H -2.681501 -0.657563 0.870153
C -1.864673 1.141026 -0.000285
H -1.304987 1.457361 0.880727
H -1.305373 1.456636 -0.881805
H -2.821078 1.665731 -0.000273
C 1.862582 -1.104684 -0.000025
H 2.301749 -1.499961 -0.912712
H 2.301009 -1.500689 0.912705
