17
charge=0, multiplicity=1, basis=def2-QZVPP
C 1.706732 -0.000623 -0.124710
C 0.819660 -1.224206 0.215655
C -0.604517 -0.774683 -0.029729
C -1.393165 0.000190 0.978887
C -0.603888 0.775183 -0.029150
C 0.820624 1.223420 0.216647
C -0.983648 0.000827 -1.250987
H 1.942466 -0.000189 -1.190976
H 2.660739 -0.001252 0.406239
H 0.929440 -1.498265 1.266874
H 1.088447 -2.103897 -0.370714
H -1.018506 -0.000360 1.997304
H -2.479171 0.000646 0.910577
H 0.930571 1.496533 1.268180
H 1.090141 2.103380 -0.368939
H -0.282533 0.000714 -2.078470
H -2.025381 0.001398 -1.561608
