21
charge=0, multiplicity=1, basis=def2-QZVPP
C -1.504266 1.611740 -0.096451
H -2.479520 1.199695 0.169838
H -1.420540 2.591985 0.377934
H -1.488551 1.764167 -1.179318
C -0.368659 0.693835 0.330422
H -0.431636 0.536794 1.415587
C -0.368567 -0.693894 -0.330587
H -0.433043 -0.536663 -1.415631
C -1.503082 -1.612687 0.097162
H -2.478830 -1.200888 -0.167664
H -1.419410 -2.592533 -0.378074
H -1.485967 -1.765958 1.179884
C 1.030684 -1.232637 0.000227
H 1.007233 -1.690376 0.993499
H 1.352768 -2.007814 -0.696703
C 1.965375 0.000765 0.001425
H 2.614463 -0.003948 0.877798
H 2.619971 0.006222 -0.870809
C 1.029622 1.233072 -0.002272
H 1.005548 1.686745 -0.997424
H 1.350870 2.011417 0.691530
