17
charge=0, multiplicity=1, basis=def2-QZVPP
C 3.147602 -0.212720 -0.000169
H 3.884428 -1.004251 -0.000004
H 3.519466 0.805402 -0.000746
C 1.836511 -0.475219 0.000307
H 1.520693 -1.511762 0.000946
C 0.819429 0.551879 0.000129
H 1.199274 1.569681 0.000128
C -0.524170 0.391259 -0.000019
C -1.154935 -0.921460 -0.000254
H -0.495294 -1.780269 -0.000843
C -2.471668 -1.150060 0.000069
H -2.860213 -2.159497 -0.000180
H -3.200545 -0.350659 0.000614
C -1.418570 1.599152 -0.000035
H -2.069223 1.608393 -0.878579
H -0.834173 2.517902 0.000264
H -2.069610 1.608086 0.878227
