17
charge=0, multiplicity=1, basis=def2-QZVPP
C 1.692682 1.271046 0.000300
H 1.094296 1.506942 0.882776
H 1.093906 1.507587 -0.881736
H 2.561829 1.931013 0.000332
C 2.121064 -0.192232 -0.000248
H 2.763890 -0.373281 0.870242
H 2.763277 -0.372770 -0.871292
C 0.991823 -1.188185 -0.000111
H 1.272167 -2.236489 -0.000094
C -0.303063 -0.894594 0.000072
C -1.425969 0.010406 -0.000032
C -1.902914 1.401710 -0.000196
H -2.991510 1.453882 -0.000053
H -1.519089 1.929497 -0.876599
H -1.518875 1.929743 0.875963
C -1.688770 -1.277568 0.000331
H -2.429008 -2.059622 -0.000240
