19
charge=0, multiplicity=1, basis=def2-QZVPP
C 1.775772 -0.000473 -0.976511
H 1.435202 -0.000616 -2.014150
H 2.403267 -0.882830 -0.828436
H 2.403748 0.881609 -0.828845
C 0.593983 0.000002 -0.010696
C -0.344296 -1.224596 -0.222645
H -0.111107 -2.037961 0.470475
H -0.236620 -1.639136 -1.231881
C -1.726134 -0.664398 -0.029087
H -2.607145 -1.286230 0.065326
C -1.726152 0.664307 -0.029555
H -2.607181 1.286187 0.064386
C -0.344363 1.224402 -0.223698
H -0.236844 1.638116 -1.233291
H -0.111142 2.038363 0.468721
C 1.100911 0.000716 1.435530
H 0.266049 0.000856 2.139371
H 1.711918 -0.882740 1.634569
H 1.711536 0.884617 1.633725
