17
charge=0, multiplicity=1, basis=def2-QZVPP
C 2.593652 -0.000004 0.259795
H 3.180617 -0.883147 -0.004620
H 2.462576 0.000086 1.345277
H 3.180691 0.883051 -0.004757
C 1.249417 -0.000007 -0.441173
H 1.394259 -0.000027 -1.523838
C 0.221824 -1.096420 -0.039509
H 0.050445 -1.901100 -0.756478
H 0.449689 -1.538995 0.934475
C -0.852883 0.000009 0.044164
C -2.210734 -0.000026 -0.567717
H -2.786537 -0.000073 -1.477436
C -2.177024 0.000020 0.725323
H -2.708373 0.000068 1.661497
C 0.221821 1.096432 -0.039548
H 0.050500 1.901092 -0.756556
H 0.449692 1.539027 0.934425
