17
charge=0, multiplicity=1, basis=def2-QZVPP
C 2.501891 0.439759 0.092502
H 3.347177 0.907548 -0.393496
H 2.554034 0.318098 1.167341
C 1.445885 0.022254 -0.605672
H 1.447630 0.133012 -1.687019
C 0.251387 -0.572826 -0.042548
C -0.340125 -0.459426 1.327043
H -0.639755 -1.362550 1.857238
H 0.067134 0.318187 1.966162
C -1.123999 0.007171 0.143220
C -1.649668 1.363582 -0.173276
H -1.613368 1.554766 -1.248063
H -1.059802 2.133600 0.329621
H -2.688030 1.474531 0.148750
C -0.937007 -1.183712 -0.730203
H -1.289158 -2.162691 -0.406402
H -1.016043 -1.015307 -1.800529
