17
charge=0, multiplicity=1, basis=def2-QZVPP
C -3.753704 -0.271997 -0.000216
H -4.693553 0.262798 -0.000358
H -3.803612 -1.354636 -0.000357
C -2.581184 0.370281 0.000093
H -2.574000 1.457092 0.000244
C -1.290927 -0.277058 0.000144
H -1.286853 -1.364199 0.000200
C -0.116442 0.379649 0.000155
H -0.126129 1.466974 0.000224
C 1.177391 -0.257583 0.000108
H 1.185628 -1.345183 0.000343
C 2.343658 0.399492 -0.000178
H 2.324428 1.486753 -0.000421
C 3.690402 -0.242523 -0.000079
H 4.271487 0.059085 0.877052
H 4.272306 0.060416 -0.876184
H 3.615135 -1.330662 -0.000905
