15
charge=0, multiplicity=1, basis=def2-QZVPP
C -3.056273 0.001807 0.525204
H -2.602521 -0.007481 1.515205
H -3.713928 -0.867223 0.436200
H -3.686576 0.891308 0.440193
C -2.007865 -0.011841 -0.554035
H -2.369623 -0.006931 -1.581033
C -0.721053 -0.030230 -0.347387
C 0.561648 -0.038626 -0.133198
C 1.640804 1.060329 0.043199
H 1.506569 1.691744 0.923617
H 1.796836 1.687896 -0.836337
C 2.591299 -0.120172 0.202388
H 3.655278 -0.176798 0.378572
C 1.625724 -1.042712 0.044029
H 1.608261 -2.123842 0.042380
