15
charge=0, multiplicity=1, basis=def2-QZVPP
C 0.823217 0.187211 -1.867562
C -0.135063 -0.670177 -1.932416
C -0.373210 0.492341 -1.004284
C -0.328371 0.330532 0.470037
C -1.055612 -0.625226 1.365782
C 0.438997 -0.588116 1.337183
C 0.626512 0.888502 1.480701
H 1.799073 0.514782 -2.178419
H -0.541236 -1.580002 -2.336762
H -1.053141 1.277346 -1.336228
H -1.532931 -1.468309 0.876081
H -1.584221 -0.258236 2.245067
H 1.145735 -1.352544 1.060979
H 1.548525 1.304630 1.086814
H 0.250277 1.392582 2.370427
