15
charge=0, multiplicity=1, basis=def2-QZVPP
C -1.422062 -0.679809 0.187244
H -2.357045 -1.176267 0.424567
C -0.345196 -1.521248 -0.268927
H -0.631524 -2.466509 -0.718938
C 0.961700 -1.213988 -0.202882
H 1.689110 -1.861216 -0.679145
C 1.451092 0.000512 0.533631
H 2.537205 0.000909 0.610109
H 1.040438 0.000375 1.549938
C 0.960825 1.214643 -0.202906
H 1.687775 1.862371 -0.679193
C -0.346279 1.521014 -0.268917
H -0.633269 2.466070 -0.718933
C -1.422547 0.678820 0.187258
H -2.357884 1.174605 0.424591
