15
charge=0, multiplicity=1, basis=def2-QZVPP
C -0.782907 -2.334568 -0.199433
C -0.077245 -1.501394 0.870982
C 0.153553 -0.105301 0.433462
C 0.714413 1.242689 0.804047
C -0.561640 1.131226 0.075049
C -0.169744 1.381409 -1.367073
C 0.904784 0.693013 -0.550113
H -0.942152 -3.357535 0.145104
H -0.188220 -2.372719 -1.113687
H -1.754943 -1.903898 -0.445746
H 0.884904 -1.953444 1.126355
H -0.669941 -1.488565 1.789573
H 1.209064 1.821482 1.558824
H 0.017756 2.412217 -1.649869
H -0.670279 0.786148 -2.123932
