15
charge=0, multiplicity=1, basis=def2-QZVPP
C 2.338649 1.371693 0.000012
H 1.752696 2.280120 -0.000156
H 3.415899 1.464343 0.000218
C 1.752720 0.178206 0.000081
C 0.582850 -0.660789 -0.000144
C -0.841071 -0.740070 -0.000131
H -1.291439 -1.727965 -0.000003
C -1.609791 0.357241 -0.000169
H -1.115676 1.324086 -0.000321
C -3.098629 0.357778 0.000130
H -3.504126 -0.654274 -0.001226
H -3.486338 0.887793 -0.875031
H -3.485838 0.885130 0.877145
C 1.771410 -1.246859 0.000067
H 2.337993 -2.162439 0.000297
