15
charge=0, multiplicity=1, basis=def2-QZVPP
C -3.395390 0.490013 0.000698
H -3.396853 1.485022 -0.449724
H -4.089131 -0.134464 -0.566478
H -3.782928 0.582480 1.017599
C -2.056831 -0.080811 -0.000429
C -0.953117 -0.553301 -0.001496
C 0.396147 -1.108974 0.000206
H 0.535960 -1.760517 0.871048
H 0.538379 -1.759820 -0.870751
C 1.463648 -0.083217 0.001452
C 2.952333 0.114411 0.000161
H 3.522421 -0.067206 0.911658
H 3.521457 -0.069451 -0.911503
C 1.849087 1.143791 -0.000735
H 1.615436 2.192489 -0.000985
