15
charge=0, multiplicity=1, basis=def2-QZVPP
C 2.964277 -0.022753 -0.127922
H 3.638215 -0.285764 0.680204
H 3.412375 0.277536 -1.068922
C 1.671379 -0.069309 0.023870
C 0.392084 -0.105789 0.177925
C -0.861970 0.650271 0.550988
H -0.999203 0.812797 1.618913
C -1.377185 1.761149 -0.337656
H -2.452072 1.897023 -0.199348
H -1.194681 1.526607 -1.386878
H -0.881649 2.705531 -0.105202
C -0.863640 -0.760405 0.100554
C -1.560061 -1.842094 -0.201384
H -1.074136 -2.742365 -0.555298
H -2.638154 -1.857787 -0.101717
