15
charge=0, multiplicity=1, basis=def2-QZVPP
C -3.488023 0.406533 -0.000035
H -3.686313 1.020402 0.882007
H -3.686577 1.019519 -0.882635
H -4.201949 -0.420062 0.000478
C -2.119722 -0.083811 0.000009
C -0.981924 -0.480963 0.000038
C 0.345381 -0.983675 0.000024
H 0.463144 -2.063749 -0.000075
C 1.428422 -0.219043 0.000170
C 1.994403 1.122130 0.000003
H 1.945719 1.708601 0.910863
H 1.945263 1.708544 -0.910869
C 2.883876 -0.133404 -0.000109
H 3.423296 -0.369823 0.910613
H 3.422945 -0.370027 -0.910985
