15
charge=0, multiplicity=1, basis=def2-QZVPP
C -2.756769 -0.629301 0.000046
H -3.339422 -0.335233 -0.877796
H -2.655493 -1.715670 -0.000601
H -3.338721 -0.335971 0.878556
C -1.442936 0.036544 -0.000155
C -0.770890 1.383757 0.000167
H -0.757034 1.984503 -0.911528
H -0.757071 1.984108 0.912123
C -0.150687 0.013586 -0.000072
C 1.124957 -0.690750 -0.000276
H 1.032893 -1.775939 -0.000832
C 2.348129 -0.072271 0.641886
H 2.807317 0.186387 1.578888
C 2.348147 -0.071524 -0.641679
H 2.807822 0.187575 -1.578320
