15
charge=0, multiplicity=1, basis=def2-QZVPP
C -3.304166 -0.346089 -0.000172
H -3.832911 -0.547759 -0.925638
H -3.832673 -0.549371 0.925082
C -2.090165 0.119791 0.000129
C -0.871317 0.581707 0.000283
H -0.720123 1.659315 0.001180
C 0.346769 -0.262885 -0.000604
H 0.154394 -1.334838 -0.002071
C 1.553218 0.240262 -0.741269
H 1.634923 1.060720 -1.433597
C 2.607917 -0.513917 -0.000393
H 2.587484 -1.602681 -0.001842
H 3.603843 -0.085231 0.000390
C 1.552887 0.238283 0.742021
H 1.634197 1.056936 1.436525
