15
charge=0, multiplicity=1, basis=def2-QZVPP
C -3.044756 -0.317050 0.000124
H -4.093504 -0.149627 0.000271
C -1.861228 -0.511132 -0.000045
C -0.427522 -0.754322 -0.000117
H -0.170923 -1.365437 0.871959
H -0.171020 -1.365303 -0.872316
C 0.447187 0.484641 -0.000050
C 1.893531 0.275626 0.000060
H 2.485298 1.185808 0.000175
C 2.526098 -0.898610 0.000054
H 2.001562 -1.845175 -0.000069
H 3.606452 -0.947786 0.000173
C -0.055925 1.721369 -0.000044
H 0.599275 2.582996 0.000015
H -1.121447 1.901397 -0.000097
