15
charge=0, multiplicity=1, basis=def2-QZVPP
C -3.009289 0.522544 -0.454321
H -3.955677 -0.023971 -0.461428
H -2.596137 0.514963 -1.461650
H -3.232874 1.555992 -0.178189
C -2.051475 -0.090341 0.531974
H -2.372744 -0.127649 1.571238
C -0.881731 -0.568859 0.235337
C 0.302212 -1.047150 -0.072712
H 0.399974 -2.094453 -0.347814
C 1.495106 -0.252861 -0.066022
C 2.045079 1.119392 0.184233
H 2.139382 1.479651 1.208528
H 1.858487 1.911441 -0.541019
C 2.772661 -0.126426 -0.240286
H 3.724204 -0.553777 -0.498883
