15
charge=0, multiplicity=1, basis=def2-QZVPP
C 3.686326 0.457599 0.089157
H 4.697489 0.775832 0.149694
C 2.538189 0.094889 0.019945
C 1.240096 -0.312525 -0.057562
C 0.090360 -0.676423 -0.129838
C -1.302487 -1.084749 -0.195299
H -1.407171 -2.065366 0.278938
H -1.585679 -1.217046 -1.245295
C -2.262926 -0.081974 0.471457
H -3.266406 -0.514203 0.445058
H -1.989089 0.019550 1.524122
C -2.264849 1.285317 -0.201933
H -2.561406 1.205793 -1.250673
H -1.273390 1.739613 -0.169511
H -2.962608 1.963026 0.292111
