15
charge=0, multiplicity=1, basis=def2-QZVPP
C -1.857409 0.122975 -0.086248
H -2.933502 0.139415 -0.197094
C -1.090056 -1.183316 0.222301
H -1.118250 -1.395592 1.297402
H -1.500329 -2.045329 -0.305280
C 0.283829 -0.702022 -0.260740
H 0.161796 -0.634096 -1.344558
C 0.310134 0.735114 0.269023
H 0.243145 0.695749 1.364737
C 1.830119 0.666667 0.021018
H 2.623361 1.399938 0.061993
C 1.813121 -0.671660 -0.071960
H 2.590016 -1.420395 -0.141685
C -1.066428 1.205833 -0.161560
H -1.406103 2.218771 -0.326526
