15
charge=0, multiplicity=1, basis=def2-QZVPP
C -1.908230 1.422846 0.087940
C -0.444890 1.073929 -0.021131
C -0.003093 -0.109278 -0.792118
C 1.521383 -0.345060 -0.839557
C 1.210557 -0.945921 0.515158
C -0.255785 -1.261669 0.195812
C 0.026603 -0.047083 0.914456
H -2.227822 1.978923 -0.795517
H -2.087523 2.038944 0.970531
H -2.515207 0.521461 0.167368
H 0.206346 1.941192 -0.107809
H 2.146451 0.552092 -0.833766
H 1.840994 -1.023755 -1.630794
H 1.856485 -1.410761 1.252872
H -0.964611 -2.071053 0.256033
