15
charge=0, multiplicity=1, basis=def2-QZVPP
C 0.863581 0.504882 -0.808120
C 0.621324 0.739651 0.584339
C -0.643208 1.544360 0.665296
C -0.610275 0.569835 -0.467362
C -1.204851 -0.814922 -0.287780
C 0.021350 -1.689281 0.078491
C 1.104057 -0.635528 0.193188
H 1.463795 0.988494 -1.565619
H -0.513873 2.605800 0.473139
H -1.356003 1.336485 1.458936
H -1.691965 -1.148835 -1.204722
H -1.957952 -0.823117 0.502976
H 0.264997 -2.436543 -0.680934
H -0.133834 -2.216308 1.021668
H 2.107547 -0.914320 0.498468
