15
charge=0, multiplicity=1, basis=def2-QZVPP
C 2.862533 -0.001882 -0.391901
H 2.848501 -0.006722 -1.475625
H 3.833238 -0.000289 0.085865
C 1.738228 0.001869 0.316791
H 1.793816 0.006680 1.402620
C 0.386068 -0.000194 -0.262166
H 0.336610 -0.003602 -1.345934
C -0.709856 -0.755551 0.490388
H -0.475580 -1.399030 1.325380
C -2.006122 -0.671125 -0.291681
H -2.590687 -1.423040 -0.804069
C -2.006645 0.668480 -0.295841
H -2.591737 1.416741 -0.812957
C -0.710425 0.758704 0.485726
H -0.476844 1.407457 1.316829
