15
charge=0, multiplicity=1, basis=def2-QZVPP
C 3.497095 -0.191448 -0.000081
H 4.531091 -0.433224 -0.000291
C 2.322399 0.073402 0.000153
C 0.951334 0.419858 -0.000008
H 0.727700 1.480996 -0.000161
C -0.047743 -0.480968 0.000045
H 0.208134 -1.534956 0.000229
C -1.466719 -0.163019 -0.000049
C -1.890806 1.279144 0.000002
H -1.505970 1.802162 -0.878949
H -1.507170 1.801629 0.879806
H -2.976212 1.364797 -0.000701
C -2.364625 -1.157715 -0.000044
H -3.428789 -0.961915 -0.000108
H -2.054397 -2.195018 0.000066
