15
charge=0, multiplicity=1, basis=def2-QZVPP
C 2.199400 -1.206906 -0.000087
H 3.077987 -1.803598 -0.000144
C 1.200608 -0.543801 -0.000106
C -0.000013 0.304225 -0.000007
C -1.200802 -0.543541 -0.000338
C -2.199491 -1.206792 -0.000342
H -3.078049 -1.803521 0.001044
C 0.000151 1.194316 -1.265641
H 0.000043 0.580509 -2.164531
H -0.888400 1.825528 -1.269314
H 0.888900 1.825248 -1.269309
C 0.000037 1.193665 1.266092
H -0.888544 1.824833 1.270079
H -0.000041 0.579384 2.164660
H 0.888767 1.824619 1.270095
