15
charge=0, multiplicity=1, basis=def2-QZVPP
C 2.003358 0.072163 -0.520309
H 2.683513 0.396676 -1.289571
C 0.600076 0.050334 -0.040159
C -0.603775 -0.637104 -0.661995
H -0.610860 -1.190494 -1.591962
C -1.480348 0.542827 -0.234454
H -2.262589 1.026007 -0.801850
C -1.674027 -0.809208 0.379245
H -1.395152 -0.980056 1.414423
H -2.557439 -1.347510 0.059829
C -0.275634 1.254843 0.388356
H -0.341996 1.468254 1.458619
H 0.002883 2.167650 -0.140554
C 1.808183 -0.546426 0.600248
H 2.214639 -1.105107 1.425481
