15
charge=0, multiplicity=1, basis=def2-QZVPP
C 0.729681 -0.421944 -0.188308
C -0.720910 -0.341436 -0.630164
C -1.355406 -1.007754 -1.577287
C 0.363854 0.733117 0.921539
C 0.812953 -0.645117 1.305125
C 1.355338 0.954848 -0.181214
C -1.094646 0.719125 0.374043
H -2.406395 -0.842876 -1.782314
H -0.835032 -1.743583 -2.178951
H 0.089932 -1.312484 1.758509
H 1.814282 -0.729076 1.712590
H 2.398707 0.995298 0.111151
H 1.089670 1.636206 -0.980497
H -1.400276 1.678317 -0.044011
H -1.827240 0.422227 1.124624
