15
charge=0, multiplicity=1, basis=def2-QZVPP
C -2.801684 -0.505816 -0.267527
H -3.784572 -0.739425 -0.594617
C -1.690816 -0.241566 0.104775
C -0.346516 0.084837 0.535172
H -0.185454 -0.270362 1.557104
C 0.849718 -0.341259 -0.419660
H 0.469580 -0.729517 -1.366976
C 1.884186 -1.283242 0.168571
H 2.243199 -0.916565 1.132800
H 2.745827 -1.375335 -0.496543
H 1.465959 -2.281373 0.314377
C 1.171916 1.140310 -0.467077
H 1.964950 1.687107 -0.960623
C 0.151526 1.508295 0.304909
H -0.229474 2.456112 0.659501
