15
charge=0, multiplicity=1, basis=def2-QZVPP
C -1.761737 0.807289 -0.073739
H -2.509267 1.571388 -0.233615
C -1.761749 -0.807281 -0.073677
H -2.509297 -1.571376 -0.233491
C -0.440492 -0.766892 0.113464
C 0.957871 -1.267552 0.150592
H 1.240955 -1.524673 1.177351
H 1.162302 -2.139838 -0.471278
C 1.758799 0.000008 -0.314488
H 2.781592 0.000003 0.062134
H 1.810024 0.000024 -1.404807
C 0.957869 1.267540 0.150643
H 1.162335 2.139862 -0.471162
H 1.240917 1.524590 1.177431
C -0.440487 0.766891 0.113444
