15
charge=0, multiplicity=1, basis=def2-QZVPP
C 1.983890 1.015588 0.000003
H 2.597186 1.205114 0.884208
H 2.596701 1.205300 -0.884500
H 1.161213 1.729362 0.000309
C 1.471017 -0.407927 -0.000005
H 2.266564 -1.150812 -0.000031
C 0.263179 -0.840539 -0.772840
H 0.169020 -1.723761 -1.385841
C -0.791080 -0.147178 0.000010
C -1.617130 1.083384 0.000008
H -1.672192 2.158633 -0.000028
C -2.254179 -0.051730 -0.000001
H -3.200829 -0.566299 -0.000023
C 0.263187 -0.840557 0.772837
H 0.169028 -1.723784 1.385831
