15
charge=0, multiplicity=1, basis=def2-QZVPP
C -2.614228 1.411337 -0.000141
H -3.024123 2.391135 -0.000025
C -2.158174 0.302123 -0.000281
C -1.597940 -1.041777 0.000320
H -1.981232 -1.587113 0.871448
H -1.981835 -1.588202 -0.869834
C -0.094054 -1.114016 -0.000113
H 0.308717 -2.122754 -0.000538
C 0.742443 -0.075307 0.000067
H 0.335448 0.931212 0.000379
C 2.187020 -0.203117 -0.000217
H 2.584239 -1.214632 -0.000760
C 3.032026 0.829514 0.000150
H 2.672223 1.851807 0.000684
H 4.103999 0.686001 -0.000062
