15
charge=0, multiplicity=1, basis=def2-QZVPP
C -2.163907 -0.222288 0.642764
H -2.554018 -0.584646 1.577119
C -1.132327 0.680185 -0.000776
H -1.313433 1.755036 -0.002001
C 0.287519 0.313445 -0.000379
C 0.964399 -1.046546 -0.000025
H 0.792181 -1.659950 0.887134
H 0.792830 -1.659995 -0.887288
C 2.313328 -0.246429 0.000420
H 2.933070 -0.399121 -0.886382
H 2.932317 -0.398826 0.887800
C 1.443609 0.993094 -0.000154
H 1.679671 2.049887 -0.000326
C -2.163973 -0.223820 -0.641967
H -2.554506 -0.588229 -1.575352
