15
charge=0, multiplicity=1, basis=def2-QZVPP
C 0.434736 2.399483 -0.000110
H 0.716525 3.423266 -0.000088
C 0.112300 1.242859 -0.000150
C -0.268886 -0.142465 -0.000212
C -1.552674 -0.508567 0.744266
H -2.056499 0.295920 1.259886
H -1.551362 -1.456787 1.264156
C -1.553216 -0.508373 -0.743683
H -2.057532 0.296191 -1.258709
H -1.552391 -1.456468 -1.263817
C 0.820032 -1.149953 -0.000597
H 0.476041 -2.180418 -0.001668
C 2.121303 -0.891687 0.000300
H 2.847369 -1.693234 -0.000020
H 2.496266 0.123751 0.001373
