15
charge=0, multiplicity=1, basis=def2-QZVPP
C 1.714260 -1.365664 0.000025
H 1.483182 -1.976622 0.877730
H 2.784591 -1.156242 0.000204
H 1.483507 -1.976593 -0.877787
C 0.914719 -0.115964 -0.000039
C -0.573033 0.111753 0.000010
C -1.677907 -0.654049 0.646894
H -2.133050 -0.972756 1.569002
C -1.677903 -0.653997 -0.646936
H -2.133047 -0.972643 -1.569064
C -0.274721 1.637122 0.000061
H -0.615566 2.172582 0.890662
H -0.615765 2.172741 -0.890368
C 1.181473 1.198683 -0.000065
H 2.104813 1.762217 -0.000082
