15
charge=0, multiplicity=1, basis=def2-QZVPP
C -2.327739 -1.223966 -0.105756
H -3.155321 -1.883147 -0.194744
C -1.388883 -0.480611 0.004335
C -0.260745 0.420452 0.119089
C 1.123604 -0.186382 0.213467
C 2.143373 -0.875004 -0.591341
H 2.471364 -0.241531 -1.419210
H 3.012073 -1.144227 0.010424
H 1.721090 -1.783420 -1.028285
C 0.653626 0.284431 1.315372
H 0.735744 0.467309 2.372239
C -0.475369 1.769414 -0.551596
H 0.419084 2.385327 -0.448789
H -0.696000 1.648829 -1.614630
H -1.315231 2.300853 -0.098420
