15
charge=0, multiplicity=1, basis=def2-QZVPP
C 1.161628 1.528618 0.889591
C 1.764934 0.177221 1.154484
C 0.267547 0.327173 1.061989
C -0.443931 -0.215639 -0.089455
C -0.332132 -0.450754 -1.541971
C -1.635184 -0.091831 -0.950115
C -1.042705 -1.422891 -0.688570
H 1.256029 1.935258 -0.107760
H 1.180578 2.264748 1.681563
H 2.195437 -0.011648 2.128531
H 2.264303 -0.320652 0.334747
H -0.275181 0.267537 1.998417
H 0.290478 -0.341726 -2.403906
H -2.551842 0.429801 -1.123642
H -1.265885 -2.459870 -0.554656
