15
charge=0, multiplicity=1, basis=def2-QZVPP
C -1.239253 0.664945 -0.520199
H -1.925758 1.331547 -1.020250
C 0.000154 1.119762 0.273126
H 0.000265 2.152596 0.610644
C -0.000064 -0.000114 1.353828
H -0.897993 -0.000061 1.971914
H 0.897794 -0.000310 1.972020
C -0.000149 -1.119804 0.272963
H -0.000257 -2.152692 0.610319
C 1.239319 -0.664852 -0.520201
H 1.925835 -1.331376 -1.020346
C 1.239544 0.664644 -0.520036
H 1.926254 1.331090 -1.020010
C -1.239527 -0.664561 -0.520161
H -1.926287 -1.330910 -1.020206
