15
charge=0, multiplicity=1, basis=def2-QZVPP
C -2.100624 0.051285 0.497515
H -2.987487 0.012981 1.116186
C -1.328019 -1.025569 -0.230414
H -1.852880 -1.539918 -1.037812
H -0.830932 -1.763424 0.401171
C -0.382510 0.143291 -0.716217
H -0.427469 0.314585 -1.794487
C 1.012597 0.058354 -0.268168
C 1.872294 -0.196567 0.941131
H 1.986562 -1.213682 1.316180
H 1.951454 0.564541 1.717002
C 2.284183 0.128066 -0.470891
H 3.114856 0.298770 -1.131734
C -1.303696 1.043788 0.102239
H -1.279457 2.110261 0.282329
