15
charge=0, multiplicity=1, basis=def2-QZVPP
C 3.295032 0.000108 -0.670973
H 4.157840 0.000175 -1.289801
C 2.311014 -0.000043 0.020572
C 1.172996 -0.000187 0.874006
H 1.366150 -0.000331 1.944788
C -0.066632 -0.000156 0.442637
C -1.296377 -0.000006 0.019861
C -2.044605 -1.283657 -0.241355
H -2.945002 -1.329726 0.377726
H -2.367135 -1.326206 -1.285426
H -1.431573 -2.157655 -0.031150
C -2.044355 1.283845 -0.241099
H -2.365389 1.327408 -1.285591
H -1.431682 2.157677 -0.029170
H -2.945644 1.329240 0.376730
