15
charge=0, multiplicity=1, basis=def2-QZVPP
C 2.381958 -0.317357 -0.000182
H 2.956041 -1.235312 -0.000068
H 2.937038 0.612689 -0.000417
C 1.056237 -0.329538 0.000016
C 0.000011 0.714591 -0.000035
C 0.000048 2.047149 0.000143
H -0.924173 2.610557 0.000217
H 0.924313 2.610484 0.000196
C -1.056251 -0.329498 0.000023
C -2.381973 -0.317297 -0.000182
H -2.937057 0.612746 -0.000434
H -2.956061 -1.235248 -0.000069
C -0.000030 -1.439274 0.000230
H -0.000059 -2.074319 -0.887978
H -0.000042 -2.074243 0.888476
