15
charge=0, multiplicity=1, basis=def2-QZVPP
C 2.809078 0.338394 -0.000088
H 3.357937 0.487166 -0.924637
H 3.358235 0.487223 0.924273
C 1.552341 -0.004289 0.000083
C 0.298256 -0.344354 0.000127
C -1.003676 0.358742 -0.000013
C -1.328714 1.805778 0.000031
H -2.407014 1.967273 0.000355
H -0.902888 2.297977 0.878185
H -0.903400 2.297937 -0.878389
C -1.706177 -0.791010 -0.000157
H -2.764065 -1.012045 -0.000275
C -0.471857 -1.685443 0.000053
H -0.316976 -2.296297 -0.891539
H -0.317327 -2.296150 0.891813
