15
charge=0, multiplicity=1, basis=def2-QZVPP
C 0.148598 -0.949600 0.165512
C -1.043203 -0.330484 0.018773
C -2.406170 -0.929369 0.070535
C -0.789022 1.107855 -0.214483
C 0.537912 1.335488 -0.205550
C 2.534025 -0.150813 0.115007
C 1.214102 0.050406 0.035063
H 0.315065 -2.000690 0.347736
H -2.363481 -2.002876 0.253260
H -2.943563 -0.763030 -0.867756
H -3.006103 -0.470994 0.862298
H -1.567815 1.841980 -0.366481
H 1.047500 2.276252 -0.346110
H 2.945891 -1.135733 0.295502
H 3.235866 0.665739 0.001859
