15
charge=0, multiplicity=1, basis=def2-QZVPP
C 2.600894 0.105414 -0.283546
H 3.559250 0.384103 -0.646228
C 1.518432 -0.212974 0.127780
C 0.208751 -0.595757 0.612390
H 0.293133 -0.967747 1.637816
C -0.977985 0.459365 0.460566
H -1.473679 0.630303 1.420815
C -0.655774 1.784467 -0.203844
H -1.574205 2.342319 -0.399837
H -0.138736 1.632245 -1.151696
H -0.016316 2.396789 0.434609
C -1.643953 -0.607850 -0.385701
H -2.604306 -0.630917 -0.884627
C -0.646446 -1.483967 -0.284708
H -0.468653 -2.479281 -0.668479
