15
charge=0, multiplicity=1, basis=def2-QZVPP
C 0.058579 -2.844620 -0.735746
C -0.104669 -1.667733 -0.901844
C -0.292480 -0.232127 -1.083657
C 0.263471 0.587917 0.073440
C -0.523252 1.362461 0.764367
C -1.313615 2.134034 1.452791
C 1.736889 0.460506 0.353212
H 0.196928 -3.887852 -0.592826
H -1.353840 -0.014561 -1.211263
H 0.210234 0.074578 -2.008388
H -1.490665 3.165495 1.167043
H -1.823659 1.774178 2.340079
H 1.990791 -0.577281 0.580837
H 2.035646 1.087576 1.190650
H 2.319104 0.751477 -0.526304
