15
charge=0, multiplicity=1, basis=def2-QZVPP
C -2.138176 -1.249741 0.000076
H -1.598648 -2.186671 -0.000226
H -3.218603 -1.288164 0.000442
C -1.492062 -0.087501 -0.000089
C -0.281069 0.685266 -0.000451
C 1.160685 0.657523 -0.000455
H 1.656598 1.619324 -0.000879
C 1.851151 -0.475406 -0.743519
H 2.764914 -0.224208 -1.263325
H 1.212570 -1.181342 -1.254873
C 1.850924 -0.474631 0.744068
H 2.764512 -0.222854 1.263902
H 1.212179 -1.180044 1.255933
C -1.427471 1.340440 0.000180
H -1.937413 2.288256 0.000164
