15
charge=0, multiplicity=1, basis=def2-QZVPP
C -1.022996 2.375488 -0.069187
H -1.512616 3.311895 -0.174247
C -0.450387 1.324185 0.044918
C 0.167770 0.048631 0.201100
C -0.720528 -1.120129 0.598828
H -0.085105 -1.984758 0.792492
H -1.219826 -0.864501 1.537610
C -1.765103 -1.452893 -0.466182
H -2.401927 -2.274839 -0.134769
H -2.401616 -0.591214 -0.671042
H -1.285258 -1.747964 -1.400917
C 1.455069 -0.099775 -0.005659
C 2.726597 -0.270207 -0.200065
H 3.443440 -0.151674 0.605969
H 3.120383 -0.528739 -1.177614
