15
charge=0, multiplicity=1, basis=def2-QZVPP
C -2.131628 -1.371509 0.081533
H -1.275508 -1.939797 0.422429
H -3.062027 -1.903723 -0.062499
C -2.033467 -0.061515 -0.155933
H -2.895039 0.500787 -0.502411
C -0.814706 0.665436 0.025748
C 0.626506 0.509068 0.453616
H 0.835857 0.412892 1.520301
C 1.599583 -0.185768 -0.414472
H 1.409096 -0.112655 -1.482631
C 2.652895 -0.870224 0.021359
H 3.333590 -1.361658 -0.660888
H 2.869370 -0.959924 1.080125
C -0.101704 1.743471 -0.023019
H -0.000207 2.790321 -0.247412
