15
charge=0, multiplicity=1, basis=def2-QZVPP
C -3.154186 0.011429 -0.000042
H -3.474033 -1.024145 0.000062
H -3.929914 0.764810 -0.000083
C -1.858456 0.339382 -0.000055
H -1.580800 1.389557 -0.000099
C -0.769413 -0.610917 0.000000
H -1.027000 -1.666430 0.000002
C 0.522517 -0.264052 0.000126
C 1.279186 1.079081 0.000118
H 1.133757 1.694655 0.890722
H 1.133464 1.694933 -0.890243
C 2.519357 0.190101 -0.000174
H 3.576035 0.415489 -0.000464
C 1.809135 -0.955949 0.000029
H 2.079646 -2.003317 0.000094
