15
charge=0, multiplicity=1, basis=def2-QZVPP
C 1.395076 1.916778 -0.000105
H 1.146032 2.519494 -0.878105
H 2.471115 1.733840 -0.000368
H 1.146598 2.519973 0.877728
C 0.625550 0.656242 0.000363
C -0.694561 -0.000001 0.000095
C -2.027187 0.000082 -0.654607
H -2.639776 0.000158 -1.544043
C -2.027342 -0.000033 0.654427
H -2.640081 -0.000111 1.543758
C 0.625555 -0.656237 0.000254
C 1.395015 -1.916813 -0.000134
H 1.146287 -2.519984 0.877644
H 2.471070 -1.733963 -0.000183
H 1.146118 -2.519507 -0.878190
