15
charge=0, multiplicity=1, basis=def2-QZVPP
C 3.217341 0.722605 0.000022
H 4.297790 0.679343 0.000072
H 2.754579 1.700682 -0.000049
C 2.487759 -0.396364 0.000034
H 2.993716 -1.357817 0.000088
C 1.072053 -0.445720 -0.000039
C -0.132472 -0.526123 -0.000120
C -1.560611 -0.596500 -0.000079
H -1.969543 -1.599745 -0.000198
C -2.370383 0.448245 -0.746902
H -3.255235 0.105311 -1.265198
H -1.813147 1.221193 -1.256324
C -2.370339 0.448049 0.747031
H -3.255167 0.105006 1.265300
H -1.813087 1.220877 1.256620
