15
charge=0, multiplicity=1, basis=def2-QZVPP
C 2.316996 -0.025407 -0.611385
H 2.761454 -0.955793 -0.945962
H 2.841942 0.891396 -0.852110
C 1.183466 -0.012958 0.056141
C 0.117312 -0.772569 0.701852
H 0.363820 -1.357148 1.579699
C -1.115389 -1.157771 -0.117859
H -0.854991 -1.806780 -0.959519
H -1.842666 -1.705593 0.489674
C -1.668671 0.167728 -0.582510
H -2.508692 0.240030 -1.260335
C -0.991535 1.205637 -0.097014
H -1.207485 2.245039 -0.304397
C 0.162977 0.781449 0.751262
H 0.415683 1.332191 1.650015
