15
charge=0, multiplicity=1, basis=def2-QZVPP
C -2.707472 -0.449908 -0.000077
H -3.694830 -0.841089 -0.000110
C -1.593297 0.000167 -0.000049
C -0.265338 0.532680 0.000002
C 0.868626 -0.418452 -0.000033
C 2.258906 0.152530 -0.000119
H 2.432303 0.776789 0.879879
H 2.998508 -0.646208 -0.001047
H 2.431655 0.778294 -0.879143
C 0.662240 -1.737950 0.000124
H -0.334364 -2.156196 0.000290
H 1.493665 -2.430312 0.000097
C -0.099677 1.866253 0.000109
H 0.881343 2.317155 0.000132
H -0.952208 2.529642 0.000164
