15
charge=0, multiplicity=1, basis=def2-QZVPP
C 3.053528 -0.635190 0.073039
H 4.036313 -1.036409 0.105617
C 1.947888 -0.162949 0.037605
C 0.612349 0.335716 -0.006675
C -0.469581 -0.725791 -0.124447
H -0.493147 -1.300783 0.806128
H -0.158148 -1.429265 -0.903960
C -1.832596 -0.198388 -0.442392
H -1.938389 0.293584 -1.405372
C -2.886670 -0.296774 0.356099
H -2.818646 -0.773987 1.327317
H -3.855361 0.091250 0.068563
C 0.361075 1.645484 0.071026
H -0.652853 2.020112 0.053020
H 1.164271 2.362855 0.163158
