15
charge=0, multiplicity=1, basis=def2-QZVPP
C -2.216807 -1.051977 -0.026947
H -3.277043 -1.242397 0.072554
H -1.579319 -1.914400 -0.169487
C -1.734059 0.189922 0.034886
H -2.428522 1.010584 0.189947
C -0.326785 0.578746 -0.068312
C 0.681545 -0.479549 -0.390561
H 0.320428 -1.219045 -1.102724
C 2.158410 -0.207466 -0.341048
H 2.979881 0.297066 -0.817450
C 1.704619 -0.924199 0.625977
H 1.852955 -1.457633 1.547481
C 0.028639 1.852439 0.135788
H 1.062187 2.168516 0.077300
H -0.703941 2.609815 0.383676
