15
charge=0, multiplicity=1, basis=def2-QZVPP
C -0.780724 1.931998 0.000119
H -1.678523 2.537192 -0.000048
H 0.165471 2.453452 0.000318
C -0.856334 0.606213 -0.000086
C 0.099846 -0.570000 0.000201
C 1.413623 -0.772761 -0.000193
H 1.760589 -1.802574 -0.000330
C 2.467976 0.286831 -0.000051
H 3.114998 0.193880 0.877391
H 2.040788 1.287303 0.000437
H 3.114948 0.194446 -0.877557
C -1.098634 -1.438225 0.000188
H -1.229855 -2.510726 0.000606
C -1.955276 -0.387105 -0.000205
H -3.031276 -0.294676 -0.000654
