15
charge=0, multiplicity=1, basis=def2-QZVPP
C 2.521708 -1.069640 -0.069807
H 3.361141 -1.687514 -0.273584
C 1.573590 -0.373910 0.165293
C 0.418891 0.482228 0.430196
H 0.404256 0.712994 1.503103
C -0.855084 -0.210743 0.114149
C -2.348669 -0.048432 0.119436
H -2.826708 0.588185 -0.624952
H -2.894032 -0.101287 1.061815
C -1.512995 -1.223138 -0.328184
H -1.527982 -2.217351 -0.735288
C 0.514683 1.821301 -0.329220
H 0.542370 1.644116 -1.403964
H 1.419967 2.353984 -0.040580
H -0.351762 2.440875 -0.097724
