15
charge=0, multiplicity=1, basis=def2-QZVPP
C 2.387372 -0.232524 0.000069
H 2.669565 -0.821539 0.878580
H 2.982652 0.680780 -0.000492
H 2.669620 -0.822657 -0.877672
C 0.931508 0.071060 -0.000100
C -0.154630 -0.981629 -0.000153
H 0.050840 -2.043906 -0.000277
C -1.378304 -0.431982 -0.721101
H -2.051412 -0.808001 -1.475799
C -1.186509 0.895769 0.000126
H -1.974916 1.635430 0.000270
C -1.378155 -0.432126 0.721179
H -2.051100 -0.808339 1.475925
C 0.280767 1.237048 -0.000092
H 0.692456 2.234537 -0.000106
