15
charge=0, multiplicity=1, basis=def2-QZVPP
C -0.798767 1.481603 -0.113771
C 0.403626 1.258969 -0.645197
C 0.580607 -0.111821 0.015553
C -0.083909 -1.285327 -0.711249
C -1.288761 -1.073721 -0.180783
C -0.854610 0.147357 0.625389
C 1.798611 -0.366724 0.870135
H -1.520118 2.282020 -0.210202
H 1.029771 1.809453 -1.335841
H 0.301057 -1.993061 -1.434525
H -2.254047 -1.544447 -0.311170
H -1.010820 0.148975 1.703162
H 2.683607 -0.519335 0.246066
H 1.664956 -1.260274 1.482793
H 1.997246 0.481385 1.528016
