15
charge=0, multiplicity=1, basis=def2-QZVPP
C 3.258535 -0.109370 -0.211636
H 3.992729 -0.127413 -1.007075
H 3.596886 -0.410376 0.773969
C 2.003034 0.262753 -0.426838
H 1.695065 0.546551 -1.430041
C 0.919310 0.294179 0.613542
H 0.527805 1.313510 0.697640
H 1.355291 0.041727 1.586282
C -0.219391 -0.636214 0.282312
H 0.006874 -1.694137 0.214687
C -1.458093 -0.228598 0.046145
C -2.840502 -0.443130 -0.279866
H -3.638063 -1.123592 -0.524157
C -2.462531 0.796662 -0.071078
H -2.738763 1.836043 -0.026790
