15
charge=0, multiplicity=1, basis=def2-QZVPP
C 3.008842 -0.601652 0.000715
H 3.851104 -1.248479 0.001366
C 2.062513 0.134995 0.000025
C 0.896216 1.007972 -0.000707
H 0.936182 1.670991 -0.873525
H 0.936055 1.672479 0.870956
C -0.404045 0.270603 -0.000226
C -1.828966 0.791674 0.000764
H -2.129360 1.353385 -0.886867
H -2.128303 1.352341 0.889406
C -2.249762 -0.719116 0.000223
H -2.799062 -1.038950 0.888062
H -2.800133 -1.037974 -0.887296
C -0.763049 -1.015574 -0.000887
H -0.196972 -1.937201 -0.001544
