15
charge=0, multiplicity=1, basis=def2-QZVPP
C 3.450074 0.132605 0.000018
H 4.350747 -0.466001 0.000219
H 3.575179 1.209251 -0.000403
C 2.236995 -0.426346 0.000233
H 2.154505 -1.510148 0.000642
C 0.990073 0.308537 -0.000109
H 1.061634 1.393706 -0.000381
C -0.220682 -0.263964 -0.000144
H -0.294920 -1.349354 0.000149
C -1.496677 0.470740 -0.000530
H -1.384548 1.554887 -0.001464
C -2.734336 -0.118541 0.642668
H -3.203489 -0.365383 1.578529
C -2.734551 -0.119609 -0.642129
H -3.204479 -0.367492 -1.577336
