15
charge=0, multiplicity=1, basis=def2-QZVPP
C 2.982619 0.537337 0.000140
H 3.873898 1.114598 0.000266
C 1.968091 -0.111797 -0.000001
C 0.804215 -0.915003 -0.000110
H 0.972265 -1.986860 -0.000139
C -0.467899 -0.455976 -0.000128
C -0.747794 0.972149 -0.000192
H 0.121043 1.620414 -0.000452
C -1.965650 1.519833 0.000089
H -2.870043 0.925471 0.000422
H -2.092205 2.594033 0.000041
C -1.614809 -1.422953 0.000087
H -2.247993 -1.278761 0.879126
H -1.260412 -2.452494 -0.000628
H -2.249185 -1.277948 -0.877943
