15
charge=0, multiplicity=1, basis=def2-QZVPP
C -2.170966 -1.558768 -0.000039
H -3.068574 -2.126187 -0.000149
C -1.147318 -0.928503 0.000036
C 0.054198 -0.152663 0.000023
C 1.240590 -0.796671 0.000053
H 1.207036 -1.880569 0.000048
C 2.606219 -0.198740 -0.000027
H 2.607605 0.888521 -0.000028
H 3.167815 -0.537791 -0.875940
H 3.167791 -0.537692 0.875956
C -0.084362 1.306816 -0.000053
H 0.837881 1.873124 -0.000170
C -1.242159 1.966330 0.000021
H -2.191158 1.446189 0.000199
H -1.265615 3.047600 -0.000003
