15
charge=0, multiplicity=1, basis=def2-QZVPP
C 1.772862 -1.696629 0.000049
H 2.257856 -2.641497 0.000075
C 1.243110 -0.617145 0.000013
C 0.568829 0.641795 -0.000059
C -0.916939 0.625001 -0.000203
H -1.352859 1.615709 -0.000474
C -1.686188 -0.438662 0.748174
H -2.581271 -0.127792 1.269100
H -1.109465 -1.203998 1.248670
C -1.686084 -0.439044 -0.748019
H -2.581117 -0.128432 -1.269195
H -1.109353 -1.204652 -1.248088
C 1.266005 1.785153 0.000016
H 0.760237 2.741774 -0.000067
H 2.346399 1.786074 0.000149
