15
charge=0, multiplicity=1, basis=def2-QZVPP
C 3.691957 -0.357154 0.000140
H 4.218179 -0.569495 0.925456
H 4.218433 -0.569432 -0.925045
C 2.488532 0.129580 0.000014
C 1.270569 0.617429 -0.000131
H 1.148297 1.698081 0.000004
C 0.066324 -0.187861 -0.000154
H 0.200106 -1.264941 -0.000255
C -1.177291 0.322815 -0.000053
H -1.305386 1.402271 0.000029
C -2.378977 -0.477796 -0.000038
H -2.239752 -1.555479 -0.000187
C -3.619766 0.018992 0.000148
H -4.488548 -0.624807 0.000160
H -3.799411 1.087768 0.000283
