15
charge=0, multiplicity=1, basis=def2-QZVPP
C -2.914683 -0.935567 -0.016711
H -3.617556 -0.933822 0.808605
H -3.163568 -1.542834 -0.879536
C -1.814618 -0.235496 0.026141
C -0.729202 0.444579 0.079057
C 0.718288 0.456472 0.419974
H 0.958329 0.541594 1.475136
C 1.655458 -0.350705 -0.379800
H 1.425705 -0.423897 -1.439230
C 2.718510 -0.978725 0.110172
H 2.969330 -0.932757 1.163543
H 3.372334 -1.561189 -0.524904
C 0.023288 1.669346 -0.204633
H 0.251722 1.900917 -1.239129
H -0.138536 2.532569 0.430324
