15
charge=0, multiplicity=1, basis=def2-QZVPP
C 2.806459 -1.070268 -0.000421
H 3.671877 -1.685480 -0.000531
C 1.820058 -0.378255 -0.000132
C 0.708144 0.451491 -0.000026
C 0.242829 1.894956 0.001033
H 0.336554 2.482005 -0.912316
H 0.335858 2.480487 0.915426
C -0.575991 0.644777 -0.000254
C -1.941388 0.092632 -0.001727
H -2.473706 0.488984 -0.874219
H -2.477425 0.492770 0.866692
C -1.971024 -1.434179 0.001310
H -1.463323 -1.833078 -0.877822
H -1.466890 -1.829503 0.884099
H -2.997461 -1.803106 -0.000031
