15
charge=0, multiplicity=1, basis=def2-QZVPP
C -3.200799 0.589294 -0.070451
H -3.623762 0.791603 -1.058200
H -2.745252 1.505070 0.303938
H -4.032720 0.322562 0.587069
C -2.195486 -0.528776 -0.139379
H -2.558610 -1.487675 -0.504810
C -0.943909 -0.430483 0.207367
C 0.313816 -0.318465 0.538389
H 0.614563 -0.527620 1.563459
C 1.401769 0.079293 -0.396684
H 1.054049 0.276655 -1.409156
C 2.809586 -0.425292 -0.198325
H 3.457871 -1.281422 -0.260871
C 2.621212 0.810585 0.107449
H 2.996729 1.743890 0.488372
