15
charge=0, multiplicity=1, basis=def2-QZVPP
C -3.637596 -0.583281 -0.024554
H -4.593782 -1.036650 -0.112899
C -2.549916 -0.077324 0.069509
C -1.283192 0.546502 0.203116
H -1.251845 1.444882 0.813824
C -0.159823 0.102307 -0.368644
H -0.193774 -0.799298 -0.971613
C 1.181664 0.753243 -0.214452
H 1.069986 1.677480 0.360880
H 1.573134 1.027208 -1.199380
C 2.167153 -0.156713 0.467749
H 1.909957 -0.449024 1.481951
C 3.278153 -0.622364 -0.086700
H 3.947052 -1.282264 0.450433
H 3.560620 -0.356563 -1.099334
