15
charge=0, multiplicity=1, basis=def2-QZVPP
C -1.406884 1.676006 0.083489
H -2.433470 1.412428 0.303492
H -1.179859 2.725867 -0.050304
C -0.469685 0.745326 -0.038235
C 0.988014 0.776758 -0.392948
H 1.457311 1.446779 -1.097964
C 0.987576 -0.777807 -0.392125
H 1.456583 -1.448871 -1.096339
C 1.777996 -0.000188 0.621872
H 2.849155 -0.000595 0.461259
H 1.475359 0.000494 1.662112
C -0.470158 -0.745147 -0.037805
C -1.408241 -1.675028 0.083318
H -1.181997 -2.725118 -0.050006
H -2.434789 -1.410512 0.302352
