15
charge=0, multiplicity=1, basis=def2-QZVPP
C 1.669817 -0.060379 -0.018416
C 0.893454 -1.145128 -0.017278
C -0.555268 -0.804470 0.000577
C -1.149631 -0.042572 1.149030
C -0.583897 0.747161 0.011255
C 0.860039 1.225044 -0.001285
C -1.174318 -0.027481 -1.124379
H 2.754703 -0.074049 -0.030201
H 1.257622 -2.164022 -0.028078
H -0.585715 -0.043542 2.075133
H -2.228375 -0.062495 1.282989
H 1.087615 1.839869 0.873832
H 1.068586 1.850998 -0.873297
H -0.630673 -0.016059 -2.062433
H -2.255717 -0.045851 -1.235144
