15
charge=0, multiplicity=1, basis=def2-QZVPP
C -3.553042 0.217833 -0.157483
H -3.879043 0.989510 -0.846169
H -4.298190 -0.191774 0.515578
C -2.321684 -0.202714 -0.143231
C -1.087876 -0.615461 -0.115970
H -0.793512 -1.442951 -0.756000
C 0.000017 -0.000576 0.734983
H -0.439077 0.763531 1.379874
H 0.439198 -0.765540 1.378798
C 1.087807 0.615462 -0.115267
H 0.793314 1.443696 -0.754276
C 2.321675 0.202936 -0.143024
C 3.553089 -0.217436 -0.157731
H 3.879261 -0.988224 -0.847330
H 4.298137 0.191484 0.515862
