15
charge=0, multiplicity=1, basis=def2-QZVPP
C -1.591166 -0.174231 0.207918
C -2.883045 -0.016951 0.247812
C -0.293790 -0.316426 0.161146
C 0.380691 -1.573984 0.646336
C 0.563630 0.785168 -0.384345
C 1.874108 0.495693 -1.072177
C 1.972686 1.002826 0.106923
H -3.377564 0.414842 1.112303
H -3.518631 -0.313816 -0.580582
H -0.349576 -2.290575 1.015840
H 1.088138 -1.348592 1.448817
H 0.953945 -2.040943 -0.159007
H -0.013587 1.648965 -0.707645
H 2.344776 0.113376 -1.960776
H 2.585608 1.352085 0.919111
