15
charge=0, multiplicity=1, basis=def2-QZVPP
C 3.010033 0.445775 0.074206
H 3.914745 0.977575 0.236747
C 1.992670 -0.162121 -0.115101
C 0.735563 -0.868835 -0.320492
H 0.478321 -0.857416 -1.384402
H 0.859380 -1.919888 -0.041227
C -0.418143 -0.259644 0.481255
H -0.165340 -0.265005 1.544218
C -0.946823 1.133160 -0.012899
H -0.954307 1.919373 0.744312
H -0.441931 1.511139 -0.904162
C -2.261732 0.417720 -0.246684
H -3.221964 0.764229 -0.606339
C -1.812499 -0.769450 0.165411
H -2.263316 -1.749637 0.256683
