15
charge=0, multiplicity=1, basis=def2-QZVPP
C 3.043517 0.003197 -0.035770
H 4.104334 0.046028 -0.054661
C 1.841715 -0.060876 -0.015661
C 0.426859 -0.077688 0.009047
C -0.392914 1.194337 0.133460
H -0.296495 1.595920 1.147438
H -0.049779 1.973700 -0.548308
C -1.827968 0.716997 -0.171059
H -2.578447 1.235422 0.424717
H -2.055861 0.906712 -1.221193
C -1.815339 -0.808416 0.079047
H -2.199221 -1.061401 1.074962
H -2.433523 -1.356502 -0.635698
C -0.359035 -1.161268 -0.019471
H 0.007980 -2.177576 -0.064818
