15
charge=0, multiplicity=1, basis=def2-QZVPP
C -3.058395 1.237137 0.000844
H -3.621276 2.137723 0.001644
C -2.418336 0.224016 -0.000034
C -1.645853 -1.018752 -0.001078
H -1.929545 -1.615055 0.872813
H -1.928781 -1.613100 -0.876549
C -0.198531 -0.804876 -0.000194
C 0.989971 -0.635788 0.000585
C 2.426482 -0.385193 0.001461
H 2.875723 -0.866992 -0.872116
H 2.874036 -0.863431 0.877855
C 2.767061 1.110988 -0.001237
H 2.352416 1.602549 0.879095
H 2.354312 1.598959 -0.884453
H 3.848716 1.254149 -0.000370
