15
charge=0, multiplicity=1, basis=def2-QZVPP
C -2.938971 -0.872696 -0.370191
H -3.725438 -1.483484 -0.738632
C -2.050245 -0.176650 0.044046
C -0.978032 0.649659 0.544078
H -1.191374 1.106332 1.509869
C 0.458835 0.327688 0.193300
C 1.531262 -0.650453 0.441777
H 1.132205 -1.648726 0.233699
H 1.765000 -0.646696 1.511903
C 2.787918 -0.387393 -0.385576
H 3.200412 0.598091 -0.163964
H 2.563795 -0.425231 -1.452509
H 3.555309 -1.132566 -0.172251
C -0.033529 1.355023 -0.403654
H 0.036658 2.161210 -1.110796
