15
charge=0, multiplicity=1, basis=def2-QZVPP
C 3.171908 0.000032 0.000152
H 3.739308 0.000079 0.924950
H 3.739566 0.000028 -0.924482
C 1.868716 -0.000040 -0.000008
C 0.574546 -0.000047 -0.000124
C -0.490836 1.101129 -0.000130
H -0.487061 1.739102 -0.886917
H -0.486840 1.739404 0.886432
C -1.545565 0.000013 0.000054
C -2.865922 0.000046 0.000180
H -3.431259 0.924277 0.000261
H -3.431306 -0.924158 0.000303
C -0.490897 -1.101160 -0.000128
H -0.486939 -1.739467 0.886413
H -0.487166 -1.739105 -0.886933
