15
charge=0, multiplicity=1, basis=def2-QZVPP
C 2.823913 0.735410 0.125430
H 3.109150 1.434496 -0.653858
H 3.352261 0.803736 1.070545
C 1.889265 -0.143142 -0.064876
C 0.941611 -1.029197 -0.262448
H 1.205964 -2.005243 -0.661069
C -0.440020 -0.774904 0.022384
C -1.422518 0.242329 0.516516
H -1.456959 0.427143 1.592746
C -1.797619 1.454824 -0.312358
H -1.723644 1.231926 -1.378788
H -1.138370 2.299522 -0.095635
H -2.822389 1.773664 -0.102938
C -1.679227 -1.160020 0.039170
H -2.418436 -1.917042 -0.153916
