15
charge=0, multiplicity=1, basis=def2-QZVPP
C 1.727281 0.343229 0.669006
H 2.222052 0.952597 1.413328
C 0.575164 -0.642031 0.771780
H 0.518230 -1.525273 1.391528
C -0.594655 -0.130216 0.000007
C -2.047401 -0.395974 -0.000075
H -2.505852 -0.760191 -0.910775
H -2.505572 -0.760615 0.910603
C -1.505910 1.032028 0.000185
H -1.605381 1.605888 0.912339
H -1.604969 1.606126 -0.911870
C 0.575109 -0.641712 -0.772036
H 0.518332 -1.524690 -1.392172
C 1.727264 0.343505 -0.668874
H 2.222043 0.953180 -1.412934
