15
charge=0, multiplicity=1, basis=def2-QZVPP
C 3.054825 -0.000007 -0.000060
H 3.631305 -0.000400 -0.921924
H 3.631745 0.000431 0.921525
C 1.746568 -0.000056 0.000240
C 0.455739 -0.000047 -0.000081
C -0.839357 -0.654940 0.000373
C -1.540003 -1.949505 -0.000002
H -1.251538 -2.533591 0.877313
H -1.253410 -2.531806 -0.879140
H -2.622316 -1.819107 0.001221
C -0.839290 0.654982 -0.000494
C -1.539929 1.949556 0.000071
H -1.251340 2.532791 0.877919
H -1.253515 2.532682 -0.878562
H -2.622240 1.819100 0.001363
