15
charge=0, multiplicity=1, basis=def2-QZVPP
C 2.091257 0.087988 0.096296
H 3.171479 0.139196 0.139327
C 1.147073 -0.758537 -0.735250
H 1.179361 -1.833833 -0.547125
H 1.169428 -0.586397 -1.813167
C -0.000000 -0.000006 0.026990
C -1.147053 0.758427 -0.735393
H -1.169455 0.586143 -1.813291
H -1.179289 1.833749 -0.547411
C -2.091264 -0.087848 0.096383
H -3.171486 -0.138938 0.139500
C -1.115996 -0.729250 0.743752
H -1.099356 -1.492915 1.511334
C 1.115979 0.729239 0.743798
H 1.099344 1.492913 1.511373
