15
charge=0, multiplicity=1, basis=def2-QZVPP
C 0.772610 -1.250420 -0.724034
H 1.324056 -2.027443 -1.238253
C 0.772610 -1.250420 0.724034
H 1.324056 -2.027443 1.238253
C -0.011077 -0.410109 1.423736
H -0.143075 -0.547036 2.490291
C -0.739739 0.687014 0.784127
H -1.643723 1.020416 1.278298
C -0.739739 0.687014 -0.784127
H -1.643723 1.020416 -1.278298
C -0.000000 1.730628 0.000000
H -0.416377 2.728225 0.000000
H 1.080241 1.678557 -0.000000
C -0.011077 -0.410109 -1.423736
H -0.143075 -0.547036 -2.490291
