15
charge=0, multiplicity=1, basis=def2-QZVPP
C 2.292451 -0.539286 0.423681
H 2.558873 -1.561418 0.146527
H 3.192483 0.075190 0.348192
H 1.965729 -0.539189 1.464857
C 1.202247 0.002508 -0.483883
H 1.523847 -0.032547 -1.528599
C -0.241185 -0.539719 -0.282434
C -0.690422 0.770122 0.057610
C -2.122974 0.228563 0.280172
H -2.497157 0.307350 1.302949
H -2.881719 0.609580 -0.406397
C -1.446384 -1.128619 -0.111201
H -1.844759 -2.132137 -0.192119
C 0.516891 1.358956 -0.079381
H 0.918963 2.358020 0.037204
