15
charge=0, multiplicity=1, basis=def2-QZVPP
C -1.747696 1.202740 -0.533028
H -0.751269 1.414279 -0.900023
H -2.509757 1.946764 -0.724724
C -2.034451 0.094481 0.135317
H -3.046143 -0.069729 0.493826
C -1.069539 -1.013774 0.464850
H -1.426687 -1.957133 0.039877
H -1.062112 -1.157050 1.553463
C 0.318902 -0.764642 0.034172
C 1.454041 0.115347 0.046788
C 2.054206 1.251058 0.382929
H 1.534553 1.998694 0.965925
H 3.074517 1.453050 0.088014
C 1.405823 -1.167601 -0.589928
H 1.899184 -1.934523 -1.162952
