15
charge=0, multiplicity=1, basis=def2-QZVPP
C -1.682965 -0.667753 -0.163989
H -2.350270 -1.411888 -0.580594
C -0.334378 -0.795220 0.508092
H -0.251453 -1.390319 1.417390
C 0.865005 -0.761543 -0.443057
H 1.024224 -1.432516 -1.276280
C 0.865197 0.761883 -0.442524
H 1.024634 1.433379 -1.275277
C 1.991473 -0.000215 0.190479
H 2.928827 -0.000177 -0.350983
H 2.102771 -0.000618 1.270256
C -0.334433 0.795077 0.508366
H -0.251745 1.389894 1.417875
C -1.682754 0.667808 -0.164258
H -2.349865 1.412019 -0.581048
