15
charge=0, multiplicity=1, basis=def2-QZVPP
C -2.845464 0.153679 0.000229
H -3.404737 0.252922 0.925375
H -3.405174 0.253337 -0.924605
C -1.564853 -0.073951 -0.000114
C -0.281282 -0.292738 -0.000230
C 0.917329 0.577007 0.000052
C 1.103433 1.890871 -0.000143
H 0.264494 2.575372 -0.000535
H 2.098297 2.317871 0.000053
C 1.845267 -0.632108 0.000422
H 2.475026 -0.720812 -0.885120
H 2.473888 -0.720975 0.886757
C 0.584894 -1.556227 -0.000327
H 0.470791 -2.178821 0.886615
H 0.471471 -2.178086 -0.887875
