15
charge=0, multiplicity=1, basis=def2-QZVPP
C -2.473756 0.353184 0.000216
H -3.541945 0.183091 0.000126
H -2.142517 1.382288 0.000624
C -1.611796 -0.664870 -0.000155
H -1.992982 -1.682147 -0.000578
C -0.171559 -0.543768 -0.000059
C 0.785380 0.587805 0.000060
C 0.743522 1.912959 -0.000206
H -0.187518 2.462533 -0.000325
H 1.657327 2.494117 -0.000219
C 1.940618 -0.429531 0.000198
H 2.575173 -0.409641 -0.889611
H 2.574719 -0.409779 0.890338
C 0.825294 -1.461957 -0.000065
H 0.831532 -2.543393 -0.000291
