15
charge=0, multiplicity=1, basis=def2-QZVPP
C -3.088648 0.612744 -0.000008
H -3.736194 0.560708 -0.880013
H -3.738457 0.558666 0.878184
H -2.583886 1.577837 0.001700
C -2.097421 -0.518508 0.000040
H -2.515968 -1.524072 0.000281
C -0.799606 -0.377134 -0.000166
C 0.482105 -0.234805 0.000060
C 1.725636 -0.259488 0.765682
H 2.095010 -1.018280 1.436176
C 2.495413 0.771348 -0.000109
H 3.574499 0.656597 -0.000057
H 2.150975 1.801363 -0.000356
C 1.725674 -0.259795 -0.765558
H 2.095106 -1.018988 -1.435567
