15
charge=0, multiplicity=1, basis=def2-QZVPP
C 2.849972 0.240500 0.022929
H 3.345765 0.469000 0.960822
H 3.341616 0.567723 -0.887507
C 1.716627 -0.391718 -0.008584
C 0.573038 -1.023476 -0.038823
H 0.593950 -2.109024 -0.092205
C -0.773642 -0.413261 -0.005619
C -0.964758 0.881768 -0.003932
C -1.152704 2.167025 -0.004085
H -1.258900 2.726602 -0.928464
H -1.205842 2.734275 0.920187
C -1.937158 -1.376874 0.025868
H -1.919664 -2.026151 -0.853738
H -1.878378 -2.019494 0.908463
H -2.886794 -0.846713 0.045910
