15
charge=0, multiplicity=1, basis=def2-QZVPP
C 3.213772 -0.028800 0.274235
H 4.263452 -0.009032 0.434219
C 2.024057 -0.063201 0.092274
C 0.631706 -0.052868 -0.116825
C -0.363367 1.097214 -0.202150
H -0.205579 1.791446 -1.029028
H -0.495222 1.661581 0.722498
C -1.448172 -0.012670 -0.444513
H -1.867652 0.033846 -1.454229
C -2.567781 -0.108993 0.579652
H -3.157132 -1.016749 0.432297
H -2.163547 -0.131873 1.594143
H -3.243573 0.745557 0.500409
C -0.302730 -0.996971 -0.320262
H -0.255654 -2.077051 -0.374779
