15
charge=0, multiplicity=1, basis=def2-QZVPP
C 2.980222 -0.012381 -0.001622
H 3.551863 -0.021180 0.921846
H 3.549795 -0.021330 -0.926353
C 1.679407 0.009763 -0.000081
C 0.372284 0.025546 0.001303
C -0.546431 -1.197873 0.002614
H -0.358229 -1.821195 -0.871396
H -0.363240 -1.814087 0.882802
C -1.984382 -0.616125 -0.002843
H -2.560201 -0.940521 0.868722
H -2.552322 -0.937820 -0.880641
C -1.778329 0.874252 -0.000275
H -2.599586 1.578197 -0.000859
C -0.485675 1.210436 0.001468
H -0.090652 2.216234 0.002495
