15
charge=0, multiplicity=1, basis=def2-QZVPP
C 2.532348 -0.516941 -0.000041
H 3.398339 -1.131369 -0.000007
C 1.559283 0.187818 -0.000015
C 0.383431 1.008988 0.000011
H 0.585640 2.074308 0.000031
C -0.874833 0.649790 0.760279
H -1.312747 1.362544 1.445347
C -1.083469 -0.863807 0.780621
H -0.302293 -1.444299 1.272121
H -2.051655 -1.145504 1.190624
C -1.083586 -0.863770 -0.780623
H -0.302578 -1.444340 -1.272299
H -2.051882 -1.145341 -1.190461
C -0.874852 0.649819 -0.760246
H -1.312757 1.362614 -1.445279
