15
charge=0, multiplicity=1, basis=def2-QZVPP
C -2.142069 0.528318 1.031409
C -0.715695 0.434867 0.636248
C -0.066677 0.501573 -0.748481
C 1.283184 0.202473 -0.000482
C 0.436621 0.187092 1.267982
C 0.171438 -0.825330 -1.463897
C 1.316918 -1.081230 -0.827979
H -2.568332 1.494760 0.747690
H -2.269850 0.399497 2.106896
H -2.731212 -0.240049 0.520370
H -0.197092 1.405042 -1.342604
H 2.125932 0.888148 -0.065832
H 0.684423 -0.030197 2.299011
H -0.423234 -1.375867 -2.180707
H 2.001166 -1.919373 -0.832228
