15
charge=0, multiplicity=1, basis=def2-QZVPP
C -1.510521 1.352809 0.042953
H -2.524602 1.085052 0.341437
H -1.567342 1.893536 -0.906396
H -1.105069 2.044959 0.786929
C -0.632275 0.120062 -0.083724
C -1.233187 -1.209217 -0.450660
H -1.654215 -1.817533 -1.232647
C -0.872158 -1.085921 0.782543
H -0.785855 -1.512569 1.766519
C 0.784331 0.440212 -0.512901
H 0.832178 1.094942 -1.386070
C 1.906964 -0.527965 -0.278343
H 2.351884 -1.462092 -0.570672
C 1.907572 0.511658 0.484403
H 2.348665 1.063891 1.295279
