15
charge=0, multiplicity=1, basis=def2-QZVPP
C 2.269547 -0.949810 0.027846
H 3.312444 -0.655184 0.024498
H 2.052626 -2.011130 0.061177
C 1.302725 -0.057065 -0.006084
C -0.125508 0.220314 -0.029525
C -1.198633 -0.061585 1.060394
H -0.960290 -0.889256 1.730555
H -1.485237 0.813351 1.647332
C -2.100776 -0.395571 -0.117130
H -3.128660 -0.726109 -0.168851
C -1.167211 -0.143120 -1.040503
H -1.138666 -0.189763 -2.120909
C 0.904689 1.353492 -0.063175
H 1.031280 1.896262 -0.994263
H 1.007505 1.961898 0.829525
