15
charge=0, multiplicity=1, basis=def2-QZVPP
C -1.982431 1.094665 0.056434
C -0.745309 0.662951 0.051444
C 0.474658 0.360899 -0.744521
C 1.401455 1.125935 0.190059
C 0.413506 0.168965 0.842600
C 0.728779 -0.999726 -0.092934
C -0.216139 -2.154062 -0.268875
H -2.541162 1.166517 0.980004
H -2.471094 1.389695 -0.862504
H 1.220749 2.184903 0.311255
H 2.441299 0.821895 0.193252
H 1.779610 -1.272948 -0.085518
H -1.254206 -1.824217 -0.270650
H -0.086496 -2.875111 0.539976
H -0.016760 -2.664954 -1.212379
