15
charge=0, multiplicity=1, basis=def2-QZVPP
C -3.220825 0.287212 -0.338510
H -4.140532 0.756586 -0.587097
C -2.184322 -0.245607 -0.057512
C -0.914035 -0.876053 0.282347
H -0.982183 -1.340579 1.272957
H -0.710368 -1.699269 -0.411786
C 0.234185 0.059743 0.269021
C 1.718971 0.166566 0.454313
H 2.106556 0.150842 1.475993
C 2.695181 -0.389729 -0.563066
H 2.263094 -0.369879 -1.565993
H 3.619270 0.194468 -0.582870
H 2.967025 -1.423206 -0.330186
C 0.721422 1.240172 0.098895
H 0.573675 2.277210 -0.143949
