15
charge=0, multiplicity=1, basis=def2-QZVPP
C -1.034419 1.209679 -0.000041
H -1.386804 2.230470 0.000116
C -1.957649 0.000002 0.000178
H -2.617269 0.000020 0.876813
H -2.618455 -0.000013 -0.875517
C -1.034425 -1.209679 -0.000024
H -1.386823 -2.230466 0.000377
C 0.214266 -0.722699 -0.000476
C 1.738680 -0.793015 0.000143
H 2.183467 -1.246348 -0.885973
H 2.183015 -1.246805 0.886237
C 1.738676 0.793014 0.000250
H 2.182439 1.246382 0.886858
H 2.184040 1.246764 -0.885352
C 0.214269 0.722698 -0.000623
