15
charge=0, multiplicity=1, basis=def2-QZVPP
C 2.742936 -0.164992 0.002398
H 3.277559 0.014532 0.929284
H 3.278992 0.022221 -0.922145
C 1.507374 -0.567368 -0.000193
C 0.295569 -1.059536 -0.002973
H 0.228134 -2.145334 -0.007368
C -1.005712 -0.376247 -0.000006
C -1.165120 1.081017 0.002080
H -2.203053 1.400345 0.007374
C -0.220712 2.020397 -0.002337
H 0.832974 1.790656 -0.007831
H -0.496755 3.066851 -0.000504
C -2.113988 -1.139143 0.000833
H -3.099937 -0.694461 0.003308
H -2.059998 -2.219579 -0.000928
