15
charge=0, multiplicity=1, basis=def2-QZVPP
C -2.453667 -0.072605 -1.053070
C -1.493168 -0.040168 -0.328432
C -0.367801 -0.001008 0.516843
C 0.544557 -1.104980 0.979973
C 1.094606 0.027902 0.180797
C 1.772613 0.023849 -1.143801
C 0.491806 1.157849 0.945468
H -3.305398 -0.101926 -1.686058
H 0.447867 -2.055765 0.466989
H 0.766627 -1.183085 2.043072
H 1.515665 -0.875956 -1.706518
H 2.859139 0.052537 -1.033423
H 1.471759 0.891701 -1.734235
H 0.351426 2.087041 0.403842
H 0.709177 1.278474 2.005555
