15
charge=0, multiplicity=1, basis=def2-QZVPP
C 2.189798 -1.164031 -0.098488
H 1.960507 -1.980067 -0.772795
H 3.050971 -1.277332 0.549355
C 1.452190 -0.076898 -0.069559
C 0.262984 0.610243 -0.609856
H 0.358158 1.066129 -1.590015
C -1.057578 0.121825 -0.267048
C -1.852413 -0.508855 0.840946
H -1.686182 -1.556687 1.091041
H -2.163481 0.098397 1.691451
C -2.291902 -0.128885 -0.548296
H -3.108326 -0.120989 -1.246721
C 1.149505 1.219289 0.508616
H 0.722400 1.255717 1.504094
H 1.750446 2.078705 0.235688
