15
charge=0, multiplicity=1, basis=def2-QZVPP
C -2.701551 -0.346885 -0.259543
H -3.644064 -0.700731 -0.597438
C -1.639025 0.054714 0.130762
C -0.341937 0.529926 0.572475
H -0.465210 1.171063 1.446072
C 0.764929 -0.512048 0.813064
H 1.000879 -0.935988 1.778652
C 1.674448 0.195809 -0.186677
H 2.732134 0.400761 -0.103403
C 1.151249 -1.179280 -0.468484
H 1.869490 -1.982285 -0.367201
H 0.409569 -1.334037 -1.244758
C 0.595094 1.236384 -0.476723
H 0.221879 1.265201 -1.500821
H 0.856089 2.244301 -0.160349
