15
charge=0, multiplicity=1, basis=def2-QZVPP
C 1.245196 1.540218 0.000138
H 0.921056 2.097906 0.882219
H 0.919157 2.098807 -0.880665
H 2.334461 1.498824 -0.001038
C 0.653446 0.142191 0.000082
C 1.394595 -1.012812 0.641815
H 1.678868 -1.457556 1.578861
C 1.394289 -1.012688 -0.642212
H 1.677720 -1.457402 -1.579526
C -0.806505 0.114073 0.000320
C -2.007405 -0.786219 0.000306
H -2.282187 -1.317621 0.911875
H -2.281735 -1.318434 -0.910924
C -1.947591 0.719958 -0.000462
H -2.523483 1.627155 -0.000727
