15
charge=0, multiplicity=1, basis=def2-QZVPP
C -1.949475 0.136072 0.000147
H -3.029163 0.171445 0.000297
C -1.168044 -1.173306 -0.000396
H -1.411936 -1.781797 0.877437
H -1.412336 -1.782598 -0.877488
C 0.234595 -0.655980 -0.000089
C 1.748381 -0.792365 0.000472
H 2.194997 -1.246826 0.887900
H 2.194936 -1.247167 -0.886813
C 1.759516 0.794643 -0.000386
H 2.208570 1.243418 0.887654
H 2.208921 1.243077 -0.888430
C 0.242679 0.680098 -0.000071
C -1.121742 1.204273 0.000176
H -1.429445 2.239840 0.000320
