15
charge=0, multiplicity=1, basis=def2-QZVPP
C -2.889686 -0.312984 -0.212117
H -3.904636 -0.355471 -0.521006
C -1.741897 -0.262458 0.138653
C -0.370229 -0.202018 0.549742
H -0.184439 -0.497578 1.578767
C 0.766236 -0.562018 -0.445026
H 0.411837 -0.807745 -1.441745
C 1.949761 -1.365810 0.037487
H 2.819489 -1.189566 -0.598832
H 2.220877 -1.083115 1.055910
H 1.728632 -2.434823 0.022964
C 0.549132 0.810422 -0.015125
C 0.880982 2.081085 -0.047969
H 0.333447 2.820498 0.523619
H 1.708999 2.430487 -0.653550
