15
charge=0, multiplicity=1, basis=def2-QZVPP
C -2.332243 -0.644171 -0.149234
H -2.815922 -1.572359 -0.397183
C -1.102603 -0.000054 0.428756
H -0.975893 -0.000111 1.513548
C 0.198950 -0.000058 -0.314787
H 0.089135 -0.000159 -1.401232
C 1.360328 -0.744756 0.269579
H 1.381048 -1.420292 1.108114
C 2.476244 0.000000 -0.385930
H 2.551678 -0.000076 -1.472733
H 3.432178 0.000055 0.126544
C 1.360298 0.744807 0.269458
H 1.380946 1.420488 1.107878
C -2.332201 0.644229 -0.149158
H -2.815818 1.572468 -0.397036
