15
charge=0, multiplicity=1, basis=def2-QZVPP
C -3.525947 -0.294532 -0.000073
H -3.838981 -0.853738 0.885091
H -4.065886 0.654962 -0.005846
H -3.837350 -0.863659 -0.879447
C -2.089677 -0.080980 0.000070
C -0.894927 0.088873 0.000049
C 0.472123 0.329667 0.000098
C 1.531938 1.414774 -0.000058
H 1.710027 1.982717 0.913521
H 1.709926 1.982568 -0.913752
C 1.706750 -0.070543 0.000054
C 2.700488 -1.155078 -0.000035
H 3.348425 -1.080842 -0.878178
H 2.220829 -2.134153 -0.000062
H 3.348522 -1.080935 0.878042
