15
charge=0, multiplicity=1, basis=def2-QZVPP
C 0.266552 1.847072 -0.856053
C 0.408170 1.183897 0.446956
C -0.946805 1.463715 -0.052415
C -0.255818 0.475304 -0.896097
C 0.630637 -0.278697 0.091292
C 0.031705 -1.362817 0.944079
C -0.109066 -2.682660 0.187302
H 0.699762 2.609636 -1.471729
H -1.919904 1.785834 0.259137
H 1.626102 -0.496756 -0.290927
H -0.942282 -1.027931 1.308044
H 0.668727 -1.501781 1.821618
H -0.763345 -2.563975 -0.677476
H -0.530176 -3.456368 0.830415
H 0.858963 -3.038249 -0.172414
