15
charge=0, multiplicity=1, basis=def2-QZVPP
C -2.270034 -0.945522 -0.460779
H -3.276490 -0.960401 -0.060880
H -2.045704 -1.621592 -1.276768
C -1.353598 -0.135365 0.026117
C -0.000001 0.353471 -0.000002
C 1.353596 -0.135383 -0.026153
C 2.269996 -0.945605 0.460702
H 3.276465 -0.960494 0.060840
H 2.045585 -1.621750 1.276605
C 0.990763 0.909770 -1.002961
H 0.866645 0.630904 -2.044276
H 1.357148 1.918355 -0.840022
C -0.990722 0.909649 1.003059
H -0.866552 0.630620 2.044325
H -1.357096 1.918262 0.840278
