15
charge=0, multiplicity=1, basis=def2-QZVPP
C 3.125439 0.429469 0.000080
H 3.703939 -0.487145 0.000471
H 3.677563 1.359100 -0.000151
C 1.787495 0.410971 -0.000137
H 1.257831 1.361273 -0.000539
C 0.954162 -0.769803 0.000109
H 1.436682 -1.740991 0.000466
C -0.382658 -0.711927 -0.000114
C -1.612182 0.025365 -0.000776
C -2.268771 1.340908 0.000253
H -1.955068 1.911099 0.878057
H -3.354613 1.252291 0.000246
H -1.955240 1.912945 -0.876390
C -1.687591 -1.291053 0.000240
H -2.306452 -2.172145 -0.000091
