15
charge=0, multiplicity=1, basis=def2-QZVPP
C -2.234782 -1.027781 -0.355173
H -2.010329 -2.054016 -0.053882
H -3.314456 -0.880588 -0.265589
H -1.961371 -0.924233 -1.407133
C -1.471924 -0.033778 0.490292
H -1.725871 -0.059076 1.548335
C -0.107633 0.365952 0.144774
C 1.156246 0.042827 0.042003
C 2.263040 -0.870506 0.183802
H 2.632457 -1.839055 0.475145
C 2.529347 0.320320 -0.299192
H 3.268654 1.005172 -0.678397
C -1.160494 1.363848 -0.065294
H -1.492657 1.577373 -1.077647
H -1.239224 2.209142 0.611896
