15
charge=0, multiplicity=1, basis=def2-QZVPP
C -3.767560 0.026330 -0.000024
H -4.800462 0.273362 -0.000017
C -2.602973 -0.263041 0.000012
C -1.181676 -0.576894 0.000011
H -0.936320 -1.182185 -0.875952
H -0.936321 -1.182179 0.875980
C -0.301384 0.693719 0.000007
H -0.551615 1.298263 0.875402
H -0.551606 1.298247 -0.875403
C 1.120336 0.376837 0.000013
C 2.286289 0.086158 -0.000010
C 3.701405 -0.254125 -0.000011
H 3.844363 -1.336924 0.007722
H 4.201119 0.142251 -0.886633
H 4.204223 0.155262 0.878913
