15
charge=0, multiplicity=1, basis=def2-QZVPP
C 2.754007 0.000032 -0.023824
H 2.992867 0.000042 1.033608
H 3.587399 0.000148 -0.714388
C 1.498676 -0.000127 -0.452483
H 1.287392 -0.000111 -1.517582
C 0.284346 -0.000173 0.435781
H 0.612477 -0.000223 1.483224
C -0.627088 1.176063 0.181591
H -0.301540 2.202001 0.262356
C -1.846776 0.733160 -0.161825
H -2.704490 1.345713 -0.401318
C -1.846953 -0.732869 -0.161915
H -2.704812 -1.345209 -0.401432
C -0.627391 -1.176117 0.181538
H -0.302223 -2.202173 0.262350
