15
charge=0, multiplicity=1, basis=def2-QZVPP
C 1.870341 -0.022155 -0.050726
C 0.674840 -0.022643 0.096496
C -0.722280 -0.026623 0.299198
C -1.693957 1.114403 0.417151
C -1.868554 0.096333 -0.658402
C -1.724306 -1.139140 0.164147
C 3.313479 -0.021372 -0.229874
H -1.324879 2.089367 0.120287
H -2.389550 1.126651 1.255076
H -1.819246 0.215605 -1.726797
H -1.380419 -2.033495 -0.342580
H -2.422475 -1.318343 0.980579
H 3.752832 -0.954284 0.131180
H 3.775870 0.798629 0.324656
H 3.586502 0.091166 -1.281974
