15
charge=0, multiplicity=1, basis=def2-QZVPP
C 2.822963 -0.453317 -0.000131
H 2.527324 -1.495430 -0.000251
H 3.883491 -0.242036 -0.000207
C 1.911882 0.525612 0.000063
H 2.236349 1.562188 0.000111
C 0.495669 0.298045 0.000114
C -0.337017 -0.984967 0.000117
H -0.244004 -1.608564 0.891918
H -0.243911 -1.608721 -0.891559
C -1.536905 -0.019522 0.000019
C -2.856012 -0.180713 -0.000102
H -3.301290 -1.167199 -0.000076
H -3.527221 0.669022 -0.000227
C -0.600184 1.100823 -0.000020
H -0.733107 2.174967 -0.000064
