15
charge=0, multiplicity=1, basis=def2-QZVPP
C 3.325111 0.450980 0.000017
H 4.335821 0.066550 -0.000029
H 3.207833 1.528274 0.000099
C 2.264872 -0.363190 -0.000034
H 2.420113 -1.438445 -0.000159
C 0.895675 0.090893 0.000028
H 0.724976 1.163348 0.000059
C -0.172939 -0.729472 0.000014
H -0.026185 -1.805663 -0.000118
C -1.512707 -0.252992 0.000056
C -2.359808 0.989794 -0.000057
H -2.444882 1.580595 -0.912137
H -2.444965 1.580728 0.911929
C -2.796223 -0.445917 0.000032
H -3.636586 -1.115960 0.000014
