15
charge=0, multiplicity=1, basis=def2-QZVPP
C -2.449005 -1.273745 -0.298685
H -3.142860 -1.985058 -0.672767
C -1.664225 -0.468397 0.123897
C -0.719728 0.487906 0.624971
H -0.740109 0.630213 1.701365
C 0.577970 0.685668 -0.052611
C 1.743194 0.145036 -0.335941
H 2.437980 0.707136 -0.954666
C 2.182974 -1.206630 0.132577
H 3.095853 -1.136553 0.730960
H 2.410605 -1.857052 -0.716651
H 1.410511 -1.686240 0.732949
C -0.388847 1.759738 -0.200403
H -0.904338 1.872735 -1.146881
H -0.261639 2.677365 0.362864
