15
charge=0, multiplicity=1, basis=def2-QZVPP
C 3.481738 0.035356 -0.000097
H 3.892141 -0.461227 -0.882703
H 3.892475 -0.461323 0.882299
H 3.837833 1.067870 -0.000096
C 2.030021 -0.017203 0.000140
C 0.825311 -0.073765 0.000094
C -0.582287 -0.085779 0.000075
C -1.595748 1.053253 -0.000005
H -1.582123 1.685357 -0.889211
H -1.582233 1.685441 0.889141
C -2.686352 -0.071266 -0.000061
H -3.323946 -0.090768 -0.886856
H -3.324037 -0.090789 0.886668
C -1.528252 -1.042484 -0.000013
H -1.476704 -2.123233 -0.000041
