15
charge=0, multiplicity=1, basis=def2-QZVPP
C 3.023841 -0.000033 -0.302020
H 3.393417 -0.000059 -1.321395
H 3.763131 -0.000322 0.491400
C 1.745049 0.000002 -0.042139
C 0.487644 0.000231 0.220196
C -0.687217 -0.777476 0.631807
H -0.645796 -1.464055 1.467180
C -1.739693 -0.780235 -0.484561
H -1.444907 -1.277498 -1.408790
H -2.694490 -1.185880 -0.153009
C -1.739845 0.779928 -0.484808
H -1.445024 1.276899 -1.409180
H -2.694721 1.185549 -0.153478
C -0.687355 0.777714 0.631611
H -0.646165 1.464580 1.466760
