15
charge=0, multiplicity=1, basis=def2-QZVPP
C -3.240695 -0.047414 0.000004
H -3.810268 -0.049780 -0.924260
H -3.810277 -0.049726 0.924261
C -1.938046 -0.044611 0.000008
C -0.638539 -0.031262 0.000003
C 0.426562 1.090976 -0.000002
H 0.425331 1.720729 0.892345
H 0.425285 1.720742 -0.892341
C 1.425138 -0.065794 -0.000058
C 2.904655 -0.071259 0.000013
H 3.297732 0.450749 0.878012
H 3.297857 0.451585 -0.877428
H 3.299556 -1.087898 -0.000425
C 0.461518 -1.008359 0.000002
H 0.471219 -2.090061 0.000011
