15
charge=0, multiplicity=1, basis=def2-QZVPP
C -2.183248 0.804144 0.000257
H -2.665616 1.764681 0.000705
C -2.385111 -0.681978 -0.000284
H -2.706180 -1.184459 0.911657
H -2.706130 -1.183745 -0.912636
C -1.095644 0.097909 0.000081
C 0.319191 -0.010667 -0.000002
C 1.430288 1.029462 -0.000193
H 1.479947 1.660497 0.888431
H 1.479860 1.660103 -0.889099
C 2.412599 -0.192715 -0.000036
H 3.045652 -0.273436 -0.886564
H 3.045646 -0.273038 0.886534
C 1.170048 -1.053718 0.000259
H 1.018086 -2.125230 0.000479
