15
charge=0, multiplicity=1, basis=def2-QZVPP
C 3.032374 -0.374482 0.002776
H 3.043365 -1.458195 0.011257
H 3.991292 0.126051 -0.001500
C 1.893138 0.306449 -0.002212
H 1.914103 1.393580 -0.010710
C 0.552258 -0.314470 0.002965
H 0.556233 -1.401830 0.012315
C -0.541021 0.382214 0.770055
H -0.432943 1.221426 1.439081
C -1.687255 -0.050156 0.000378
C -2.975771 -0.342796 0.002677
H -3.518659 -0.457786 0.930746
H -3.518323 -0.473682 -0.923481
C -0.540809 0.368901 -0.776314
H -0.432548 1.196467 -1.459658
