15
charge=0, multiplicity=1, basis=def2-QZVPP
C 2.890294 -1.028886 0.000116
H 3.822719 -1.537096 0.000187
C 1.824642 -0.468531 -0.000052
C 0.595092 0.246957 -0.000101
C -0.570227 -0.436816 -0.000304
H -0.511284 -1.520071 -0.000431
C -1.901810 0.121352 -0.000258
H -2.003113 1.200259 -0.000731
C -3.011210 -0.625224 0.000293
H -2.962923 -1.707844 0.000736
H -3.995511 -0.177395 0.000323
C 0.725863 1.747763 0.000157
H -0.238541 2.248932 -0.001224
H 1.287706 2.076823 -0.876755
H 1.285085 2.076706 0.878793
