15
charge=0, multiplicity=1, basis=def2-QZVPP
C 2.586929 -0.695528 0.000054
H 3.236523 -1.560046 0.000047
H 3.066740 0.274645 0.000145
C 1.255478 -0.832332 -0.000041
H 0.840980 -1.836985 -0.000120
C 0.280562 0.242222 -0.000037
C -1.023883 -0.054236 -0.000072
C -2.118163 -0.981027 0.000036
H -2.474691 -1.996409 -0.000014
C -2.411542 0.300810 0.000034
H -3.174887 1.059526 0.000143
C 0.745279 1.672703 -0.000008
H 1.359284 1.891748 0.878891
H 1.358869 1.891992 -0.879141
H -0.100775 2.359864 0.000256
