15
charge=0, multiplicity=1, basis=def2-QZVPP
C -1.630500 -0.002710 0.221168
C -2.921053 -0.004846 0.396738
C -0.343306 -0.000454 0.046046
C 0.543270 1.243679 0.002907
C 1.915922 0.666017 -0.217621
C 1.907141 -0.659596 -0.298732
C 0.526835 -1.241660 -0.148972
H -3.359919 -0.062401 1.387661
H -3.608876 0.050824 -0.440898
H 0.481588 1.817981 0.932571
H 0.247937 1.924204 -0.801894
H 2.798286 1.286945 -0.297776
H 2.781294 -1.277713 -0.454871
H 0.456950 -1.923841 0.704093
H 0.223112 -1.815365 -1.030203
