15
charge=0, multiplicity=1, basis=def2-QZVPP
C 2.769795 0.852998 -0.000079
H 3.469008 1.652371 -0.000110
C 1.984282 -0.052962 -0.000029
C 1.014808 -1.143572 0.000110
H 1.181646 -1.786413 -0.872054
H 1.181725 -1.786228 0.872398
C -0.390989 -0.676891 0.000094
C -1.820435 -1.136389 -0.000098
H -2.260104 -1.544475 0.911906
H -2.259836 -1.544637 -0.912155
C -1.265366 0.267824 -0.000120
C -1.637418 1.692088 0.000072
H -0.753727 2.330436 0.001173
H -2.242525 1.930556 -0.878840
H -2.244249 1.929811 0.877985
