15
charge=0, multiplicity=1, basis=def2-QZVPP
C -1.481087 0.825070 -0.273349
C -1.532710 -0.728782 -0.261849
C -0.080316 -1.075563 -0.000281
C 0.538409 -0.011355 0.891031
C 1.942868 -0.062009 0.344682
C 0.811652 -0.031658 -0.651784
C -0.008743 1.078479 -0.016057
H -2.103467 1.265186 0.506166
H -1.795708 1.241987 -1.230394
H -1.874899 -1.137994 -1.212742
H -2.182532 -1.115037 0.523817
H 0.261497 -2.099744 0.073665
H 2.486173 -0.992617 0.453136
H 2.546742 0.831972 0.440084
H 0.400320 2.078685 0.043204
