15
charge=0, multiplicity=1, basis=def2-QZVPP
C -3.287690 0.151944 -0.000562
H -3.811308 0.369124 0.924716
H -3.811142 0.366539 -0.926562
C -2.087272 -0.339995 -0.000014
C -0.873728 -0.839050 0.000899
H -0.752828 -1.919435 0.001907
C 0.314728 -0.037907 0.000268
C 0.841024 1.366530 0.000409
H 0.784071 1.962159 0.912878
H 0.782925 1.962910 -0.911504
C 1.606633 0.072245 -0.000751
C 2.959287 -0.506711 -0.000367
H 3.520843 -0.172649 -0.877626
H 3.519557 -0.173906 0.878191
H 2.929984 -1.597076 -0.001293
