15
charge=0, multiplicity=1, basis=def2-QZVPP
C 2.349535 1.333407 -0.087512
H 3.180198 1.474094 -0.768952
H 2.056622 2.177099 0.525409
C 1.716695 0.184767 -0.010470
C 0.613880 -0.571270 0.614583
H 0.796412 -0.942477 1.618945
C -0.754996 -0.253912 0.319746
C -1.899526 0.017368 0.069644
C -3.283590 0.348322 -0.232675
H -3.722434 -0.375613 -0.923219
H -3.890840 0.352368 0.675347
H -3.361634 1.337395 -0.689905
C 1.530117 -1.180806 -0.477599
H 2.221698 -1.951935 -0.158146
H 1.087282 -1.338187 -1.453779
