15
charge=0, multiplicity=1, basis=def2-QZVPP
C -3.436105 -0.228249 -0.321335
H -4.414167 -0.552392 -0.578013
C -2.333234 0.144787 -0.029187
C -0.982166 0.564551 0.314622
H -0.960547 0.888872 1.359938
H -0.711831 1.440226 -0.283461
C 0.068738 -0.539068 0.101038
H 0.071006 -0.835851 -0.950071
H -0.220952 -1.419593 0.681515
C 1.454275 -0.080579 0.507464
H 1.537501 0.135244 1.575231
C 2.342675 0.686594 -0.435069
H 2.521852 1.623879 -0.931136
C 2.688470 -0.535614 -0.216802
H 3.361214 -1.354912 -0.398396
