15
charge=0, multiplicity=1, basis=def2-QZVPP
C -1.962266 0.906080 0.050615
H -2.004579 1.972033 0.192058
C -1.197698 -0.312728 0.044847
C -0.069557 -0.997531 0.179110
H -0.100133 -2.073493 0.042618
C 1.243529 -0.388319 0.513294
H 1.656138 -0.682234 1.474592
C 2.281067 -0.166353 -0.562872
H 3.321547 -0.339470 -0.320983
H 2.001361 -0.424535 -1.575511
C 1.585453 1.006842 0.072760
H 0.855434 1.536658 -0.523752
H 2.151990 1.635857 0.746288
C -2.604393 -0.205222 -0.225420
H -3.538578 -0.681435 -0.469316
