15
charge=0, multiplicity=1, basis=def2-QZVPP
C -2.319030 -0.295298 -0.000049
H -2.699542 -1.309329 0.000038
H -3.050726 0.502795 -0.000105
C -1.015840 -0.046715 0.000025
C 0.098347 -1.034935 0.000071
H -0.075912 -2.102179 0.000133
C 1.291978 -0.453894 0.727950
H 1.954870 -0.836152 1.483320
C 1.146737 0.854710 -0.000070
H 1.963483 1.563971 -0.000116
C 1.291914 -0.453963 -0.727989
H 1.954740 -0.836262 -1.483397
C -0.313575 1.302467 0.000040
H -0.565127 1.891547 -0.884906
H -0.564978 1.891371 0.885164
