15
charge=0, multiplicity=1, basis=def2-QZVPP
C 3.237022 -0.005775 0.194296
H 3.777679 0.921019 0.352610
H 3.778919 -0.929449 0.366061
C 1.993600 -0.009317 -0.189316
C 0.744846 -0.014148 -0.558991
H 0.510555 -0.027888 -1.621463
C -0.422157 -0.011979 0.382098
H -0.068680 0.016202 1.414232
C -1.550328 1.052560 0.088391
H -1.785055 1.709037 0.929150
H -1.363820 1.665597 -0.795506
C -2.463389 -0.137566 -0.112107
H -3.516476 -0.210587 -0.350652
C -1.513228 -1.043507 0.123998
H -1.491314 -2.125540 0.135353
