15
charge=0, multiplicity=1, basis=def2-QZVPP
C 3.578325 -0.388155 0.000655
H 4.562585 -0.786301 0.001168
C 2.458916 0.055047 0.000062
C 1.155907 0.610912 -0.000897
H 1.092808 1.695359 -0.002468
C 0.029451 -0.114126 -0.000159
H 0.105694 -1.197821 0.001305
C -1.321694 0.448564 -0.001182
H -1.371204 1.530598 -0.003479
C -2.429183 -0.267551 0.747270
H -3.154273 0.345480 1.264602
H -2.166783 -1.182432 1.261283
C -2.429491 -0.270814 -0.745888
H -2.167324 -1.187970 -1.255962
H -3.154887 0.339826 -1.265616
